
     Program PWSCF v.7.5 starts on 23Sep2026 at  9:27: 1 

     This program is part of the open-source Quantum ESPRESSO suite
     for quantum simulation of materials; please cite
         "P. Giannozzi et al., J. Phys.:Condens. Matter 21 395502 (2009);
         "P. Giannozzi et al., J. Phys.:Condens. Matter 29 465901 (2017);
         "P. Giannozzi et al., J. Chem. Phys. 152 154105 (2020);
          URL http://www.quantum-espresso.org", 
     in publications or presentations arising from this work. More details at
     http://www.quantum-espresso.org/quote

     Parallel version (MPI & OpenMP), running on      64 processor cores
     Number of MPI processes:                64
     Threads/MPI process:                     1

     MPI processes distributed on    11 nodes
     563249 MiB available memory on the printing compute node when the environment starts

     Waiting for input...
     Reading input from standard input

     Current dimensions of program PWSCF are:
     Max number of different atomic species (ntypx) = 10
     Max number of k-points (npk) =  40000
     Max angular momentum in pseudopotentials (lmaxx) =  4

     gamma-point specific algorithms are used

     R & G space division:  proc/nbgrp/npool/nimage =      64
     Subspace diagonalization in iterative solution of the eigenvalue problem:
     one sub-group per band group will be used
     ELPA distributed-memory algorithm (size of sub-group:  2*  2 procs)


     Parallelization info
     --------------------
     sticks:   dense  smooth     PW     G-vecs:    dense   smooth      PW
     Min         336     336     83                42864    42864    5352
     Max         338     338     86                42878    42878    5366
     Sum       21511   21511   5389              2743625  2743625  343019

     Using Slab Decomposition



     bravais-lattice index     =            0
     lattice parameter (alat)  =      27.9587  a.u.
     unit-cell volume          =   20308.8852 (a.u.)^3
     number of atoms/cell      =           71
     number of atomic types    =            1
     number of electrons       =       284.00
     number of Kohn-Sham states=          172
     kinetic-energy cutoff     =     100.0000  Ry
     charge density cutoff     =     400.0000  Ry
     scf convergence threshold =      1.0E-10
     mixing beta               =       0.3000
     number of iterations used =            8  plain     mixing
     energy convergence thresh.=      1.0E-05
     force convergence thresh. =      1.0E-04
     Exchange-correlation= PBE
                           (   1   4   3   4   0   0   0)
     nstep                     =          200


     celldm(1)=  27.958708  celldm(2)=   0.000000  celldm(3)=   0.000000
     celldm(4)=   0.000000  celldm(5)=   0.000000  celldm(6)=   0.000000

     crystal axes: (cart. coord. in units of alat)
               a(1) = (   0.866025  -0.500000   0.000000 )  
               a(2) = (   0.866025   0.500000   0.000000 )  
               a(3) = (   0.000000   0.000000   1.073011 )  

     reciprocal axes: (cart. coord. in units 2 pi/alat)
               b(1) = (  0.577350 -1.000000  0.000000 )  
               b(2) = (  0.577350  1.000000 -0.000000 )  
               b(3) = ( -0.000000  0.000000  0.931957 )  


     PseudoPot. # 1 for C  read from file:
     /home/gregb26/links/projects/rrg-cotemich-ac/gregb26/abinit_processing/pseudo/C.upf
     MD5 check sum: 34a24e64c0a39f27c6c36b90a16ac686
     Pseudo is Norm-conserving + core correction, Zval =  4.0
     Generated using ONCVPSP code by D. R. Hamann
     Using radial grid of 1248 points,  4 beta functions with: 
                l(1) =   0
                l(2) =   0
                l(3) =   1
                l(4) =   1

     atomic species   valence    mass     pseudopotential
     C                 4.00    12.01100     C ( 1.00)

     No symmetry found



   Cartesian axes

     site n.     atom                  positions (alat units)
         1        C      tau(   1) = (   0.0962250  -0.0000000   0.0000000  )
         2        C      tau(   2) = (   0.1924501  -0.0000000   0.0000000  )
         3        C      tau(   3) = (   0.2405626   0.0833333   0.0000000  )
         4        C      tau(   4) = (   0.3367877   0.0833333   0.0000000  )
         5        C      tau(   5) = (   0.3849002   0.1666667   0.0000000  )
         6        C      tau(   6) = (   0.4811252   0.1666667   0.0000000  )
         7        C      tau(   7) = (   0.5292377   0.2500000   0.0000000  )
         8        C      tau(   8) = (   0.6254628   0.2500000   0.0000000  )
         9        C      tau(   9) = (   0.6735753   0.3333333   0.0000000  )
        10        C      tau(  10) = (   0.7698004   0.3333333   0.0000000  )
        11        C      tau(  11) = (   0.8179129   0.4166667   0.0000000  )
        12        C      tau(  12) = (   0.9141379   0.4166667   0.0000000  )
        13        C      tau(  13) = (   0.2405626  -0.0833333   0.0000000  )
        14        C      tau(  14) = (   0.3367877  -0.0833333   0.0000000  )
        15        C      tau(  15) = (   0.3849002  -0.0000000   0.0000000  )
        16        C      tau(  16) = (   0.4811252   0.0000000   0.0000000  )
        17        C      tau(  17) = (   0.5292377   0.0833333   0.0000000  )
        18        C      tau(  18) = (   0.6254628   0.0833333   0.0000000  )
        19        C      tau(  19) = (   0.6735753   0.1666667   0.0000000  )
        20        C      tau(  20) = (   0.7698004   0.1666667   0.0000000  )
        21        C      tau(  21) = (   0.8179129   0.2500000   0.0000000  )
        22        C      tau(  22) = (   0.9141379   0.2500000   0.0000000  )
        23        C      tau(  23) = (   0.9622504   0.3333333   0.0000000  )
        24        C      tau(  24) = (   1.0584755   0.3333333   0.0000000  )
        25        C      tau(  25) = (   0.3849002  -0.1666667   0.0000000  )
        26        C      tau(  26) = (   0.4811252  -0.1666667   0.0000000  )
        27        C      tau(  27) = (   0.5292377  -0.0833333   0.0000000  )
        28        C      tau(  28) = (   0.6254628  -0.0833333   0.0000000  )
        29        C      tau(  29) = (   0.6753314   0.0010138   0.0000000  )
        30        C      tau(  30) = (   0.8161568   0.0823195   0.0000000  )
        31        C      tau(  31) = (   0.9141379   0.0833333   0.0000000  )
        32        C      tau(  32) = (   0.9622504   0.1666667   0.0000000  )
        33        C      tau(  33) = (   1.0584755   0.1666667   0.0000000  )
        34        C      tau(  34) = (   1.1065880   0.2500000   0.0000000  )
        35        C      tau(  35) = (   1.2028131   0.2500000   0.0000000  )
        36        C      tau(  36) = (   0.5292377  -0.2500000   0.0000000  )
        37        C      tau(  37) = (   0.6254628  -0.2500000   0.0000000  )
        38        C      tau(  38) = (   0.6735753  -0.1666667   0.0000000  )
        39        C      tau(  39) = (   0.7698004  -0.1666667   0.0000000  )
        40        C      tau(  40) = (   0.8179129  -0.0833333   0.0000000  )
        41        C      tau(  41) = (   0.9141379  -0.0833333   0.0000000  )
        42        C      tau(  42) = (   0.9622504   0.0000000   0.0000000  )
        43        C      tau(  43) = (   1.0584755  -0.0000000   0.0000000  )
        44        C      tau(  44) = (   1.1065880   0.0833333   0.0000000  )
        45        C      tau(  45) = (   1.2028131   0.0833333   0.0000000  )
        46        C      tau(  46) = (   1.2509256   0.1666667   0.0000000  )
        47        C      tau(  47) = (   1.3471506   0.1666667   0.0000000  )
        48        C      tau(  48) = (   0.6735753  -0.3333333   0.0000000  )
        49        C      tau(  49) = (   0.7698004  -0.3333333   0.0000000  )
        50        C      tau(  50) = (   0.8179129  -0.2500000   0.0000000  )
        51        C      tau(  51) = (   0.9141379  -0.2500000   0.0000000  )
        52        C      tau(  52) = (   0.9622504  -0.1666667   0.0000000  )
        53        C      tau(  53) = (   1.0584755  -0.1666667   0.0000000  )
        54        C      tau(  54) = (   1.1065880  -0.0833333   0.0000000  )
        55        C      tau(  55) = (   1.2028131  -0.0833333   0.0000000  )
        56        C      tau(  56) = (   1.2509256  -0.0000000   0.0000000  )
        57        C      tau(  57) = (   1.3471506   0.0000000   0.0000000  )
        58        C      tau(  58) = (   1.3952632   0.0833333   0.0000000  )
        59        C      tau(  59) = (   1.4914882   0.0833333   0.0000000  )
        60        C      tau(  60) = (   0.8179129  -0.4166667   0.0000000  )
        61        C      tau(  61) = (   0.9141379  -0.4166667   0.0000000  )
        62        C      tau(  62) = (   0.9622504  -0.3333333   0.0000000  )
        63        C      tau(  63) = (   1.0584755  -0.3333333   0.0000000  )
        64        C      tau(  64) = (   1.1065880  -0.2500000   0.0000000  )
        65        C      tau(  65) = (   1.2028131  -0.2500000   0.0000000  )
        66        C      tau(  66) = (   1.2509256  -0.1666667   0.0000000  )
        67        C      tau(  67) = (   1.3471506  -0.1666667   0.0000000  )
        68        C      tau(  68) = (   1.3952632  -0.0833333   0.0000000  )
        69        C      tau(  69) = (   1.4914882  -0.0833333   0.0000000  )
        70        C      tau(  70) = (   1.5396007   0.0000000   0.0000000  )
        71        C      tau(  71) = (   1.6358258   0.0000000   0.0000000  )

     number of k points=     1  Marzari-Vanderbilt smearing, width (Ry)=  0.0100
                       cart. coord. in units 2pi/alat
        k(    1) = (   0.0000000   0.0000000   0.0000000), wk =   2.0000000

     Dense  grid:  1371813 G-vectors     FFT dimensions: ( 180, 180, 192)

     Estimated max dynamical RAM per process >      75.84 MB

     Estimated total dynamical RAM >       4.74 GB
 ----2D----2D----2D----2D----2D----2D----2D----2D----2D----2D----2D----2D
  The code is running with the 2D cutoff
  Please refer to:
  Sohier, T., Calandra, M., & Mauri, F. (2017), 
  Density functional perturbation theory for gated two-dimensional heterostructures:
  Theoretical developments and application to flexural phonons in graphene.
  Physical Review B, 96(7), 75448. https://doi.org/10.1103/PhysRevB.96.075448
 ----2D----2D----2D----2D----2D----2D----2D----2D----2D----2D----2D----2D

     Initial potential from superposition of free atoms

     starting charge     283.9968, renormalised to     284.0000

     negative rho (up, down):  5.425E-05 0.000E+00
     Starting wfcs are  284 randomized atomic wfcs

     total cpu time spent up to now is        2.3 secs

     per-process dynamical memory:   171.2 Mb

     Self-consistent Calculation

     iteration #  1     ecut=   100.00 Ry     beta= 0.30
     Davidson diagonalization with overlap
     ethr =  1.00E-02,  avg # of iterations =  2.0

     negative rho (up, down):  3.591E-07 0.000E+00

     total cpu time spent up to now is        3.6 secs

     total energy              =    -855.23471510 Ry
     estimated scf accuracy    <       6.50207977 Ry

     iteration #  2     ecut=   100.00 Ry     beta= 0.30
     Davidson diagonalization with overlap
     ethr =  2.29E-03,  avg # of iterations =  2.0

     negative rho (up, down):  2.695E-07 0.000E+00

     total cpu time spent up to now is        4.4 secs

     total energy              =    -854.68689640 Ry
     estimated scf accuracy    <       7.31341394 Ry

     iteration #  3     ecut=   100.00 Ry     beta= 0.30
     Davidson diagonalization with overlap
     ethr =  2.29E-03,  avg # of iterations =  2.0

     negative rho (up, down):  1.251E-08 0.000E+00

     total cpu time spent up to now is        5.3 secs

     total energy              =    -854.36862089 Ry
     estimated scf accuracy    <       2.85468090 Ry

     iteration #  4     ecut=   100.00 Ry     beta= 0.30
     Davidson diagonalization with overlap
     ethr =  1.01E-03,  avg # of iterations =  2.0

     negative rho (up, down):  1.111E-08 0.000E+00

     total cpu time spent up to now is        6.2 secs

     total energy              =    -854.69620425 Ry
     estimated scf accuracy    <       0.47705257 Ry

     iteration #  5     ecut=   100.00 Ry     beta= 0.30
     Davidson diagonalization with overlap
     ethr =  1.68E-04,  avg # of iterations =  2.0

     total cpu time spent up to now is        7.0 secs

     total energy              =    -854.65875941 Ry
     estimated scf accuracy    <       0.24340731 Ry

     iteration #  6     ecut=   100.00 Ry     beta= 0.30
     Davidson diagonalization with overlap
     c_bands:  3 eigenvalues not converged
     ethr =  8.57E-05,  avg # of iterations = 20.0

     total cpu time spent up to now is        8.5 secs

     total energy              =    -854.66946998 Ry
     estimated scf accuracy    <       1.64372585 Ry

     iteration #  7     ecut=   100.00 Ry     beta= 0.30
     Davidson diagonalization with overlap
     ethr =  8.57E-05,  avg # of iterations = 12.0

     total cpu time spent up to now is        9.6 secs

     total energy              =    -854.68650572 Ry
     estimated scf accuracy    <       0.07595378 Ry

     iteration #  8     ecut=   100.00 Ry     beta= 0.30
     Davidson diagonalization with overlap
     ethr =  2.67E-05,  avg # of iterations =  2.0

     total cpu time spent up to now is       10.4 secs

     total energy              =    -854.68941440 Ry
     estimated scf accuracy    <       0.10109401 Ry

     iteration #  9     ecut=   100.00 Ry     beta= 0.30
     Davidson diagonalization with overlap
     ethr =  2.67E-05,  avg # of iterations =  1.0

     total cpu time spent up to now is       11.2 secs

     total energy              =    -854.69117722 Ry
     estimated scf accuracy    <       0.01756991 Ry

     iteration # 10     ecut=   100.00 Ry     beta= 0.30
     Davidson diagonalization with overlap
     ethr =  6.19E-06,  avg # of iterations = 19.0

     total cpu time spent up to now is       12.6 secs

     total energy              =    -854.69127237 Ry
     estimated scf accuracy    <       0.00723673 Ry

     iteration # 11     ecut=   100.00 Ry     beta= 0.30
     Davidson diagonalization with overlap
     ethr =  2.55E-06,  avg # of iterations =  1.0

     total cpu time spent up to now is       13.3 secs

     total energy              =    -854.69121509 Ry
     estimated scf accuracy    <       0.00222732 Ry

     iteration # 12     ecut=   100.00 Ry     beta= 0.30
     Davidson diagonalization with overlap
     ethr =  7.84E-07,  avg # of iterations =  1.0

     total cpu time spent up to now is       14.1 secs

     total energy              =    -854.69130621 Ry
     estimated scf accuracy    <       0.00071689 Ry

     iteration # 13     ecut=   100.00 Ry     beta= 0.30
     Davidson diagonalization with overlap
     ethr =  2.52E-07,  avg # of iterations =  1.0

     total cpu time spent up to now is       14.9 secs

     total energy              =    -854.69132964 Ry
     estimated scf accuracy    <       0.00002704 Ry

     iteration # 14     ecut=   100.00 Ry     beta= 0.30
     Davidson diagonalization with overlap
     ethr =  9.52E-09,  avg # of iterations =  5.0

     total cpu time spent up to now is       15.9 secs

     total energy              =    -854.69133551 Ry
     estimated scf accuracy    <       0.00001048 Ry

     iteration # 15     ecut=   100.00 Ry     beta= 0.30
     Davidson diagonalization with overlap
     ethr =  3.69E-09,  avg # of iterations =  1.0

     total cpu time spent up to now is       16.7 secs

     total energy              =    -854.69133594 Ry
     estimated scf accuracy    <       0.00000025 Ry

     iteration # 16     ecut=   100.00 Ry     beta= 0.30
     Davidson diagonalization with overlap
     ethr =  8.88E-11,  avg # of iterations =  5.0

     negative rho (up, down):  2.206E-08 0.000E+00

     total cpu time spent up to now is       18.1 secs

     total energy              =    -854.69133612 Ry
     estimated scf accuracy    <       0.00000019 Ry

     iteration # 17     ecut=   100.00 Ry     beta= 0.30
     Davidson diagonalization with overlap
     ethr =  6.60E-11,  avg # of iterations =  2.0

     total cpu time spent up to now is       18.9 secs

     total energy              =    -854.69133612 Ry
     estimated scf accuracy    <       0.00000014 Ry

     iteration # 18     ecut=   100.00 Ry     beta= 0.30
     Davidson diagonalization with overlap
     ethr =  5.02E-11,  avg # of iterations =  1.0

     total cpu time spent up to now is       19.7 secs

     total energy              =    -854.69133612 Ry
     estimated scf accuracy    <          8.1E-09 Ry

     iteration # 19     ecut=   100.00 Ry     beta= 0.30
     Davidson diagonalization with overlap
     ethr =  2.87E-12,  avg # of iterations =  4.0

     total cpu time spent up to now is       20.6 secs

     total energy              =    -854.69133612 Ry
     estimated scf accuracy    <          1.3E-09 Ry

     iteration # 20     ecut=   100.00 Ry     beta= 0.30
     Davidson diagonalization with overlap
     ethr =  4.57E-13,  avg # of iterations =  4.0

     total cpu time spent up to now is       21.6 secs

     total energy              =    -854.69133612 Ry
     estimated scf accuracy    <          3.7E-10 Ry

     iteration # 21     ecut=   100.00 Ry     beta= 0.30
     Davidson diagonalization with overlap
     ethr =  1.30E-13,  avg # of iterations =  2.0

     total cpu time spent up to now is       22.5 secs

     total energy              =    -854.69133612 Ry
     estimated scf accuracy    <          8.1E-10 Ry

     iteration # 22     ecut=   100.00 Ry     beta= 0.30
     Davidson diagonalization with overlap
     ethr =  1.30E-13,  avg # of iterations =  2.0

     total cpu time spent up to now is       23.3 secs

     total energy              =    -854.69133612 Ry
     estimated scf accuracy    <          1.6E-10 Ry

     iteration # 23     ecut=   100.00 Ry     beta= 0.30
     Davidson diagonalization with overlap
     ethr =  1.00E-13,  avg # of iterations =  1.0

     total cpu time spent up to now is       24.0 secs

     End of self-consistent calculation

          k = 0.0000 0.0000 0.0000 (171510 PWs)   bands (ev):

   -23.8058 -23.2032 -23.2030 -23.1855 -23.1837 -23.1824 -22.8658 -21.9170
   -21.9163 -21.9131 -21.8491 -21.8392 -21.6531 -21.2840 -21.2727 -21.2718
   -21.1911 -21.1765 -20.6930 -19.4589 -19.4384 -19.4381 -19.4259 -19.4232
   -19.4210 -19.4024 -19.4014 -19.3953 -19.2377 -19.2204 -18.8479 -18.5783
   -18.5659 -17.9316 -17.4879 -17.4785 -17.3805 -16.9165 -16.8552 -16.8521
   -16.4818 -15.7623 -15.7606 -15.7531 -15.7512 -15.7452 -15.7356 -15.7330
   -15.7113 -15.6934 -15.4363 -15.4324 -14.7756 -14.7666 -14.5032 -13.9561
   -13.9506 -13.9333 -13.7848 -13.7840 -13.0430 -12.4061 -12.4024 -12.3933
   -12.3861 -12.3860 -12.3837 -12.3786 -12.3773 -12.3519 -12.2637 -12.1985
   -12.1956 -12.1071 -12.0974 -12.0792 -11.8827 -11.6244 -11.6223 -11.1543
   -11.1537 -11.1437 -11.1366 -11.1357 -10.8660 -10.8091 -10.7782 -10.7714
   -10.7700 -10.7324 -10.7270 -10.7135 -10.4312 -10.4285 -10.1953 -10.1339
   -10.1293 -10.1273 -10.0879  -9.8535  -9.8489  -9.6500  -9.6437  -9.6426
    -9.6412  -9.6403  -9.6315  -9.5945  -9.5857  -9.3892  -8.9474  -8.9242
    -8.9232  -8.9231  -8.9221  -8.8801  -8.8695  -8.5126  -8.5094  -8.4854
    -8.4747  -8.4196  -8.3369  -7.5512  -7.5503  -6.9764  -6.9714  -6.9691
    -6.9630  -6.9619  -6.9594  -6.9385  -6.9372  -6.9365  -6.8591  -6.8566
    -6.7362  -6.6409  -6.6285  -5.4145  -4.2844  -4.2588  -4.2579  -4.1979
    -4.1554  -3.7982  -2.5778  -2.5695  -2.4693  -1.7872  -1.7847  -1.7846
    -1.7776  -1.7747  -1.7738  -1.7642  -1.7596  -1.7590  -1.6501  -1.6462
    -0.9570  -0.4218  -0.1006  -0.0956  -0.0950  -0.0822  -0.0677  -0.0657
     0.0522   0.6088   0.6275   0.6295

     the Fermi energy is    -4.2377 ev

!    total energy              =    -854.69133612 Ry
     estimated scf accuracy    <          1.5E-11 Ry
     smearing contrib. (-TS)   =      -0.01386246 Ry
     internal energy E=F+TS    =    -854.67747367 Ry

     The total energy is F=E-TS. E is the sum of the following terms:
     one-electron contribution =   -9610.78502278 Ry
     hartree contribution      =    4831.60572661 Ry
     xc contribution           =    -303.79798401 Ry
     ewald contribution        =    4228.29980650 Ry

     convergence has been achieved in  23 iterations

     Forces acting on atoms (cartesian axes, Ry/au):

     atom    1 type  1   force =     0.00042609    0.00229481    0.00000002
     atom    2 type  1   force =    -0.00017447    0.00030221   -0.00000002
     atom    3 type  1   force =    -0.00220039    0.00077839   -0.00000000
     atom    4 type  1   force =     0.00378525   -0.00190364    0.00000001
     atom    5 type  1   force =     0.00026181   -0.00512456    0.00000002
     atom    6 type  1   force =     0.00498245    0.00540753    0.00000002
     atom    7 type  1   force =    -0.01293915    0.00425561    0.00000004
     atom    8 type  1   force =     0.01520302   -0.02633225   -0.00000000
     atom    9 type  1   force =     0.00278418    0.01333346   -0.00000001
     atom   10 type  1   force =    -0.00717420   -0.00161120   -0.00000002
     atom   11 type  1   force =     0.00430711   -0.00278911    0.00000001
     atom   12 type  1   force =    -0.00024409   -0.00422998    0.00000003
     atom   13 type  1   force =     0.00006402   -0.00011090    0.00000004
     atom   14 type  1   force =     0.00157542   -0.00128098    0.00000003
     atom   15 type  1   force =    -0.00655890    0.00228227   -0.00000004
     atom   16 type  1   force =     0.00745281    0.00155077    0.00000005
     atom   17 type  1   force =    -0.01717463   -0.01589533    0.00000003
     atom   18 type  1   force =     0.07855799   -0.02738645   -0.00000003
     atom   19 type  1   force =    -0.02738560    0.04743337    0.00000000
     atom   20 type  1   force =    -0.01556153   -0.08172657    0.00000005
     atom   21 type  1   force =     0.02235311    0.00692595    0.00000003
     atom   22 type  1   force =    -0.00506938   -0.00567898   -0.00000002
     atom   23 type  1   force =     0.00130289    0.00682131   -0.00000003
     atom   24 type  1   force =     0.00032160   -0.00200482   -0.00000002
     atom   25 type  1   force =    -0.00181818    0.00609263   -0.00000000
     atom   26 type  1   force =     0.00725527   -0.00971692   -0.00000002
     atom   27 type  1   force =    -0.01009469    0.01915617   -0.00000001
     atom   28 type  1   force =     0.08914889    0.03803208   -0.00000004
     atom   29 type  1   force =    -0.07822955   -0.00295978   -0.00000004
     atom   30 type  1   force =     0.04167802    0.06626881   -0.00000002
     atom   31 type  1   force =    -0.07751142   -0.05818916   -0.00000001
     atom   32 type  1   force =    -0.01154250    0.01832040    0.00000002
     atom   33 type  1   force =     0.00478742   -0.01114171    0.00000000
     atom   34 type  1   force =    -0.00436728    0.00462091   -0.00000001
     atom   35 type  1   force =     0.00351671   -0.00609118   -0.00000008
     atom   36 type  1   force =    -0.01200135    0.00076725    0.00000002
     atom   37 type  1   force =     0.01392925    0.02524774    0.00000001
     atom   38 type  1   force =    -0.02712319   -0.03558175    0.00000003
     atom   39 type  1   force =    -0.00424838    0.07247022   -0.00000000
     atom   40 type  1   force =     0.03752202   -0.06499006    0.00000002
     atom   41 type  1   force =    -0.06063682    0.03991434   -0.00000000
     atom   42 type  1   force =     0.04437623    0.00569858    0.00000000
     atom   43 type  1   force =    -0.02882978    0.00056079   -0.00000001
     atom   44 type  1   force =     0.00533620    0.01077707   -0.00000000
     atom   45 type  1   force =    -0.00347017   -0.00317068    0.00000003
     atom   46 type  1   force =    -0.00242880    0.00420692    0.00000005
     atom   47 type  1   force =     0.00448096    0.00141992    0.00000000
     atom   48 type  1   force =     0.00484285   -0.01189521   -0.00000002
     atom   49 type  1   force =    -0.00862718   -0.00232879    0.00000001
     atom   50 type  1   force =     0.02041214   -0.00391449    0.00000001
     atom   51 type  1   force =    -0.00422292    0.00731428    0.00000001
     atom   52 type  1   force =    -0.00681603   -0.01963465   -0.00000001
     atom   53 type  1   force =     0.00633046    0.00630697   -0.00000002
     atom   54 type  1   force =     0.00788009   -0.01014157   -0.00000000
     atom   55 type  1   force =    -0.00581883    0.00000395    0.00000000
     atom   56 type  1   force =    -0.00130315    0.00224831    0.00000003
     atom   57 type  1   force =    -0.00000093    0.00000154   -0.00000003
     atom   58 type  1   force =    -0.00129546    0.00225276    0.00000000
     atom   59 type  1   force =     0.00290600    0.00504120   -0.00000002
     atom   60 type  1   force =     0.00201549    0.00344039    0.00000002
     atom   61 type  1   force =     0.00195539    0.00095548   -0.00000002
     atom   62 type  1   force =     0.00352915   -0.00611266    0.00000001
     atom   63 type  1   force =    -0.00180516   -0.00121559    0.00000001
     atom   64 type  1   force =    -0.00398719   -0.00002530   -0.00000002
     atom   65 type  1   force =     0.00339085    0.00650024   -0.00000004
     atom   66 type  1   force =    -0.00464996   -0.00357937   -0.00000003
     atom   67 type  1   force =     0.00674256   -0.00530605   -0.00000000
     atom   68 type  1   force =     0.00057360   -0.00099347   -0.00000003
     atom   69 type  1   force =     0.00122395   -0.00849228   -0.00000001
     atom   70 type  1   force =     0.00542493    0.00223731    0.00000001
     atom   71 type  1   force =    -0.00732489    0.00031350   -0.00000000

     Total force =     0.276019     Total SCF correction =     0.000007

     BFGS Geometry Optimization
     Energy error            =      7.6E-02 Ry
     Gradient error          =      8.9E-02 Ry/Bohr

     number of scf cycles    =   1
     number of bfgs steps    =   0

     energy             new  =    -854.6913361240 Ry

     new trust radius        =       0.0969226384 bohr
     new conv_thr            =            1.0E-10 Ry


ATOMIC_POSITIONS (crystal)
C                0.0554822758        0.0556464327        0.0000000007
C                0.1110966993        0.1111183172       -0.0000000008
C                0.0554822766        0.2222046247       -0.0000000001
C                0.1112573643        0.2777878562        0.0000000004
C                0.0557442521        0.3887110050        0.0000000005
C                0.1110205880        0.4447407438        0.0000000007
C                0.0551361503        0.5554405712        0.0000000014
C                0.1123668814        0.6104832286       -0.0000000001
C                0.0551361507        0.7227566142       -0.0000000004
C                0.1110205910        0.7775720021       -0.0000000005
C                0.0557442558        0.8888780731        0.0000000002
C                0.1112573645        0.9442881100        0.0000000011
C                0.2222275110        0.0555529109        0.0000000015
C                0.2778561272        0.1110978268        0.0000000012
C                0.2220051503        0.2221684101       -0.0000000012
C                0.2778762127        0.2779871454        0.0000000017
C                0.2224360931        0.3879657020        0.0000000012
C                0.2803795404        0.4450871432       -0.0000000011
C                0.2199601559        0.5566865908        0.0000000001
C                0.2803795474        0.6078666471        0.0000000017
C                0.2224360956        0.7229315371        0.0000000009
C                0.2778762149        0.7774699742       -0.0000000008
C                0.2220051492        0.8891597716       -0.0000000011
C                0.2778561254        0.9443793792       -0.0000000005
C                0.3886334282        0.0557359252       -0.0000000001
C                0.4449418120        0.1109133877       -0.0000000005
C                0.3879952733        0.2226989250       -0.0000000004
C                0.4449250836        0.2809790064       -0.0000000014
C                0.3873793029        0.3891952747       -0.0000000012
C                0.3873793059        0.5567587527       -0.0000000007
C                0.4449250790        0.6074292387       -0.0000000002
C                0.3879952688        0.7226391348        0.0000000008
C                0.4449418110        0.7774781327        0.0000000000
C                0.3886334279        0.8889639801       -0.0000000002
C                0.4447349283        0.9442992014       -0.0000000027
C                0.5552802840        0.0553351687        0.0000000008
C                0.6104957149        0.1123017884        0.0000000002
C                0.5562681125        0.2203894719        0.0000000012
C                0.6084313368        0.2802820931       -0.0000000000
C                0.5586548908        0.3873392212        0.0000000006
C                0.6084313369        0.4446199050       -0.0000000001
C                0.5562681081        0.5566757508        0.0000000001
C                0.6104957151        0.6105358310       -0.0000000005
C                0.5552802849        0.7227178792       -0.0000000001
C                0.6111528574        0.7775927127        0.0000000010
C                0.5553549316        0.8889892029        0.0000000017
C                0.6111528570        0.9445877632        0.0000000001
C                0.7227476837        0.0552301045       -0.0000000008
C                0.7776829195        0.1108496650        0.0000000002
C                0.7227837445        0.2225037255        0.0000000002
C                0.7774289640        0.2779521839        0.0000000004
C                0.7227837434        0.3880458640       -0.0000000003
C                0.7776829209        0.4448007507       -0.0000000008
C                0.7227476805        0.5553555465       -0.0000000001
C                0.7776574771        0.6109910929        0.0000000001
C                0.7221148967        0.7222757274        0.0000000009
C                0.7777777033        0.7777778138       -0.0000000009
C                0.7221148962        0.8889427119        0.0000000000
C                0.7776574781        0.9446847625       -0.0000000008
C                0.8888074564        0.0557202283        0.0000000008
C                0.9444506487        0.1111856648       -0.0000000005
C                0.8891803980        0.2220764676        0.0000000002
C                0.9444506458        0.2776970228        0.0000000005
C                0.8888074581        0.3888056482       -0.0000000007
C                0.9442819716        0.4447469601       -0.0000000013
C                0.8889208901        0.5553315101       -0.0000000009
C                0.9447734607        0.6110605640       -0.0000000002
C                0.8889362672        0.7221985338       -0.0000000010
C                0.9447734628        0.7774993087       -0.0000000002
C                0.8889208925        0.8890809361        0.0000000003
C                0.9442819720        0.9443043977       -0.0000000000



     Writing config-only to output data dir /home/gregb26/links/scratch/qe_tmp/vacancy_relaxed/series/6x6/nspin1/vac_6x6_relax_nspin1.save/ :
     XML data file
     NEW-OLD atomic charge density approx. for the potential

     negative rho (up, down):  1.495E-05 0.000E+00

     total cpu time spent up to now is       24.8 secs

     per-process dynamical memory:   179.6 Mb

     Self-consistent Calculation

     iteration #  1     ecut=   100.00 Ry     beta= 0.30
     Davidson diagonalization with overlap
     c_bands:  1 eigenvalues not converged
     ethr =  1.00E-06,  avg # of iterations = 20.0

     negative rho (up, down):  9.961E-06 0.000E+00

     total cpu time spent up to now is       27.8 secs

     total energy              =    -854.70807183 Ry
     estimated scf accuracy    <       0.02926933 Ry

     iteration #  2     ecut=   100.00 Ry     beta= 0.30
     Davidson diagonalization with overlap
     ethr =  1.03E-05,  avg # of iterations =  2.0

     negative rho (up, down):  9.649E-06 0.000E+00

     total cpu time spent up to now is       28.6 secs

     total energy              =    -854.68762241 Ry
     estimated scf accuracy    <       0.79801974 Ry

     iteration #  3     ecut=   100.00 Ry     beta= 0.30
     Davidson diagonalization with overlap
     ethr =  1.03E-05,  avg # of iterations =  2.0

     negative rho (up, down):  5.681E-06 0.000E+00

     total cpu time spent up to now is       29.5 secs

     total energy              =    -854.71051220 Ry
     estimated scf accuracy    <       0.03064816 Ry

     iteration #  4     ecut=   100.00 Ry     beta= 0.30
     Davidson diagonalization with overlap
     ethr =  1.03E-05,  avg # of iterations =  1.0

     negative rho (up, down):  3.622E-06 0.000E+00

     total cpu time spent up to now is       30.2 secs

     total energy              =    -854.71020948 Ry
     estimated scf accuracy    <       0.01376830 Ry

     iteration #  5     ecut=   100.00 Ry     beta= 0.30
     Davidson diagonalization with overlap
     ethr =  4.85E-06,  avg # of iterations =  2.0

     negative rho (up, down):  1.881E-06 0.000E+00

     total cpu time spent up to now is       31.0 secs

     total energy              =    -854.71025508 Ry
     estimated scf accuracy    <       0.00931375 Ry

     iteration #  6     ecut=   100.00 Ry     beta= 0.30
     Davidson diagonalization with overlap
     ethr =  3.28E-06,  avg # of iterations =  1.0

     negative rho (up, down):  6.094E-07 0.000E+00

     total cpu time spent up to now is       31.8 secs

     total energy              =    -854.71041272 Ry
     estimated scf accuracy    <       0.00106137 Ry

     iteration #  7     ecut=   100.00 Ry     beta= 0.30
     Davidson diagonalization with overlap
     ethr =  3.74E-07,  avg # of iterations =  2.0

     negative rho (up, down):  2.306E-07 0.000E+00

     total cpu time spent up to now is       32.6 secs

     total energy              =    -854.71047001 Ry
     estimated scf accuracy    <       0.00027806 Ry

     iteration #  8     ecut=   100.00 Ry     beta= 0.30
     Davidson diagonalization with overlap
     ethr =  9.79E-08,  avg # of iterations =  2.0

     negative rho (up, down):  8.459E-08 0.000E+00

     total cpu time spent up to now is       33.5 secs

     total energy              =    -854.71047649 Ry
     estimated scf accuracy    <       0.00003149 Ry

     iteration #  9     ecut=   100.00 Ry     beta= 0.30
     Davidson diagonalization with overlap
     ethr =  1.11E-08,  avg # of iterations =  4.0

     negative rho (up, down):  4.869E-08 0.000E+00

     total cpu time spent up to now is       34.4 secs

     total energy              =    -854.71047889 Ry
     estimated scf accuracy    <       0.00000482 Ry

     iteration # 10     ecut=   100.00 Ry     beta= 0.30
     Davidson diagonalization with overlap
     ethr =  1.70E-09,  avg # of iterations =  4.0

     negative rho (up, down):  1.727E-08 0.000E+00

     total cpu time spent up to now is       35.4 secs

     total energy              =    -854.71047944 Ry
     estimated scf accuracy    <       0.00000602 Ry

     iteration # 11     ecut=   100.00 Ry     beta= 0.30
     Davidson diagonalization with overlap
     ethr =  1.70E-09,  avg # of iterations =  2.0

     total cpu time spent up to now is       36.2 secs

     total energy              =    -854.71047964 Ry
     estimated scf accuracy    <       0.00000101 Ry

     iteration # 12     ecut=   100.00 Ry     beta= 0.30
     Davidson diagonalization with overlap
     ethr =  3.57E-10,  avg # of iterations =  2.0

     total cpu time spent up to now is       37.0 secs

     total energy              =    -854.71047971 Ry
     estimated scf accuracy    <       0.00000006 Ry

     iteration # 13     ecut=   100.00 Ry     beta= 0.30
     Davidson diagonalization with overlap
     ethr =  2.17E-11,  avg # of iterations =  5.0

     total cpu time spent up to now is       38.2 secs

     total energy              =    -854.71047973 Ry
     estimated scf accuracy    <       0.00000003 Ry

     iteration # 14     ecut=   100.00 Ry     beta= 0.30
     Davidson diagonalization with overlap
     ethr =  9.04E-12,  avg # of iterations =  2.0

     total cpu time spent up to now is       39.0 secs

     total energy              =    -854.71047973 Ry
     estimated scf accuracy    <          2.7E-09 Ry

     iteration # 15     ecut=   100.00 Ry     beta= 0.30
     Davidson diagonalization with overlap
     ethr =  9.48E-13,  avg # of iterations =  4.0

     total cpu time spent up to now is       40.0 secs

     total energy              =    -854.71047973 Ry
     estimated scf accuracy    <          6.5E-10 Ry

     iteration # 16     ecut=   100.00 Ry     beta= 0.30
     Davidson diagonalization with overlap
     ethr =  2.31E-13,  avg # of iterations =  2.0

     total cpu time spent up to now is       40.8 secs

     total energy              =    -854.71047973 Ry
     estimated scf accuracy    <          1.6E-10 Ry

     iteration # 17     ecut=   100.00 Ry     beta= 0.30
     Davidson diagonalization with overlap
     ethr =  1.00E-13,  avg # of iterations =  2.0

     total cpu time spent up to now is       41.6 secs

     End of self-consistent calculation

          k = 0.0000 0.0000 0.0000 (171510 PWs)   bands (ev):

   -23.7963 -23.2079 -23.1974 -23.1734 -23.1732 -23.1555 -22.9286 -21.9292
   -21.9241 -21.8785 -21.8715 -21.8653 -21.6607 -21.3213 -21.2512 -21.2410
   -21.2305 -21.2259 -20.7949 -19.5171 -19.5141 -19.4468 -19.4145 -19.4110
   -19.4091 -19.3853 -19.3810 -19.3492 -19.3410 -19.3214 -18.8043 -18.6061
   -18.5935 -18.1454 -17.5075 -17.4915 -17.3806 -16.9393 -16.8739 -16.8721
   -16.4299 -15.8524 -15.8518 -15.7920 -15.7634 -15.7344 -15.7298 -15.7161
   -15.7000 -15.6877 -15.4406 -15.4376 -14.7839 -14.7727 -14.4188 -14.0536
   -14.0212 -14.0173 -13.7414 -13.7331 -13.0216 -12.5736 -12.4417 -12.4249
   -12.4163 -12.3747 -12.3684 -12.3474 -12.3438 -12.3106 -12.3051 -12.2175
   -12.2168 -12.1355 -12.1134 -12.0778 -11.8737 -11.6048 -11.6007 -11.1548
   -11.1475 -11.1265 -11.1256 -11.1148 -10.9369 -10.8853 -10.8771 -10.8484
   -10.8443 -10.7082 -10.6936 -10.6911 -10.4204 -10.4111 -10.2378 -10.1911
   -10.1728 -10.1724  -9.9910  -9.9433  -9.9308  -9.7419  -9.6522  -9.6477
    -9.6263  -9.6232  -9.6178  -9.6149  -9.6012  -9.3966  -8.9779  -8.9462
    -8.9409  -8.9346  -8.9298  -8.8780  -8.8771  -8.6039  -8.5707  -8.5590
    -8.5025  -8.3417  -7.9385  -7.5991  -7.5629  -7.0654  -7.0583  -7.0016
    -6.9958  -6.9683  -6.9386  -6.9250  -6.9223  -6.8911  -6.8902  -6.8496
    -6.6982  -6.6519  -6.6365  -5.5485  -4.3039  -4.2681  -4.2521  -4.1790
    -4.1287  -3.6882  -2.6119  -2.5874  -2.4426  -1.9282  -1.8830  -1.8738
    -1.7629  -1.7563  -1.7227  -1.7143  -1.7030  -1.6900  -1.5157  -1.5072
    -0.9513  -0.3161  -0.0827  -0.0821  -0.0817  -0.0815  -0.0699  -0.0693
     0.0321   0.5535   0.5606   0.6419

     the Fermi energy is    -4.2385 ev

!    total energy              =    -854.71047973 Ry
     estimated scf accuracy    <          6.6E-11 Ry
     smearing contrib. (-TS)   =      -0.01182848 Ry
     internal energy E=F+TS    =    -854.69865125 Ry

     The total energy is F=E-TS. E is the sum of the following terms:
     one-electron contribution =   -9611.66612211 Ry
     hartree contribution      =    4831.96223061 Ry
     xc contribution           =    -303.90296767 Ry
     ewald contribution        =    4228.90820791 Ry

     convergence has been achieved in  17 iterations

     Forces acting on atoms (cartesian axes, Ry/au):

     atom    1 type  1   force =     0.00014767    0.00220274   -0.00000001
     atom    2 type  1   force =    -0.00017151    0.00029703    0.00000002
     atom    3 type  1   force =    -0.00198161    0.00097358    0.00000000
     atom    4 type  1   force =     0.00023381   -0.00264690   -0.00000009
     atom    5 type  1   force =     0.00188270    0.00381633    0.00000001
     atom    6 type  1   force =    -0.00092820   -0.01374643    0.00000002
     atom    7 type  1   force =     0.01413838   -0.00230591    0.00000006
     atom    8 type  1   force =    -0.02487760    0.04308915    0.00000002
     atom    9 type  1   force =    -0.00507222   -0.01339719    0.00000000
     atom   10 type  1   force =     0.01236889   -0.00606943    0.00000003
     atom   11 type  1   force =    -0.00424632    0.00027771    0.00000001
     atom   12 type  1   force =     0.00217536   -0.00152596    0.00000005
     atom   13 type  1   force =     0.00010846   -0.00018787   -0.00000003
     atom   14 type  1   force =    -0.00155607   -0.00053297   -0.00000000
     atom   15 type  1   force =    -0.00021831    0.00228078   -0.00000002
     atom   16 type  1   force =    -0.01027889   -0.00127835   -0.00000001
     atom   17 type  1   force =     0.03458872    0.00864378   -0.00000002
     atom   18 type  1   force =    -0.03324239    0.02848601   -0.00000001
     atom   19 type  1   force =     0.02809219   -0.04865723   -0.00000003
     atom   20 type  1   force =    -0.00804839    0.04303195    0.00000000
     atom   21 type  1   force =    -0.02478022   -0.02563271   -0.00000000
     atom   22 type  1   force =     0.00624648    0.00826273    0.00000003
     atom   23 type  1   force =    -0.00186606    0.00132949    0.00000009
     atom   24 type  1   force =     0.00123961    0.00108107    0.00000003
     atom   25 type  1   force =    -0.00011010   -0.00299925   -0.00000002
     atom   26 type  1   force =     0.00441349    0.01462512    0.00000004
     atom   27 type  1   force =     0.03868432   -0.00496988    0.00000003
     atom   28 type  1   force =    -0.03187213   -0.02519712    0.00000013
     atom   29 type  1   force =     0.00114180   -0.00060152    0.00000002
     atom   30 type  1   force =    -0.00005019   -0.00128971   -0.00000003
     atom   31 type  1   force =     0.03775769    0.01500341   -0.00000005
     atom   32 type  1   force =    -0.01503803   -0.03598660    0.00000005
     atom   33 type  1   force =    -0.01487248    0.00349034   -0.00000002
     atom   34 type  1   force =     0.00265253   -0.00140419   -0.00000004
     atom   35 type  1   force =    -0.00417303    0.00722796    0.00000001
     atom   36 type  1   force =     0.01374877    0.00456962    0.00000000
     atom   37 type  1   force =    -0.02087773   -0.03251281   -0.00000005
     atom   38 type  1   force =     0.02901170    0.04532383   -0.00000002
     atom   39 type  1   force =    -0.00779768   -0.04496198   -0.00000007
     atom   40 type  1   force =    -0.00009456    0.00016386   -0.00000001
     atom   41 type  1   force =     0.04283707   -0.01572800    0.00000012
     atom   42 type  1   force =    -0.05375744   -0.00246298   -0.00000010
     atom   43 type  1   force =     0.03859566    0.00182435   -0.00000004
     atom   44 type  1   force =    -0.01083175   -0.00962189    0.00000001
     atom   45 type  1   force =     0.00592468    0.00152634    0.00000004
     atom   46 type  1   force =     0.00284392   -0.00492603   -0.00000000
     atom   47 type  1   force =    -0.00428414   -0.00436781    0.00000003
     atom   48 type  1   force =    -0.00302821    0.01375725   -0.00000006
     atom   49 type  1   force =     0.00954899    0.00160757   -0.00000003
     atom   50 type  1   force =    -0.02019814    0.02852711    0.00000003
     atom   51 type  1   force =     0.00617001   -0.01068683    0.00000004
     atom   52 type  1   force =    -0.01460610    0.03175573   -0.00000002
     atom   53 type  1   force =    -0.00616689   -0.00746585   -0.00000003
     atom   54 type  1   force =    -0.01039990    0.00950105   -0.00000008
     atom   55 type  1   force =     0.00410833   -0.00440918    0.00000001
     atom   56 type  1   force =    -0.00168953    0.00203755   -0.00000002
     atom   57 type  1   force =    -0.00025825    0.00044748   -0.00000001
     atom   58 type  1   force =    -0.00091987    0.00248187   -0.00000001
     atom   59 type  1   force =     0.00176443   -0.00576249    0.00000003
     atom   60 type  1   force =    -0.00601449    0.00031172   -0.00000000
     atom   61 type  1   force =     0.00416393   -0.00174088    0.00000002
     atom   62 type  1   force =    -0.00002969    0.00005143   -0.00000007
     atom   63 type  1   force =    -0.00057428   -0.00447659    0.00000001
     atom   64 type  1   force =     0.00273722    0.00536459   -0.00000001
     atom   65 type  1   force =    -0.00387462   -0.00651638    0.00000002
     atom   66 type  1   force =     0.00063320    0.00536634   -0.00000003
     atom   67 type  1   force =    -0.00257039    0.00215195   -0.00000001
     atom   68 type  1   force =     0.00135911   -0.00235411    0.00000001
     atom   69 type  1   force =    -0.00057841    0.00330202    0.00000002
     atom   70 type  1   force =    -0.00496414    0.00213475   -0.00000001
     atom   71 type  1   force =     0.00758086    0.00009741   -0.00000000

     Total force =     0.192466     Total SCF correction =     0.000018
     Energy error            =      1.9E-02 Ry
     Gradient error          =      5.4E-02 Ry/Bohr

     number of scf cycles    =   2
     number of bfgs steps    =   1

     energy             old  =    -854.6913361240 Ry
     energy             new  =    -854.7104797335 Ry

     CASE: energy            _new < energy            _old

     new trust radius        =       0.0317370053 bohr
     new conv_thr            =            1.0E-10 Ry


ATOMIC_POSITIONS (crystal)
C                0.0554244261        0.0557101388        0.0000000005
C                0.1110858070        0.1111237630       -0.0000000005
C                0.0554244229        0.2221987685       -0.0000000000
C                0.1113384849        0.2777291674       -0.0000000015
C                0.0556986892        0.3888093616        0.0000000009
C                0.1113253989        0.4444315283        0.0000000012
C                0.0553420865        0.5555680421        0.0000000028
C                0.1111295701        0.6111018831        0.0000000004
C                0.0553420878        0.7224232061       -0.0000000004
C                0.1113254040        0.7775764060        0.0000000001
C                0.0556986940        0.8888252801        0.0000000005
C                0.1113384853        0.9442656772        0.0000000022
C                0.2222340081        0.0555496622        0.0000000010
C                0.2778554644        0.1110624350        0.0000000012
C                0.2219256932        0.2222141274       -0.0000000019
C                0.2777755939        0.2778371033        0.0000000016
C                0.2227272784        0.3885514346        0.0000000008
C                0.2795124703        0.4453739293       -0.0000000013
C                0.2212709009        0.5560312170       -0.0000000004
C                0.2795124736        0.6084469358        0.0000000019
C                0.2227272767        0.7220546200        0.0000000009
C                0.2777755929        0.7777206372       -0.0000000003
C                0.2219256910        0.8891935121        0.0000000009
C                0.2778554635        0.9444154330        0.0000000001
C                0.3886770580        0.0556815812       -0.0000000005
C                0.4447056239        0.1113014326        0.0000000004
C                0.3885529059        0.2231605984        0.0000000002
C                0.4451358850        0.2802703421        0.0000000014
C                0.3872546517        0.3890203343       -0.0000000008
C                0.3872546548        0.5570583382       -0.0000000014
C                0.4451358864        0.6079271024       -0.0000000013
C                0.3885529034        0.7216198287        0.0000000021
C                0.4447056233        0.7773262750       -0.0000000004
C                0.3886770564        0.8889746971       -0.0000000011
C                0.4445355544        0.9443988888       -0.0000000027
C                0.5553321687        0.0556099625        0.0000000009
C                0.6109190985        0.1113641689       -0.0000000009
C                0.5556617484        0.2216775610        0.0000000009
C                0.6091187944        0.2793625917       -0.0000000015
C                0.5589671590        0.3871830879        0.0000000006
C                0.6091187947        0.4448519491        0.0000000025
C                0.5556617441        0.5559940256       -0.0000000021
C                0.6109190944        0.6110500678       -0.0000000014
C                0.5553321683        0.7223912033       -0.0000000000
C                0.6112021702        0.7776913715        0.0000000019
C                0.5554905367        0.8889213979        0.0000000019
C                0.6112021719        0.9444397909        0.0000000009
C                0.7224328579        0.0554822832       -0.0000000022
C                0.7777660582        0.1109921810       -0.0000000005
C                0.7218857706        0.2229335451        0.0000000009
C                0.7777320103        0.2778006599        0.0000000013
C                0.7218857681        0.3885140205       -0.0000000009
C                0.7777660564        0.4445750942       -0.0000000015
C                0.7224328578        0.5554181936       -0.0000000018
C                0.7778063773        0.6109303639        0.0000000004
C                0.7220322688        0.7223064594        0.0000000004
C                0.7777635119        0.7777849115       -0.0000000011
C                0.7220322692        0.8889946053       -0.0000000003
C                0.7778063798        0.9445965934       -0.0000000002
C                0.8887091456        0.0556619480        0.0000000008
C                0.9445498306        0.1112090682       -0.0000000000
C                0.8892086265        0.2220623534       -0.0000000013
C                0.9445498300        0.2775744363        0.0000000007
C                0.8887091458        0.3889622389       -0.0000000010
C                0.9443670725        0.4445698327       -0.0000000011
C                0.8888052738        0.5554448389       -0.0000000017
C                0.9447207156        0.6110712669       -0.0000000004
C                0.8890157456        0.7221587940       -0.0000000009
C                0.9447207180        0.7775413521        0.0000000002
C                0.8888052757        0.8890832205        0.0000000001
C                0.9443670738        0.9443964283       -0.0000000001



     Writing config-only to output data dir /home/gregb26/links/scratch/qe_tmp/vacancy_relaxed/series/6x6/nspin1/vac_6x6_relax_nspin1.save/ :
     XML data file
     NEW-OLD atomic charge density approx. for the potential

     negative rho (up, down):  5.472E-06 0.000E+00

     total cpu time spent up to now is       42.3 secs

     per-process dynamical memory:   204.7 Mb

     Self-consistent Calculation

     iteration #  1     ecut=   100.00 Ry     beta= 0.30
     Davidson diagonalization with overlap
     ethr =  1.00E-06,  avg # of iterations =  7.0

     negative rho (up, down):  3.600E-06 0.000E+00

     total cpu time spent up to now is       44.3 secs

     total energy              =    -854.71944217 Ry
     estimated scf accuracy    <       0.00611294 Ry

     iteration #  2     ecut=   100.00 Ry     beta= 0.30
     Davidson diagonalization with overlap
     ethr =  2.15E-06,  avg # of iterations =  3.0

     negative rho (up, down):  3.490E-06 0.000E+00

     total cpu time spent up to now is       45.2 secs

     total energy              =    -854.71517065 Ry
     estimated scf accuracy    <       0.18876864 Ry

     iteration #  3     ecut=   100.00 Ry     beta= 0.30
     Davidson diagonalization with overlap
     ethr =  2.15E-06,  avg # of iterations =  2.0

     negative rho (up, down):  2.163E-06 0.000E+00

     total cpu time spent up to now is       46.0 secs

     total energy              =    -854.71999817 Ry
     estimated scf accuracy    <       0.00683413 Ry

     iteration #  4     ecut=   100.00 Ry     beta= 0.30
     Davidson diagonalization with overlap
     ethr =  2.15E-06,  avg # of iterations =  1.0

     negative rho (up, down):  1.307E-06 0.000E+00

     total cpu time spent up to now is       46.8 secs

     total energy              =    -854.72007481 Ry
     estimated scf accuracy    <       0.00049016 Ry

     iteration #  5     ecut=   100.00 Ry     beta= 0.30
     Davidson diagonalization with overlap
     ethr =  1.73E-07,  avg # of iterations =  2.0

     negative rho (up, down):  7.900E-07 0.000E+00

     total cpu time spent up to now is       47.7 secs

     total energy              =    -854.72007555 Ry
     estimated scf accuracy    <       0.00105624 Ry

     iteration #  6     ecut=   100.00 Ry     beta= 0.30
     Davidson diagonalization with overlap
     ethr =  1.73E-07,  avg # of iterations =  2.0

     negative rho (up, down):  2.788E-07 0.000E+00

     total cpu time spent up to now is       48.5 secs

     total energy              =    -854.72014157 Ry
     estimated scf accuracy    <       0.00003570 Ry

     iteration #  7     ecut=   100.00 Ry     beta= 0.30
     Davidson diagonalization with overlap
     ethr =  1.26E-08,  avg # of iterations =  2.0

     negative rho (up, down):  1.239E-07 0.000E+00

     total cpu time spent up to now is       49.5 secs

     total energy              =    -854.72014575 Ry
     estimated scf accuracy    <       0.00000566 Ry

     iteration #  8     ecut=   100.00 Ry     beta= 0.30
     Davidson diagonalization with overlap
     ethr =  1.99E-09,  avg # of iterations =  4.0

     negative rho (up, down):  4.966E-08 0.000E+00

     total cpu time spent up to now is       50.5 secs

     total energy              =    -854.72014655 Ry
     estimated scf accuracy    <       0.00000121 Ry

     iteration #  9     ecut=   100.00 Ry     beta= 0.30
     Davidson diagonalization with overlap
     ethr =  4.26E-10,  avg # of iterations =  4.0

     total cpu time spent up to now is       51.4 secs

     total energy              =    -854.72014667 Ry
     estimated scf accuracy    <       0.00000036 Ry

     iteration # 10     ecut=   100.00 Ry     beta= 0.30
     Davidson diagonalization with overlap
     ethr =  1.26E-10,  avg # of iterations =  4.0

     total cpu time spent up to now is       52.4 secs

     total energy              =    -854.72014669 Ry
     estimated scf accuracy    <       0.00000046 Ry

     iteration # 11     ecut=   100.00 Ry     beta= 0.30
     Davidson diagonalization with overlap
     ethr =  1.26E-10,  avg # of iterations =  2.0

     total cpu time spent up to now is       53.2 secs

     total energy              =    -854.72014672 Ry
     estimated scf accuracy    <       0.00000004 Ry

     iteration # 12     ecut=   100.00 Ry     beta= 0.30
     Davidson diagonalization with overlap
     ethr =  1.49E-11,  avg # of iterations =  4.0

     total cpu time spent up to now is       54.1 secs

     total energy              =    -854.72014673 Ry
     estimated scf accuracy    <          6.9E-09 Ry

     iteration # 13     ecut=   100.00 Ry     beta= 0.30
     Davidson diagonalization with overlap
     ethr =  2.44E-12,  avg # of iterations =  4.0

     total cpu time spent up to now is       55.3 secs

     total energy              =    -854.72014673 Ry
     estimated scf accuracy    <       0.00000003 Ry

     iteration # 14     ecut=   100.00 Ry     beta= 0.30
     Davidson diagonalization with overlap
     ethr =  2.44E-12,  avg # of iterations =  1.0

     total cpu time spent up to now is       56.0 secs

     total energy              =    -854.72014673 Ry
     estimated scf accuracy    <          1.4E-09 Ry

     iteration # 15     ecut=   100.00 Ry     beta= 0.30
     Davidson diagonalization with overlap
     ethr =  4.79E-13,  avg # of iterations =  2.0

     total cpu time spent up to now is       56.8 secs

     total energy              =    -854.72014673 Ry
     estimated scf accuracy    <          1.6E-10 Ry

     iteration # 16     ecut=   100.00 Ry     beta= 0.30
     Davidson diagonalization with overlap
     ethr =  1.00E-13,  avg # of iterations =  4.0

     total cpu time spent up to now is       57.8 secs

     End of self-consistent calculation

          k = 0.0000 0.0000 0.0000 (171510 PWs)   bands (ev):

   -23.7974 -23.2089 -23.1984 -23.1704 -23.1697 -23.1617 -22.9401 -21.9284
   -21.9183 -21.8895 -21.8797 -21.8668 -21.6590 -21.2965 -21.2552 -21.2515
   -21.2456 -21.2275 -20.7834 -19.4920 -19.4868 -19.4262 -19.4092 -19.4066
   -19.4027 -19.3984 -19.3946 -19.3887 -19.3296 -19.3259 -18.8164 -18.6070
   -18.5940 -18.0760 -17.5002 -17.4825 -17.3795 -16.9578 -16.8706 -16.8678
   -16.4446 -15.7969 -15.7905 -15.7813 -15.7807 -15.7584 -15.7451 -15.7281
   -15.7154 -15.7061 -15.4495 -15.4454 -14.7914 -14.7772 -14.4379 -14.0330
   -14.0034 -13.9950 -13.7642 -13.7525 -13.0026 -12.5406 -12.4164 -12.4129
   -12.3980 -12.3827 -12.3740 -12.3659 -12.3566 -12.3326 -12.2897 -12.2464
   -12.2426 -12.1440 -12.1170 -12.0808 -11.8748 -11.6124 -11.6078 -11.1542
   -11.1476 -11.1257 -11.1241 -11.1204 -10.9308 -10.8990 -10.8835 -10.8105
   -10.8068 -10.7225 -10.7009 -10.6986 -10.4290 -10.4184 -10.1888 -10.1804
   -10.1668 -10.1614 -10.0475  -9.9360  -9.9224  -9.6871  -9.6762  -9.6602
    -9.6474  -9.6394  -9.6341  -9.6276  -9.5980  -9.3955  -8.9553  -8.9406
    -8.9406  -8.9270  -8.9210  -8.8981  -8.8977  -8.5781  -8.5510  -8.5273
    -8.4910  -8.4433  -7.9475  -7.5976  -7.5446  -7.0065  -6.9970  -6.9810
    -6.9713  -6.9530  -6.9356  -6.9315  -6.9276  -6.9258  -6.9208  -6.9056
    -6.7071  -6.6638  -6.6435  -5.4739  -4.3151  -4.2680  -4.2450  -4.1845
    -4.1360  -3.7489  -2.5917  -2.5640  -2.4471  -1.8792  -1.8253  -1.8217
    -1.7644  -1.7606  -1.7563  -1.7502  -1.7329  -1.7299  -1.5660  -1.5633
    -0.9523  -0.3089  -0.0851  -0.0837  -0.0837  -0.0794  -0.0700  -0.0695
     0.0346   0.5783   0.5873   0.6138

     the Fermi energy is    -4.2408 ev

!    total energy              =    -854.72014673 Ry
     estimated scf accuracy    <          3.2E-11 Ry
     smearing contrib. (-TS)   =      -0.01166904 Ry
     internal energy E=F+TS    =    -854.70847769 Ry

     The total energy is F=E-TS. E is the sum of the following terms:
     one-electron contribution =   -9611.75389250 Ry
     hartree contribution      =    4832.01388353 Ry
     xc contribution           =    -303.90066974 Ry
     ewald contribution        =    4228.93220102 Ry

     convergence has been achieved in  16 iterations

     Forces acting on atoms (cartesian axes, Ry/au):

     atom    1 type  1   force =     0.00051232    0.00111784    0.00000000
     atom    2 type  1   force =    -0.00027311    0.00047300    0.00000000
     atom    3 type  1   force =    -0.00122422    0.00011518   -0.00000000
     atom    4 type  1   force =     0.00029407    0.00140042   -0.00000001
     atom    5 type  1   force =     0.00170336   -0.00305240   -0.00000000
     atom    6 type  1   force =     0.00625688   -0.00619777    0.00000002
     atom    7 type  1   force =    -0.00388600    0.00331935   -0.00000002
     atom    8 type  1   force =     0.00682593   -0.01182303    0.00000001
     atom    9 type  1   force =    -0.00093164    0.00502508   -0.00000001
     atom   10 type  1   force =     0.00223886   -0.00851742   -0.00000003
     atom   11 type  1   force =     0.00179169   -0.00300126    0.00000000
     atom   12 type  1   force =    -0.00135974    0.00044563   -0.00000001
     atom   13 type  1   force =     0.00014475   -0.00025067   -0.00000001
     atom   14 type  1   force =    -0.00111311   -0.00287116   -0.00000001
     atom   15 type  1   force =     0.00164742    0.00088955    0.00000004
     atom   16 type  1   force =     0.01119592    0.00074174   -0.00000002
     atom   17 type  1   force =    -0.00037267    0.00320532   -0.00000001
     atom   18 type  1   force =    -0.00776749   -0.00079562    0.00000001
     atom   19 type  1   force =    -0.00773430    0.01339630    0.00000001
     atom   20 type  1   force =     0.00457252    0.00632900   -0.00000002
     atom   21 type  1   force =    -0.00258943    0.00192531    0.00000000
     atom   22 type  1   force =    -0.00624041   -0.00932507    0.00000002
     atom   23 type  1   force =    -0.00159404   -0.00098201   -0.00000003
     atom   24 type  1   force =     0.00304307   -0.00047155    0.00000001
     atom   25 type  1   force =     0.00150347    0.00376102    0.00000001
     atom   26 type  1   force =     0.00967229    0.00567659   -0.00000000
     atom   27 type  1   force =     0.00383584   -0.00122239    0.00000001
     atom   28 type  1   force =    -0.00895788   -0.00367827    0.00000001
     atom   29 type  1   force =    -0.00302234    0.00566524   -0.00000001
     atom   30 type  1   force =    -0.00339494    0.00545000    0.00000000
     atom   31 type  1   force =     0.00766446    0.00591855   -0.00000001
     atom   32 type  1   force =    -0.00085928   -0.00393317   -0.00000003
     atom   33 type  1   force =    -0.00975208   -0.00553807    0.00000002
     atom   34 type  1   force =    -0.00400894    0.00057837   -0.00000000
     atom   35 type  1   force =     0.00039379   -0.00068194    0.00000003
     atom   36 type  1   force =    -0.00276997    0.00157578   -0.00000000
     atom   37 type  1   force =     0.00726298    0.01297051    0.00000000
     atom   38 type  1   force =    -0.00589995   -0.00969925    0.00000001
     atom   39 type  1   force =     0.00641680   -0.00886743    0.00000003
     atom   40 type  1   force =     0.00302100   -0.00523239    0.00000002
     atom   41 type  1   force =     0.00447104   -0.00999080   -0.00000003
     atom   42 type  1   force =     0.01134984    0.00025974    0.00000000
     atom   43 type  1   force =    -0.01486416    0.00019532    0.00000001
     atom   44 type  1   force =     0.00002025    0.00318671    0.00000001
     atom   45 type  1   force =     0.00018075    0.00014492   -0.00000001
     atom   46 type  1   force =    -0.00014173    0.00024555   -0.00000002
     atom   47 type  1   force =    -0.00021588   -0.00008400   -0.00000001
     atom   48 type  1   force =     0.00079411   -0.00260011    0.00000002
     atom   49 type  1   force =     0.00064499    0.00617416    0.00000001
     atom   50 type  1   force =    -0.00146451   -0.00068190   -0.00000003
     atom   51 type  1   force =    -0.00489923    0.00848572   -0.00000002
     atom   52 type  1   force =     0.00132276    0.00092726    0.00000002
     atom   53 type  1   force =    -0.00566945    0.00252849    0.00000001
     atom   54 type  1   force =     0.00185459   -0.00198773    0.00000002
     atom   55 type  1   force =    -0.00139047   -0.00154734   -0.00000001
     atom   56 type  1   force =     0.00077545    0.00103312   -0.00000001
     atom   57 type  1   force =    -0.00030956    0.00053612   -0.00000001
     atom   58 type  1   force =    -0.00128239   -0.00015501    0.00000001
     atom   59 type  1   force =     0.00203524    0.00043060   -0.00000002
     atom   60 type  1   force =     0.00045829    0.00212117   -0.00000001
     atom   61 type  1   force =     0.00022437   -0.00177649   -0.00000000
     atom   62 type  1   force =     0.00026844   -0.00046497    0.00000001
     atom   63 type  1   force =     0.00142627   -0.00108256   -0.00000001
     atom   64 type  1   force =    -0.00206611    0.00066370    0.00000001
     atom   65 type  1   force =     0.00032961    0.00121484    0.00000002
     atom   66 type  1   force =    -0.00159205    0.00006974   -0.00000001
     atom   67 type  1   force =     0.00099404   -0.00162581    0.00000001
     atom   68 type  1   force =     0.00006998   -0.00012112    0.00000000
     atom   69 type  1   force =     0.00091088   -0.00167375   -0.00000000
     atom   70 type  1   force =     0.00073564    0.00141359   -0.00000000
     atom   71 type  1   force =    -0.00121689    0.00032189    0.00000000

     Total force =     0.053911     Total SCF correction =     0.000009
     Energy error            =      9.7E-03 Ry
     Gradient error          =      1.5E-02 Ry/Bohr

     number of scf cycles    =   3
     number of bfgs steps    =   2

     energy             old  =    -854.7104797335 Ry
     energy             new  =    -854.7201467302 Ry

     CASE: energy            _new < energy            _old

     new trust radius        =       0.0133708088 bohr
     new conv_thr            =            1.0E-10 Ry


ATOMIC_POSITIONS (crystal)
C                0.0553907605        0.0557642037        0.0000000006
C                0.1110634246        0.1111349535       -0.0000000003
C                0.0553907592        0.2221783675       -0.0000000001
C                0.1113046292        0.2777748144       -0.0000000020
C                0.0558263654        0.3887543101        0.0000000009
C                0.1116949123        0.4443020233        0.0000000017
C                0.0551860185        0.5556216559        0.0000000022
C                0.1114909946        0.6109211680        0.0000000006
C                0.0551860189        0.7225256615       -0.0000000006
C                0.1116949121        0.7773363979       -0.0000000006
C                0.0558263653        0.8887526573        0.0000000006
C                0.1113046284        0.9442538908        0.0000000019
C                0.2222459945        0.0555436699        0.0000000005
C                0.2779293516        0.1109397915        0.0000000008
C                0.2219214056        0.2222826242       -0.0000000006
C                0.2779548208        0.2780586342        0.0000000010
C                0.2226441588        0.3887379765        0.0000000006
C                0.2792422337        0.4452209552       -0.0000000010
C                0.2208631361        0.5562351010       -0.0000000003
C                0.2792422326        0.6088701411        0.0000000015
C                0.2226441620        0.7219511972        0.0000000009
C                0.2779548174        0.7773198785        0.0000000006
C                0.2219214066        0.8891293013        0.0000000003
C                0.2779293498        0.9444641911        0.0000000005
C                0.3885887217        0.0558283234       -0.0000000003
C                0.4446660407        0.1117316878        0.0000000004
C                0.3887506367        0.2232431020        0.0000000004
C                0.4451038543        0.2798361394        0.0000000020
C                0.3870126621        0.3891576559       -0.0000000010
C                0.3870126694        0.5571630066       -0.0000000015
C                0.4451038597        0.6083933348       -0.0000000019
C                0.3887506364        0.7213395930        0.0000000013
C                0.4446660398        0.7769356086        0.0000000000
C                0.3885887217        0.8889162870       -0.0000000012
C                0.4445374279        0.9443979542       -0.0000000017
C                0.5552356308        0.0556460995        0.0000000009
C                0.6106841598        0.1118103943       -0.0000000009
C                0.5557890580        0.2214208689        0.0000000011
C                0.6096679519        0.2790377393       -0.0000000006
C                0.5591930068        0.3870701662        0.0000000013
C                0.6096679516        0.4446276452        0.0000000018
C                0.5557890602        0.5561234043       -0.0000000023
C                0.6106841580        0.6108387832       -0.0000000012
C                0.5552356303        0.7224516017        0.0000000002
C                0.6112061803        0.7777146655        0.0000000016
C                0.5554991278        0.8889171031        0.0000000013
C                0.6112061795        0.9444124893        0.0000000006
C                0.7224895290        0.0554458236       -0.0000000019
C                0.7775819593        0.1112344199       -0.0000000003
C                0.7217620126        0.2229301656        0.0000000002
C                0.7773927081        0.2779703111        0.0000000008
C                0.7217620123        0.3886411544       -0.0000000003
C                0.7775819576        0.4445169540       -0.0000000012
C                0.7224895257        0.5553979811       -0.0000000015
C                0.7778515160        0.6108455201        0.0000000002
C                0.7220040839        0.7223593402        0.0000000002
C                0.7777376676        0.7777978330       -0.0000000014
C                0.7220040855        0.8889699099        0.0000000000
C                0.7778515151        0.9446363011       -0.0000000007
C                0.8886357700        0.0557327808        0.0000000005
C                0.9446261363        0.1111552252        0.0000000000
C                0.8892285071        0.2220524129       -0.0000000012
C                0.9446261353        0.2775519728        0.0000000003
C                0.8886357703        0.3889647822       -0.0000000007
C                0.9443453966        0.4445909626       -0.0000000005
C                0.8887573116        0.5554334610       -0.0000000021
C                0.9447834243        0.6110378673       -0.0000000002
C                0.8890301682        0.7221515842       -0.0000000007
C                0.9447834242        0.7775120422        0.0000000002
C                0.8887573146        0.8891425595        0.0000000000
C                0.9443454005        0.9443969722       -0.0000000000



     Writing config-only to output data dir /home/gregb26/links/scratch/qe_tmp/vacancy_relaxed/series/6x6/nspin1/vac_6x6_relax_nspin1.save/ :
     XML data file
     NEW-OLD atomic charge density approx. for the potential

     negative rho (up, down):  2.284E-06 0.000E+00

     total cpu time spent up to now is       58.5 secs

     per-process dynamical memory:   205.3 Mb

     Self-consistent Calculation

     iteration #  1     ecut=   100.00 Ry     beta= 0.30
     Davidson diagonalization with overlap
     ethr =  1.00E-06,  avg # of iterations =  6.0

     negative rho (up, down):  1.501E-06 0.000E+00

     total cpu time spent up to now is       60.3 secs

     total energy              =    -854.72045561 Ry
     estimated scf accuracy    <       0.00272015 Ry

     iteration #  2     ecut=   100.00 Ry     beta= 0.30
     Davidson diagonalization with overlap
     ethr =  9.58E-07,  avg # of iterations =  3.0

     negative rho (up, down):  1.423E-06 0.000E+00

     total cpu time spent up to now is       61.1 secs

     total energy              =    -854.71931454 Ry
     estimated scf accuracy    <       0.05609287 Ry

     iteration #  3     ecut=   100.00 Ry     beta= 0.30
     Davidson diagonalization with overlap
     ethr =  9.58E-07,  avg # of iterations =  3.0

     negative rho (up, down):  1.264E-06 0.000E+00

     total cpu time spent up to now is       62.0 secs

     total energy              =    -854.72084558 Ry
     estimated scf accuracy    <       0.00502644 Ry

     iteration #  4     ecut=   100.00 Ry     beta= 0.30
     Davidson diagonalization with overlap
     ethr =  9.58E-07,  avg # of iterations =  2.0

     negative rho (up, down):  6.529E-07 0.000E+00

     total cpu time spent up to now is       62.8 secs

     total energy              =    -854.72111393 Ry
     estimated scf accuracy    <       0.00060928 Ry

     iteration #  5     ecut=   100.00 Ry     beta= 0.30
     Davidson diagonalization with overlap
     ethr =  2.15E-07,  avg # of iterations =  1.0

     negative rho (up, down):  3.415E-07 0.000E+00

     total cpu time spent up to now is       63.7 secs

     total energy              =    -854.72113949 Ry
     estimated scf accuracy    <       0.00011742 Ry

     iteration #  6     ecut=   100.00 Ry     beta= 0.30
     Davidson diagonalization with overlap
     ethr =  4.13E-08,  avg # of iterations =  2.0

     negative rho (up, down):  1.359E-07 0.000E+00

     total cpu time spent up to now is       64.5 secs

     total energy              =    -854.72114681 Ry
     estimated scf accuracy    <       0.00001247 Ry

     iteration #  7     ecut=   100.00 Ry     beta= 0.30
     Davidson diagonalization with overlap
     ethr =  4.39E-09,  avg # of iterations =  5.0

     negative rho (up, down):  5.963E-08 0.000E+00

     total cpu time spent up to now is       65.6 secs

     total energy              =    -854.72114870 Ry
     estimated scf accuracy    <       0.00000224 Ry

     iteration #  8     ecut=   100.00 Ry     beta= 0.30
     Davidson diagonalization with overlap
     ethr =  7.87E-10,  avg # of iterations =  4.0

     negative rho (up, down):  1.805E-08 0.000E+00

     total cpu time spent up to now is       66.7 secs

     total energy              =    -854.72114901 Ry
     estimated scf accuracy    <       0.00000047 Ry

     iteration #  9     ecut=   100.00 Ry     beta= 0.30
     Davidson diagonalization with overlap
     ethr =  1.66E-10,  avg # of iterations =  4.0

     negative rho (up, down):  1.085E-08 0.000E+00

     total cpu time spent up to now is       67.7 secs

     total energy              =    -854.72114904 Ry
     estimated scf accuracy    <       0.00000040 Ry

     iteration # 10     ecut=   100.00 Ry     beta= 0.30
     Davidson diagonalization with overlap
     ethr =  1.40E-10,  avg # of iterations =  2.0

     total cpu time spent up to now is       68.5 secs

     total energy              =    -854.72114907 Ry
     estimated scf accuracy    <       0.00000020 Ry

     iteration # 11     ecut=   100.00 Ry     beta= 0.30
     Davidson diagonalization with overlap
     ethr =  7.12E-11,  avg # of iterations =  1.0

     total cpu time spent up to now is       69.2 secs

     total energy              =    -854.72114909 Ry
     estimated scf accuracy    <       0.00000001 Ry

     iteration # 12     ecut=   100.00 Ry     beta= 0.30
     Davidson diagonalization with overlap
     ethr =  3.91E-12,  avg # of iterations =  4.0

     total cpu time spent up to now is       70.3 secs

     total energy              =    -854.72114909 Ry
     estimated scf accuracy    <          6.3E-09 Ry

     iteration # 13     ecut=   100.00 Ry     beta= 0.30
     Davidson diagonalization with overlap
     ethr =  2.22E-12,  avg # of iterations =  2.0

     total cpu time spent up to now is       71.1 secs

     total energy              =    -854.72114909 Ry
     estimated scf accuracy    <          3.5E-09 Ry

     iteration # 14     ecut=   100.00 Ry     beta= 0.30
     Davidson diagonalization with overlap
     ethr =  1.24E-12,  avg # of iterations =  2.0

     total cpu time spent up to now is       71.9 secs

     total energy              =    -854.72114909 Ry
     estimated scf accuracy    <          6.9E-10 Ry

     iteration # 15     ecut=   100.00 Ry     beta= 0.30
     Davidson diagonalization with overlap
     ethr =  2.42E-13,  avg # of iterations =  2.0

     total cpu time spent up to now is       72.8 secs

     total energy              =    -854.72114909 Ry
     estimated scf accuracy    <          2.7E-10 Ry

     iteration # 16     ecut=   100.00 Ry     beta= 0.30
     Davidson diagonalization with overlap
     ethr =  1.00E-13,  avg # of iterations =  2.0

     total cpu time spent up to now is       73.6 secs

     End of self-consistent calculation

          k = 0.0000 0.0000 0.0000 (171510 PWs)   bands (ev):

   -23.7982 -23.2175 -23.2086 -23.1682 -23.1664 -23.1588 -22.9439 -21.9322
   -21.9201 -21.8855 -21.8816 -21.8695 -21.6478 -21.3011 -21.2665 -21.2586
   -21.2386 -21.2153 -20.7556 -19.4883 -19.4859 -19.4360 -19.4330 -19.4110
   -19.4058 -19.3912 -19.3889 -19.3801 -19.3193 -19.3119 -18.8123 -18.6084
   -18.5925 -18.0741 -17.4995 -17.4763 -17.3698 -16.9653 -16.8702 -16.8674
   -16.4416 -15.8054 -15.7951 -15.7727 -15.7707 -15.7534 -15.7396 -15.7274
   -15.7173 -15.7073 -15.4487 -15.4436 -14.7906 -14.7707 -14.4466 -14.0230
   -13.9990 -13.9835 -13.7709 -13.7563 -13.0210 -12.5358 -12.4165 -12.4157
   -12.3873 -12.3744 -12.3742 -12.3643 -12.3601 -12.3303 -12.2999 -12.2444
   -12.2341 -12.1402 -12.1026 -12.0763 -11.8751 -11.6239 -11.6173 -11.1602
   -11.1554 -11.1239 -11.1213 -11.1185 -10.9115 -10.8831 -10.8813 -10.8109
   -10.8065 -10.7326 -10.7095 -10.7027 -10.4269 -10.4165 -10.1897 -10.1805
   -10.1625 -10.1551 -10.0684  -9.9258  -9.9020  -9.6927  -9.6686  -9.6499
    -9.6490  -9.6394  -9.6295  -9.6238  -9.6057  -9.3847  -8.9567  -8.9398
    -8.9392  -8.9194  -8.9131  -8.9099  -8.9039  -8.5746  -8.5596  -8.5271
    -8.4678  -8.4235  -7.9464  -7.6008  -7.5332  -6.9993  -6.9990  -6.9742
    -6.9708  -6.9548  -6.9391  -6.9295  -6.9265  -6.9257  -6.9224  -6.9132
    -6.7055  -6.6674  -6.6406  -5.4762  -4.3267  -4.2665  -4.2325  -4.1896
    -4.1334  -3.7337  -2.5944  -2.5568  -2.4465  -1.8623  -1.8307  -1.8208
    -1.7712  -1.7621  -1.7556  -1.7484  -1.7227  -1.7212  -1.5680  -1.5665
    -0.9523  -0.3328  -0.0850  -0.0836  -0.0836  -0.0798  -0.0715  -0.0703
     0.0364   0.5891   0.5990   0.6176

     the Fermi energy is    -4.2406 ev

!    total energy              =    -854.72114909 Ry
     estimated scf accuracy    <          3.2E-11 Ry
     smearing contrib. (-TS)   =      -0.01109952 Ry
     internal energy E=F+TS    =    -854.71004957 Ry

     The total energy is F=E-TS. E is the sum of the following terms:
     one-electron contribution =   -9611.99472567 Ry
     hartree contribution      =    4832.15094623 Ry
     xc contribution           =    -303.90755902 Ry
     ewald contribution        =    4229.04128888 Ry

     convergence has been achieved in  16 iterations

     Forces acting on atoms (cartesian axes, Ry/au):

     atom    1 type  1   force =     0.00021860    0.00164445    0.00000001
     atom    2 type  1   force =     0.00001156   -0.00001999    0.00000000
     atom    3 type  1   force =    -0.00153337    0.00063292   -0.00000001
     atom    4 type  1   force =     0.00294968   -0.00217351    0.00000002
     atom    5 type  1   force =     0.00263916   -0.00084921   -0.00000001
     atom    6 type  1   force =    -0.00168910    0.00273535    0.00000000
     atom    7 type  1   force =     0.00104099   -0.00197999   -0.00000001
     atom    8 type  1   force =    -0.00295423    0.00511711   -0.00000000
     atom    9 type  1   force =     0.00119411   -0.00189162    0.00000000
     atom   10 type  1   force =    -0.00152424    0.00283043    0.00000001
     atom   11 type  1   force =    -0.00058411   -0.00271025   -0.00000000
     atom   12 type  1   force =     0.00040748   -0.00364131   -0.00000001
     atom   13 type  1   force =    -0.00002791    0.00004826   -0.00000000
     atom   14 type  1   force =     0.00150541   -0.00048604   -0.00000001
     atom   15 type  1   force =     0.00568610    0.00172610    0.00000001
     atom   16 type  1   force =     0.00067788    0.00093416   -0.00000001
     atom   17 type  1   force =    -0.00480852   -0.00231647    0.00000000
     atom   18 type  1   force =     0.00685314    0.00086631    0.00000001
     atom   19 type  1   force =     0.00030437   -0.00052736    0.00000001
     atom   20 type  1   force =    -0.00417654   -0.00550193   -0.00000001
     atom   21 type  1   force =     0.00441022    0.00300611   -0.00000000
     atom   22 type  1   force =    -0.00114784   -0.00012016    0.00000001
     atom   23 type  1   force =    -0.00433791   -0.00406122    0.00000001
     atom   24 type  1   force =    -0.00033179   -0.00154685   -0.00000001
     atom   25 type  1   force =     0.00180962    0.00149884   -0.00000001
     atom   26 type  1   force =     0.00075567   -0.00336689    0.00000001
     atom   27 type  1   force =    -0.00128165    0.00366421    0.00000001
     atom   28 type  1   force =     0.00838197    0.00037956   -0.00000000
     atom   29 type  1   force =    -0.00616224    0.00402248   -0.00000000
     atom   30 type  1   force =    -0.00040257    0.00734803    0.00000000
     atom   31 type  1   force =    -0.00451986   -0.00706898    0.00000000
     atom   32 type  1   force =    -0.00253242    0.00294207   -0.00000002
     atom   33 type  1   force =     0.00253780   -0.00233783    0.00000001
     atom   34 type  1   force =    -0.00220279   -0.00081770    0.00000001
     atom   35 type  1   force =    -0.00034512    0.00059759    0.00000001
     atom   36 type  1   force =     0.00230305    0.00571943   -0.00000000
     atom   37 type  1   force =    -0.00199947   -0.00330612    0.00000000
     atom   38 type  1   force =    -0.00028552    0.00203169   -0.00000001
     atom   39 type  1   force =     0.00129098    0.00303900    0.00000001
     atom   40 type  1   force =     0.00520875   -0.00902180    0.00000002
     atom   41 type  1   force =    -0.00327732    0.00040140   -0.00000002
     atom   42 type  1   force =    -0.00161675    0.00126317    0.00000002
     atom   43 type  1   force =     0.00386284    0.00007844   -0.00000000
     atom   44 type  1   force =    -0.00610456    0.00086527    0.00000000
     atom   45 type  1   force =     0.00057693   -0.00108368   -0.00000001
     atom   46 type  1   force =    -0.00057555    0.00099692   -0.00000001
     atom   47 type  1   force =     0.00065002   -0.00104154    0.00000001
     atom   48 type  1   force =     0.00212823    0.00296404    0.00000000
     atom   49 type  1   force =    -0.00185366   -0.00530935   -0.00000000
     atom   50 type  1   force =     0.00427951   -0.00072003   -0.00000002
     atom   51 type  1   force =     0.00044241   -0.00076626   -0.00000001
     atom   52 type  1   force =    -0.00151621   -0.00406621    0.00000002
     atom   53 type  1   force =     0.00552488   -0.00104934   -0.00000000
     atom   54 type  1   force =    -0.00363085   -0.00036116    0.00000000
     atom   55 type  1   force =    -0.00091490   -0.00115782   -0.00000001
     atom   56 type  1   force =    -0.00078213    0.00191697    0.00000000
     atom   57 type  1   force =     0.00021516   -0.00037256    0.00000001
     atom   58 type  1   force =    -0.00126908    0.00163592   -0.00000000
     atom   59 type  1   force =     0.00146008    0.00021325   -0.00000000
     atom   60 type  1   force =    -0.00218476    0.00306350   -0.00000000
     atom   61 type  1   force =     0.00187351    0.00022774   -0.00000000
     atom   62 type  1   force =    -0.00219803    0.00380718    0.00000000
     atom   63 type  1   force =    -0.00113400   -0.00150862   -0.00000001
     atom   64 type  1   force =    -0.00156071    0.00342382    0.00000001
     atom   65 type  1   force =     0.00019321   -0.00009810    0.00000000
     atom   66 type  1   force =    -0.00248140   -0.00025450    0.00000001
     atom   67 type  1   force =     0.00143167   -0.00039564   -0.00000001
     atom   68 type  1   force =     0.00004586   -0.00007954    0.00000000
     atom   69 type  1   force =    -0.00037315   -0.00143767   -0.00000001
     atom   70 type  1   force =     0.00146110    0.00202181   -0.00000000
     atom   71 type  1   force =    -0.00001168   -0.00021629    0.00000000

     Total force =     0.033483     Total SCF correction =     0.000013
     Energy error            =      1.0E-03 Ry
     Gradient error          =      9.0E-03 Ry/Bohr

     number of scf cycles    =   4
     number of bfgs steps    =   3

     energy             old  =    -854.7201467302 Ry
     energy             new  =    -854.7211490920 Ry

     CASE: energy            _new < energy            _old

     new trust radius        =       0.0107431686 bohr
     new conv_thr            =            9.0E-11 Ry


ATOMIC_POSITIONS (crystal)
C                0.0553358100        0.0558319834        0.0000000008
C                0.1110580879        0.1111376223       -0.0000000002
C                0.0553358099        0.2221655393       -0.0000000002
C                0.1114123124        0.2777711371       -0.0000000018
C                0.0559280853        0.3887611362        0.0000000006
C                0.1116885622        0.4443142625        0.0000000020
C                0.0552235041        0.5555977485        0.0000000017
C                0.1113606235        0.6109863561        0.0000000006
C                0.0552235054        0.7225120789       -0.0000000005
C                0.1116885636        0.7773305090       -0.0000000005
C                0.0559280864        0.8886441106        0.0000000005
C                0.1114123132        0.9441498842        0.0000000015
C                0.2222473936        0.0555429695        0.0000000002
C                0.2779881431        0.1109187198        0.0000000004
C                0.2219613316        0.2224463320       -0.0000000000
C                0.2779825052        0.2781509281        0.0000000005
C                0.2226199357        0.3886455235        0.0000000006
C                0.2792625301        0.4453362864       -0.0000000007
C                0.2207969150        0.5562682095       -0.0000000001
C                0.2792625349        0.6087345144        0.0000000012
C                0.2226199360        0.7220678719        0.0000000009
C                0.2779825079        0.7771998966        0.0000000010
C                0.2219613322        0.8889256678        0.0000000006
C                0.2779881439        0.9444264685        0.0000000002
C                0.3885520659        0.0559395100       -0.0000000004
C                0.4447643229        0.1117647818        0.0000000007
C                0.3886804949        0.2233663924        0.0000000008
C                0.4452356562        0.2798866584        0.0000000021
C                0.3867138711        0.3891853949       -0.0000000011
C                0.3867138734        0.5574340604       -0.0000000015
C                0.4452356530        0.6082110177       -0.0000000019
C                0.3886804954        0.7212864454        0.0000000006
C                0.4447643179        0.7768042318        0.0000000006
C                0.3885520656        0.8888417578       -0.0000000012
C                0.4445117267        0.9444108029       -0.0000000010
C                0.5550825949        0.0558658737        0.0000000008
C                0.6106935778        0.1117780604       -0.0000000008
C                0.5557467539        0.2214299930        0.0000000010
C                0.6097356834        0.2790619899       -0.0000000000
C                0.5596367019        0.3868483195        0.0000000022
C                0.6097356857        0.4445356614        0.0000000012
C                0.5557467557        0.5561565847       -0.0000000018
C                0.6106935778        0.6108616955       -0.0000000014
C                0.5550825952        0.7223848668        0.0000000003
C                0.6112501394        0.7776998807        0.0000000014
C                0.5554647117        0.8889343118        0.0000000008
C                0.6112501400        0.9443833135        0.0000000008
C                0.7224493004        0.0555626139       -0.0000000018
C                0.7776599784        0.1111121136       -0.0000000004
C                0.7218029803        0.2229949226       -0.0000000004
C                0.7773418473        0.2779957419        0.0000000003
C                0.7218029808        0.3885354278        0.0000000004
C                0.7776599767        0.4445612417       -0.0000000012
C                0.7224493018        0.5553214204       -0.0000000013
C                0.7778843819        0.6107722200       -0.0000000002
C                0.7219248049        0.7224166763        0.0000000002
C                0.7777451499        0.7777940933       -0.0000000013
C                0.7219248040        0.8889918556       -0.0000000000
C                0.7778843839        0.9446767299       -0.0000000009
C                0.8884879855        0.0558029325        0.0000000004
C                0.9446731541        0.1111809668       -0.0000000001
C                0.8890894928        0.2221219212       -0.0000000011
C                0.9446731525        0.2774792130       -0.0000000000
C                0.8884879852        0.3890424152       -0.0000000005
C                0.9443469367        0.4445944251       -0.0000000003
C                0.8887079360        0.5553827405       -0.0000000018
C                0.9448363135        0.6110417704       -0.0000000004
C                0.8890395872        0.7221468734       -0.0000000006
C                0.9448363135        0.7774552508        0.0000000000
C                0.8887079363        0.8892426583        0.0000000000
C                0.9443469383        0.9443919710        0.0000000000



     Writing config-only to output data dir /home/gregb26/links/scratch/qe_tmp/vacancy_relaxed/series/6x6/nspin1/vac_6x6_relax_nspin1.save/ :
     XML data file
     NEW-OLD atomic charge density approx. for the potential

     negative rho (up, down):  1.084E-06 0.000E+00

     total cpu time spent up to now is       74.4 secs

     per-process dynamical memory:   205.3 Mb

     Self-consistent Calculation

     iteration #  1     ecut=   100.00 Ry     beta= 0.30
     Davidson diagonalization with overlap
     ethr =  1.00E-06,  avg # of iterations =  5.0

     negative rho (up, down):  7.064E-07 0.000E+00

     total cpu time spent up to now is       75.8 secs

     total energy              =    -854.72157364 Ry
     estimated scf accuracy    <       0.00053754 Ry

     iteration #  2     ecut=   100.00 Ry     beta= 0.30
     Davidson diagonalization with overlap
     ethr =  1.89E-07,  avg # of iterations =  3.0

     negative rho (up, down):  6.513E-07 0.000E+00

     total cpu time spent up to now is       76.7 secs

     total energy              =    -854.72145361 Ry
     estimated scf accuracy    <       0.00411076 Ry

     iteration #  3     ecut=   100.00 Ry     beta= 0.30
     Davidson diagonalization with overlap
     ethr =  1.89E-07,  avg # of iterations =  2.0

     negative rho (up, down):  6.022E-07 0.000E+00

     total cpu time spent up to now is       77.6 secs

     total energy              =    -854.72157089 Ry
     estimated scf accuracy    <       0.00402553 Ry

     iteration #  4     ecut=   100.00 Ry     beta= 0.30
     Davidson diagonalization with overlap
     ethr =  1.89E-07,  avg # of iterations =  2.0

     negative rho (up, down):  2.392E-07 0.000E+00

     total cpu time spent up to now is       78.4 secs

     total energy              =    -854.72167370 Ry
     estimated scf accuracy    <       0.00023903 Ry

     iteration #  5     ecut=   100.00 Ry     beta= 0.30
     Davidson diagonalization with overlap
     ethr =  8.42E-08,  avg # of iterations =  1.0

     negative rho (up, down):  1.406E-07 0.000E+00

     total cpu time spent up to now is       79.2 secs

     total energy              =    -854.72168687 Ry
     estimated scf accuracy    <       0.00001061 Ry

     iteration #  6     ecut=   100.00 Ry     beta= 0.30
     Davidson diagonalization with overlap
     ethr =  3.74E-09,  avg # of iterations =  4.0

     negative rho (up, down):  6.789E-08 0.000E+00

     total cpu time spent up to now is       80.2 secs

     total energy              =    -854.72168801 Ry
     estimated scf accuracy    <       0.00000279 Ry

     iteration #  7     ecut=   100.00 Ry     beta= 0.30
     Davidson diagonalization with overlap
     ethr =  9.81E-10,  avg # of iterations =  2.0

     negative rho (up, down):  2.153E-08 0.000E+00

     total cpu time spent up to now is       81.2 secs

     total energy              =    -854.72168836 Ry
     estimated scf accuracy    <       0.00000058 Ry

     iteration #  8     ecut=   100.00 Ry     beta= 0.30
     Davidson diagonalization with overlap
     ethr =  2.05E-10,  avg # of iterations =  4.0

     total cpu time spent up to now is       82.2 secs

     total energy              =    -854.72168843 Ry
     estimated scf accuracy    <       0.00000012 Ry

     iteration #  9     ecut=   100.00 Ry     beta= 0.30
     Davidson diagonalization with overlap
     ethr =  4.33E-11,  avg # of iterations =  4.0

     total cpu time spent up to now is       83.2 secs

     total energy              =    -854.72168844 Ry
     estimated scf accuracy    <       0.00000004 Ry

     iteration # 10     ecut=   100.00 Ry     beta= 0.30
     Davidson diagonalization with overlap
     ethr =  1.32E-11,  avg # of iterations =  4.0

     total cpu time spent up to now is       84.2 secs

     total energy              =    -854.72168844 Ry
     estimated scf accuracy    <       0.00000008 Ry

     iteration # 11     ecut=   100.00 Ry     beta= 0.30
     Davidson diagonalization with overlap
     ethr =  1.32E-11,  avg # of iterations =  2.0

     total cpu time spent up to now is       85.0 secs

     total energy              =    -854.72168845 Ry
     estimated scf accuracy    <          5.6E-09 Ry

     iteration # 12     ecut=   100.00 Ry     beta= 0.30
     Davidson diagonalization with overlap
     ethr =  1.96E-12,  avg # of iterations =  4.0

     total cpu time spent up to now is       85.9 secs

     total energy              =    -854.72168845 Ry
     estimated scf accuracy    <          7.8E-10 Ry

     iteration # 13     ecut=   100.00 Ry     beta= 0.30
     Davidson diagonalization with overlap
     ethr =  2.75E-13,  avg # of iterations =  4.0

     total cpu time spent up to now is       87.0 secs

     total energy              =    -854.72168845 Ry
     estimated scf accuracy    <          4.1E-10 Ry

     iteration # 14     ecut=   100.00 Ry     beta= 0.30
     Davidson diagonalization with overlap
     ethr =  1.46E-13,  avg # of iterations =  2.0

     total cpu time spent up to now is       87.9 secs

     total energy              =    -854.72168845 Ry
     estimated scf accuracy    <          1.2E-09 Ry

     iteration # 15     ecut=   100.00 Ry     beta= 0.30
     Davidson diagonalization with overlap
     ethr =  1.46E-13,  avg # of iterations =  2.0

     total cpu time spent up to now is       88.7 secs

     End of self-consistent calculation

          k = 0.0000 0.0000 0.0000 (171510 PWs)   bands (ev):

   -23.7986 -23.2239 -23.2148 -23.1673 -23.1644 -23.1537 -22.9472 -21.9367
   -21.9222 -21.8854 -21.8853 -21.8665 -21.6467 -21.3112 -21.2666 -21.2544
   -21.2435 -21.2139 -20.7592 -19.4975 -19.4936 -19.4352 -19.4314 -19.4099
   -19.4037 -19.3954 -19.3878 -19.3804 -19.3235 -19.3134 -18.8101 -18.6104
   -18.5913 -18.0781 -17.5044 -17.4744 -17.3742 -16.9727 -16.8701 -16.8620
   -16.4371 -15.8095 -15.7945 -15.7751 -15.7750 -15.7622 -15.7433 -15.7329
   -15.7164 -15.7036 -15.4467 -15.4404 -14.7955 -14.7704 -14.4380 -14.0332
   -14.0080 -13.9878 -13.7669 -13.7488 -13.0158 -12.5500 -12.4173 -12.4148
   -12.3904 -12.3789 -12.3747 -12.3630 -12.3554 -12.3298 -12.2985 -12.2505
   -12.2354 -12.1506 -12.0997 -12.0807 -11.8752 -11.6219 -11.6150 -11.1651
   -11.1606 -11.1229 -11.1190 -11.1140 -10.9125 -10.8929 -10.8864 -10.8185
   -10.8156 -10.7341 -10.7021 -10.6943 -10.4260 -10.4113 -10.1896 -10.1812
   -10.1668 -10.1593 -10.0579  -9.9420  -9.9088  -9.6959  -9.6736  -9.6534
    -9.6474  -9.6408  -9.6293  -9.6231  -9.6068  -9.3843  -8.9651  -8.9378
    -8.9363  -8.9218  -8.9140  -8.9085  -8.9001  -8.5832  -8.5653  -8.5202
    -8.4712  -8.4252  -7.9089  -7.6143  -7.5229  -7.0094  -7.0056  -6.9803
    -6.9714  -6.9549  -6.9379  -6.9297  -6.9250  -6.9212  -6.9210  -6.9116
    -6.7053  -6.6696  -6.6343  -5.4763  -4.3408  -4.2664  -4.2189  -4.1905
    -4.1239  -3.7322  -2.6014  -2.5519  -2.4441  -1.8729  -1.8304  -1.8196
    -1.7699  -1.7620  -1.7601  -1.7447  -1.7211  -1.7189  -1.5608  -1.5607
    -0.9520  -0.3201  -0.0835  -0.0829  -0.0826  -0.0797  -0.0725  -0.0710
     0.0359   0.5837   0.5931   0.6214

     the Fermi energy is    -4.2400 ev

!    total energy              =    -854.72168845 Ry
     estimated scf accuracy    <          3.9E-11 Ry
     smearing contrib. (-TS)   =      -0.00995040 Ry
     internal energy E=F+TS    =    -854.71173805 Ry

     The total energy is F=E-TS. E is the sum of the following terms:
     one-electron contribution =   -9612.16218432 Ry
     hartree contribution      =    4832.23037167 Ry
     xc contribution           =    -303.91916303 Ry
     ewald contribution        =    4229.13923762 Ry

     convergence has been achieved in  15 iterations

     Forces acting on atoms (cartesian axes, Ry/au):

     atom    1 type  1   force =    -0.00017918    0.00089387   -0.00000001
     atom    2 type  1   force =    -0.00013556    0.00023477    0.00000000
     atom    3 type  1   force =    -0.00068451    0.00060210   -0.00000001
     atom    4 type  1   force =     0.00375200   -0.00197430    0.00000001
     atom    5 type  1   force =    -0.00046094    0.00077651   -0.00000001
     atom    6 type  1   force =    -0.00101302   -0.00157572   -0.00000001
     atom    7 type  1   force =     0.00036005    0.00280170   -0.00000001
     atom    8 type  1   force =    -0.00104807    0.00181509   -0.00000000
     atom    9 type  1   force =    -0.00260641    0.00108912    0.00000001
     atom   10 type  1   force =     0.00187099    0.00008942    0.00000000
     atom   11 type  1   force =    -0.00044196    0.00078751   -0.00000001
     atom   12 type  1   force =    -0.00016626   -0.00423648   -0.00000000
     atom   13 type  1   force =     0.00050893   -0.00088143   -0.00000001
     atom   14 type  1   force =     0.00251791   -0.00010572   -0.00000001
     atom   15 type  1   force =     0.00125979    0.00143926   -0.00000000
     atom   16 type  1   force =    -0.00064251    0.00040986   -0.00000001
     atom   17 type  1   force =    -0.00207488    0.00228416    0.00000001
     atom   18 type  1   force =     0.00213632    0.00134468    0.00000001
     atom   19 type  1   force =    -0.00035444    0.00061380    0.00000001
     atom   20 type  1   force =    -0.00223307   -0.00117756   -0.00000001
     atom   21 type  1   force =    -0.00094061    0.00293889   -0.00000000
     atom   22 type  1   force =    -0.00003375    0.00076147   -0.00000001
     atom   23 type  1   force =    -0.00187626   -0.00037135    0.00000001
     atom   24 type  1   force =    -0.00116742   -0.00223336   -0.00000001
     atom   25 type  1   force =    -0.00165813   -0.00034535   -0.00000000
     atom   26 type  1   force =     0.00130583    0.00072697    0.00000000
     atom   27 type  1   force =     0.00089012   -0.00001042    0.00000001
     atom   28 type  1   force =     0.00427096    0.00035416    0.00000000
     atom   29 type  1   force =    -0.00067702    0.00412834    0.00000001
     atom   30 type  1   force =    -0.00323662    0.00265040    0.00000000
     atom   31 type  1   force =    -0.00244186   -0.00352185    0.00000000
     atom   32 type  1   force =    -0.00043608   -0.00077603   -0.00000001
     atom   33 type  1   force =    -0.00128232   -0.00076750   -0.00000000
     atom   34 type  1   force =     0.00112815    0.00126329    0.00000001
     atom   35 type  1   force =    -0.00087290    0.00151202    0.00000000
     atom   36 type  1   force =     0.00137071    0.00060398    0.00000000
     atom   37 type  1   force =    -0.00035616   -0.00035855    0.00000001
     atom   38 type  1   force =     0.00058457    0.00180077   -0.00000000
     atom   39 type  1   force =     0.00149912   -0.00192748    0.00000001
     atom   40 type  1   force =     0.00300902   -0.00521171   -0.00000002
     atom   41 type  1   force =     0.00091966   -0.00226215    0.00000000
     atom   42 type  1   force =    -0.00185163    0.00039412    0.00000001
     atom   43 type  1   force =     0.00048869    0.00012916    0.00000000
     atom   44 type  1   force =    -0.00120850   -0.00088509   -0.00000000
     atom   45 type  1   force =    -0.00070417    0.00003121   -0.00000001
     atom   46 type  1   force =     0.00005596   -0.00009689    0.00000000
     atom   47 type  1   force =     0.00032509    0.00062550    0.00000000
     atom   48 type  1   force =    -0.00068890   -0.00019108    0.00000001
     atom   49 type  1   force =     0.00050734   -0.00239933    0.00000000
     atom   50 type  1   force =     0.00032941   -0.00012236    0.00000000
     atom   51 type  1   force =     0.00084372   -0.00146136   -0.00000001
     atom   52 type  1   force =    -0.00005866   -0.00034645    0.00000001
     atom   53 type  1   force =     0.00182418   -0.00163913    0.00000000
     atom   54 type  1   force =     0.00050982    0.00050104    0.00000001
     atom   55 type  1   force =    -0.00181794   -0.00130469   -0.00000001
     atom   56 type  1   force =    -0.00060026    0.00132828   -0.00000000
     atom   57 type  1   force =    -0.00033645    0.00058268    0.00000001
     atom   58 type  1   force =    -0.00085022    0.00118392   -0.00000001
     atom   59 type  1   force =     0.00203891    0.00092214   -0.00000001
     atom   60 type  1   force =    -0.00164874   -0.00104157   -0.00000001
     atom   61 type  1   force =     0.00117864    0.00163463    0.00000000
     atom   62 type  1   force =     0.00023025   -0.00039887    0.00000001
     atom   63 type  1   force =    -0.00200488   -0.00020348   -0.00000000
     atom   64 type  1   force =     0.00172640    0.00090710   -0.00000000
     atom   65 type  1   force =    -0.00074281   -0.00097676   -0.00000000
     atom   66 type  1   force =    -0.00150244    0.00070065    0.00000001
     atom   67 type  1   force =     0.00117410   -0.00154905   -0.00000000
     atom   68 type  1   force =     0.00030285   -0.00052455    0.00000000
     atom   69 type  1   force =     0.00075441   -0.00179135   -0.00000000
     atom   70 type  1   force =     0.00014440    0.00165147   -0.00000000
     atom   71 type  1   force =     0.00121722    0.00015494    0.00000000

     Total force =     0.018230     Total SCF correction =     0.000011
     Energy error            =      5.4E-04 Ry
     Gradient error          =      5.2E-03 Ry/Bohr

     number of scf cycles    =   5
     number of bfgs steps    =   4

     energy             old  =    -854.7211490920 Ry
     energy             new  =    -854.7216884494 Ry

     CASE: energy            _new < energy            _old

     new trust radius        =       0.0187974661 bohr
     new conv_thr            =            5.2E-11 Ry


ATOMIC_POSITIONS (crystal)
C                0.0552340543        0.0559355328        0.0000000006
C                0.1110325904        0.1111503704        0.0000000002
C                0.0552340569        0.2221637456       -0.0000000009
C                0.1117126332        0.2777865761       -0.0000000010
C                0.0559675787        0.3887837087       -0.0000000001
C                0.1118121868        0.4441773667        0.0000000019
C                0.0550778367        0.5557573866        0.0000000010
C                0.1111927997        0.6110702636        0.0000000006
C                0.0550778324        0.7224981086       -0.0000000001
C                0.1118121855        0.7773437752       -0.0000000004
C                0.0559675776        0.8885820497        0.0000000002
C                0.1117126330        0.9438341231        0.0000000012
C                0.2223153604        0.0555089871       -0.0000000004
C                0.2781299233        0.1109542302       -0.0000000003
C                0.2219457764        0.2226940233        0.0000000005
C                0.2779916847        0.2782588950       -0.0000000003
C                0.2224038929        0.3886759273        0.0000000010
C                0.2792317698        0.4455432244       -0.0000000002
C                0.2206299658        0.5563516800        0.0000000005
C                0.2792317542        0.6085583353        0.0000000006
C                0.2224039001        0.7222535079        0.0000000006
C                0.2779916832        0.7770827518        0.0000000012
C                0.2219457776        0.8886935357        0.0000000010
C                0.2781299213        0.9442491795       -0.0000000002
C                0.3884741977        0.0559746982       -0.0000000007
C                0.4448286655        0.1119549364        0.0000000010
C                0.3886976515        0.2235103999        0.0000000015
C                0.4454479477        0.2800171775        0.0000000025
C                0.3861909564        0.3894141042       -0.0000000009
C                0.3861909645        0.5577282662       -0.0000000015
C                0.4454479589        0.6078682108       -0.0000000019
C                0.3886976486        0.7211252831       -0.0000000005
C                0.4448286684        0.7765497353        0.0000000010
C                0.3884741986        0.8888844376       -0.0000000005
C                0.4443824865        0.9444754250       -0.0000000003
C                0.5549648715        0.0561073426        0.0000000008
C                0.6106663384        0.1118022464       -0.0000000002
C                0.5556562863        0.2215109972        0.0000000008
C                0.6100236335        0.2789695756        0.0000000007
C                0.5604130413        0.3864601530        0.0000000019
C                0.6100236439        0.4443401162        0.0000000007
C                0.5556562952        0.5561660519       -0.0000000012
C                0.6106663435        0.6108647491       -0.0000000014
C                0.5549648699        0.7222611207        0.0000000004
C                0.6112592688        0.7776730556        0.0000000007
C                0.5554495401        0.8889418992        0.0000000004
C                0.6112592673        0.9444010134        0.0000000008
C                0.7224197261        0.0556072698       -0.0000000013
C                0.7778292522        0.1109550608       -0.0000000004
C                0.7218149287        0.2230549614       -0.0000000008
C                0.7773518042        0.2779907638       -0.0000000003
C                0.7218149328        0.3884634409        0.0000000015
C                0.7778292551        0.4445490149       -0.0000000011
C                0.7224197282        0.5553063341       -0.0000000008
C                0.7779315639        0.6105728691       -0.0000000009
C                0.7217688311        0.7225221100        0.0000000000
C                0.7777026660        0.7778153344       -0.0000000010
C                0.7217688316        0.8890423935       -0.0000000004
C                0.7779315634        0.9448289022       -0.0000000015
C                0.8883721305        0.0557568076       -0.0000000000
C                0.9446701123        0.1113175462       -0.0000000001
C                0.8890279033        0.2221527149       -0.0000000005
C                0.9446701157        0.2773456740       -0.0000000005
C                0.8883721283        0.3892043972       -0.0000000005
C                0.9443739671        0.4445234521       -0.0000000002
C                0.8885761255        0.5553353986       -0.0000000013
C                0.9450102067        0.6109901069       -0.0000000005
C                0.8890893713        0.7221219809       -0.0000000005
C                0.9450102060        0.7773330184       -0.0000000002
C                0.8885761236        0.8894218108       -0.0000000001
C                0.9443739632        0.9444359136        0.0000000002



     Writing config-only to output data dir /home/gregb26/links/scratch/qe_tmp/vacancy_relaxed/series/6x6/nspin1/vac_6x6_relax_nspin1.save/ :
     XML data file
     NEW-OLD atomic charge density approx. for the potential

     negative rho (up, down):  1.951E-06 0.000E+00

     total cpu time spent up to now is       89.4 secs

     per-process dynamical memory:   205.3 Mb

     Self-consistent Calculation

     iteration #  1     ecut=   100.00 Ry     beta= 0.30
     Davidson diagonalization with overlap
     ethr =  1.00E-06,  avg # of iterations =  6.0

     negative rho (up, down):  1.279E-06 0.000E+00

     total cpu time spent up to now is       91.1 secs

     total energy              =    -854.72116543 Ry
     estimated scf accuracy    <       0.00300855 Ry

     iteration #  2     ecut=   100.00 Ry     beta= 0.30
     Davidson diagonalization with overlap
     ethr =  1.06E-06,  avg # of iterations =  3.0

     negative rho (up, down):  1.209E-06 0.000E+00

     total cpu time spent up to now is       92.0 secs

     total energy              =    -854.72000601 Ry
     estimated scf accuracy    <       0.06626035 Ry

     iteration #  3     ecut=   100.00 Ry     beta= 0.30
     Davidson diagonalization with overlap
     ethr =  1.06E-06,  avg # of iterations =  3.0

     negative rho (up, down):  1.032E-06 0.000E+00

     total cpu time spent up to now is       92.9 secs

     total energy              =    -854.72188282 Ry
     estimated scf accuracy    <       0.00176893 Ry

     iteration #  4     ecut=   100.00 Ry     beta= 0.30
     Davidson diagonalization with overlap
     ethr =  6.23E-07,  avg # of iterations =  2.0

     negative rho (up, down):  4.528E-07 0.000E+00

     total cpu time spent up to now is       93.7 secs

     total energy              =    -854.72199409 Ry
     estimated scf accuracy    <       0.00054381 Ry

     iteration #  5     ecut=   100.00 Ry     beta= 0.30
     Davidson diagonalization with overlap
     ethr =  1.91E-07,  avg # of iterations =  2.0

     negative rho (up, down):  2.463E-07 0.000E+00

     total cpu time spent up to now is       94.6 secs

     total energy              =    -854.72202461 Ry
     estimated scf accuracy    <       0.00051541 Ry

     iteration #  6     ecut=   100.00 Ry     beta= 0.30
     Davidson diagonalization with overlap
     ethr =  1.81E-07,  avg # of iterations =  1.0

     negative rho (up, down):  1.124E-07 0.000E+00

     total cpu time spent up to now is       95.4 secs

     total energy              =    -854.72204068 Ry
     estimated scf accuracy    <       0.00000711 Ry

     iteration #  7     ecut=   100.00 Ry     beta= 0.30
     Davidson diagonalization with overlap
     ethr =  2.50E-09,  avg # of iterations =  5.0

     negative rho (up, down):  3.661E-08 0.000E+00

     total cpu time spent up to now is       96.6 secs

     total energy              =    -854.72204235 Ry
     estimated scf accuracy    <       0.00000158 Ry

     iteration #  8     ecut=   100.00 Ry     beta= 0.30
     Davidson diagonalization with overlap
     ethr =  5.57E-10,  avg # of iterations =  4.0

     negative rho (up, down):  1.552E-08 0.000E+00

     total cpu time spent up to now is       97.6 secs

     total energy              =    -854.72204249 Ry
     estimated scf accuracy    <       0.00000186 Ry

     iteration #  9     ecut=   100.00 Ry     beta= 0.30
     Davidson diagonalization with overlap
     ethr =  5.57E-10,  avg # of iterations =  2.0

     total cpu time spent up to now is       98.5 secs

     total energy              =    -854.72204252 Ry
     estimated scf accuracy    <       0.00000104 Ry

     iteration # 10     ecut=   100.00 Ry     beta= 0.30
     Davidson diagonalization with overlap
     ethr =  3.66E-10,  avg # of iterations =  2.0

     total cpu time spent up to now is       99.3 secs

     total energy              =    -854.72204259 Ry
     estimated scf accuracy    <       0.00000005 Ry

     iteration # 11     ecut=   100.00 Ry     beta= 0.30
     Davidson diagonalization with overlap
     ethr =  1.86E-11,  avg # of iterations =  5.0

     total cpu time spent up to now is      100.3 secs

     total energy              =    -854.72204260 Ry
     estimated scf accuracy    <       0.00000001 Ry

     iteration # 12     ecut=   100.00 Ry     beta= 0.30
     Davidson diagonalization with overlap
     ethr =  4.05E-12,  avg # of iterations =  4.0

     total cpu time spent up to now is      101.2 secs

     total energy              =    -854.72204260 Ry
     estimated scf accuracy    <          2.6E-09 Ry

     iteration # 13     ecut=   100.00 Ry     beta= 0.30
     Davidson diagonalization with overlap
     ethr =  9.09E-13,  avg # of iterations =  4.0

     total cpu time spent up to now is      102.3 secs

     total energy              =    -854.72204260 Ry
     estimated scf accuracy    <          5.6E-10 Ry

     iteration # 14     ecut=   100.00 Ry     beta= 0.30
     Davidson diagonalization with overlap
     ethr =  1.97E-13,  avg # of iterations =  4.0

     total cpu time spent up to now is      103.2 secs

     total energy              =    -854.72204260 Ry
     estimated scf accuracy    <          3.4E-10 Ry

     iteration # 15     ecut=   100.00 Ry     beta= 0.30
     Davidson diagonalization with overlap
     ethr =  1.20E-13,  avg # of iterations =  1.0

     total cpu time spent up to now is      104.0 secs

     End of self-consistent calculation

          k = 0.0000 0.0000 0.0000 (171510 PWs)   bands (ev):

   -23.7992 -23.2328 -23.2211 -23.1681 -23.1628 -23.1457 -22.9492 -21.9458
   -21.9264 -21.8887 -21.8886 -21.8610 -21.6406 -21.3240 -21.2674 -21.2509
   -21.2499 -21.2064 -20.7642 -19.5062 -19.5003 -19.4376 -19.4335 -19.4150
   -19.3982 -19.3915 -19.3894 -19.3775 -19.3272 -19.3119 -18.8122 -18.6148
   -18.5879 -18.0832 -17.5128 -17.4680 -17.3757 -16.9916 -16.8682 -16.8478
   -16.4296 -15.8244 -15.7983 -15.7806 -15.7785 -15.7714 -15.7402 -15.7401
   -15.7130 -15.7000 -15.4399 -15.4325 -14.8019 -14.7650 -14.4336 -14.0413
   -14.0159 -13.9846 -13.7702 -13.7410 -13.0138 -12.5711 -12.4256 -12.4220
   -12.3937 -12.3817 -12.3743 -12.3600 -12.3460 -12.3235 -12.2917 -12.2575
   -12.2359 -12.1684 -12.0896 -12.0824 -11.8754 -11.6188 -11.6104 -11.1716
   -11.1661 -11.1236 -11.1170 -11.1071 -10.9141 -10.9137 -10.8886 -10.8273
   -10.8268 -10.7433 -10.6888 -10.6823 -10.4242 -10.4052 -10.2007 -10.1785
   -10.1657 -10.1586 -10.0479  -9.9614  -9.9098  -9.6911  -9.6807  -9.6608
    -9.6448  -9.6439  -9.6316  -9.6221  -9.6054  -9.3800  -8.9751  -8.9365
    -8.9319  -8.9229  -8.9125  -8.9079  -8.8968  -8.5966  -8.5755  -8.5063
    -8.4744  -8.4254  -7.8575  -7.6345  -7.4981  -7.0218  -7.0145  -6.9863
    -6.9703  -6.9547  -6.9416  -6.9292  -6.9212  -6.9186  -6.9134  -6.9064
    -6.7106  -6.6757  -6.6224  -5.4732  -4.3707  -4.2653  -4.1929  -4.1901
    -4.1005  -3.7320  -2.6145  -2.5402  -2.4341  -1.8891  -1.8339  -1.8172
    -1.7770  -1.7678  -1.7593  -1.7378  -1.7148  -1.7082  -1.5526  -1.5483
    -0.9516  -0.3065  -0.0825  -0.0823  -0.0810  -0.0790  -0.0736  -0.0717
     0.0361   0.5776   0.5908   0.6256

     the Fermi energy is    -4.2378 ev

!    total energy              =    -854.72204260 Ry
     estimated scf accuracy    <          3.2E-11 Ry
     smearing contrib. (-TS)   =      -0.00742019 Ry
     internal energy E=F+TS    =    -854.71462242 Ry

     The total energy is F=E-TS. E is the sum of the following terms:
     one-electron contribution =   -9612.44182384 Ry
     hartree contribution      =    4832.37048620 Ry
     xc contribution           =    -303.93755935 Ry
     ewald contribution        =    4229.29427457 Ry

     convergence has been achieved in  15 iterations

     Forces acting on atoms (cartesian axes, Ry/au):

     atom    1 type  1   force =    -0.00094652   -0.00084990    0.00000000
     atom    2 type  1   force =     0.00015690   -0.00027163    0.00000000
     atom    3 type  1   force =     0.00120930    0.00039476   -0.00000000
     atom    4 type  1   force =    -0.00130967    0.00208511    0.00000001
     atom    5 type  1   force =    -0.00110824   -0.00087173    0.00000001
     atom    6 type  1   force =    -0.00086841    0.00192291   -0.00000001
     atom    7 type  1   force =    -0.00052204   -0.00006806   -0.00000001
     atom    8 type  1   force =    -0.00040015    0.00069311   -0.00000000
     atom    9 type  1   force =     0.00032003    0.00041791    0.00000001
     atom   10 type  1   force =    -0.00123101    0.00171345    0.00000001
     atom   11 type  1   force =     0.00130887    0.00052389    0.00000002
     atom   12 type  1   force =    -0.00115087    0.00217683   -0.00000001
     atom   13 type  1   force =     0.00091032   -0.00157681    0.00000000
     atom   14 type  1   force =    -0.00140572   -0.00079176    0.00000001
     atom   15 type  1   force =    -0.00043452   -0.00092484   -0.00000000
     atom   16 type  1   force =     0.00006692    0.00059342    0.00000002
     atom   17 type  1   force =     0.00102371    0.00157685   -0.00000001
     atom   18 type  1   force =    -0.00420038    0.00285098   -0.00000001
     atom   19 type  1   force =    -0.00067484    0.00116862    0.00000001
     atom   20 type  1   force =    -0.00036840    0.00506253    0.00000001
     atom   21 type  1   force =    -0.00187776   -0.00009787   -0.00000001
     atom   22 type  1   force =    -0.00054716    0.00023882    0.00000000
     atom   23 type  1   force =     0.00101806   -0.00008608    0.00000000
     atom   24 type  1   force =     0.00138863    0.00082143    0.00000000
     atom   25 type  1   force =    -0.00050887    0.00037012    0.00000000
     atom   26 type  1   force =     0.00011148    0.00021219    0.00000000
     atom   27 type  1   force =     0.00267298   -0.00053207   -0.00000001
     atom   28 type  1   force =    -0.00070249    0.00136691   -0.00000002
     atom   29 type  1   force =     0.00706742    0.00355509    0.00000001
     atom   30 type  1   force =    -0.00661244   -0.00434282    0.00000001
     atom   31 type  1   force =    -0.00083290    0.00129179    0.00000000
     atom   32 type  1   force =    -0.00087542   -0.00258090    0.00000002
     atom   33 type  1   force =    -0.00023979    0.00000960   -0.00000001
     atom   34 type  1   force =    -0.00006606    0.00062585    0.00000001
     atom   35 type  1   force =     0.00038976   -0.00067517   -0.00000000
     atom   36 type  1   force =    -0.00008365   -0.00022900    0.00000000
     atom   37 type  1   force =     0.00109358    0.00155782    0.00000000
     atom   38 type  1   force =     0.00175215    0.00057513    0.00000001
     atom   39 type  1   force =     0.00139707   -0.00507513   -0.00000001
     atom   40 type  1   force =     0.00055050   -0.00095369   -0.00000000
     atom   41 type  1   force =     0.00369686   -0.00374719    0.00000001
     atom   42 type  1   force =    -0.00137420   -0.00122993   -0.00000001
     atom   43 type  1   force =    -0.00189587   -0.00016803    0.00000001
     atom   44 type  1   force =     0.00024028   -0.00004210   -0.00000000
     atom   45 type  1   force =     0.00068543    0.00053239   -0.00000000
     atom   46 type  1   force =    -0.00044023    0.00076247    0.00000000
     atom   47 type  1   force =    -0.00080379   -0.00032751   -0.00000001
     atom   48 type  1   force =     0.00071049   -0.00030223   -0.00000000
     atom   49 type  1   force =    -0.00024973   -0.00071141   -0.00000000
     atom   50 type  1   force =    -0.00067967   -0.00196020   -0.00000001
     atom   51 type  1   force =     0.00044712   -0.00077452    0.00000000
     atom   52 type  1   force =     0.00203738   -0.00039156   -0.00000000
     atom   53 type  1   force =     0.00074101   -0.00013935    0.00000001
     atom   54 type  1   force =    -0.00009332   -0.00076643   -0.00000000
     atom   55 type  1   force =     0.00128665    0.00057810   -0.00000001
     atom   56 type  1   force =    -0.00088100   -0.00008769    0.00000000
     atom   57 type  1   force =    -0.00035501    0.00061486   -0.00000000
     atom   58 type  1   force =     0.00051640    0.00071918   -0.00000001
     atom   59 type  1   force =    -0.00114405   -0.00082531    0.00000001
     atom   60 type  1   force =     0.00159375   -0.00135598    0.00000001
     atom   61 type  1   force =    -0.00068698   -0.00214818   -0.00000000
     atom   62 type  1   force =     0.00101607   -0.00175981   -0.00000001
     atom   63 type  1   force =     0.00220375   -0.00047911   -0.00000000
     atom   64 type  1   force =     0.00037746   -0.00205841   -0.00000001
     atom   65 type  1   force =     0.00047825    0.00099153   -0.00000001
     atom   66 type  1   force =    -0.00038841   -0.00077032    0.00000001
     atom   67 type  1   force =    -0.00128553    0.00199709    0.00000000
     atom   68 type  1   force =     0.00009965   -0.00017260   -0.00000000
     atom   69 type  1   force =    -0.00108676    0.00211186   -0.00000000
     atom   70 type  1   force =     0.00086126   -0.00004878   -0.00000002
     atom   71 type  1   force =    -0.00109763    0.00008151   -0.00000001

     Total force =     0.019409     Total SCF correction =     0.000008
     Energy error            =      3.5E-04 Ry
     Gradient error          =      7.1E-03 Ry/Bohr

     number of scf cycles    =   6
     number of bfgs steps    =   5

     energy             old  =    -854.7216884494 Ry
     energy             new  =    -854.7220426029 Ry

     CASE: energy            _new < energy            _old

     new trust radius        =       0.0075745266 bohr
     new conv_thr            =            3.5E-11 Ry


ATOMIC_POSITIONS (crystal)
C                0.0552110864        0.0559251541        0.0000000007
C                0.1110381764        0.1111475795        0.0000000004
C                0.0552110902        0.2221970924       -0.0000000012
C                0.1117140537        0.2778320792       -0.0000000005
C                0.0560000927        0.3887422897       -0.0000000002
C                0.1117424804        0.4442028414        0.0000000015
C                0.0550451486        0.5557752999        0.0000000005
C                0.1111048345        0.6111142462        0.0000000005
C                0.0550451496        0.7225128786        0.0000000003
C                0.1117424824        0.7773880049       -0.0000000002
C                0.0560000880        0.8885909518        0.0000000005
C                0.1117140522        0.9437872024        0.0000000008
C                0.2223995530        0.0554668895       -0.0000000005
C                0.2781722787        0.1109123652       -0.0000000004
C                0.2219742502        0.2227450540        0.0000000006
C                0.2779764291        0.2783177976       -0.0000000001
C                0.2223107650        0.3887190069        0.0000000008
C                0.2790771266        0.4456273253       -0.0000000002
C                0.2205214002        0.5564059575        0.0000000009
C                0.2790771348        0.6086288663        0.0000000007
C                0.2223107587        0.7223035580        0.0000000004
C                0.2779764301        0.7770391105        0.0000000013
C                0.2219742475        0.8886140310        0.0000000012
C                0.2781722807        0.9442486880       -0.0000000003
C                0.3884299081        0.0560024857       -0.0000000006
C                0.4448635925        0.1119927887        0.0000000012
C                0.3887389551        0.2235875831        0.0000000015
C                0.4454631421        0.2801100531        0.0000000021
C                0.3860392763        0.3897268864       -0.0000000006
C                0.3860392793        0.5575671725       -0.0000000014
C                0.4454631493        0.6077601342       -0.0000000017
C                0.3887389567        0.7210068022       -0.0000000003
C                0.4448635899        0.7764769521        0.0000000010
C                0.3884299070        0.8889009439        0.0000000000
C                0.4443782279        0.9444775528       -0.0000000001
C                0.5549155808        0.0561937982        0.0000000009
C                0.6106336207        0.1118715197        0.0000000001
C                0.5556456928        0.2215725026        0.0000000010
C                0.6102713442        0.2788368049        0.0000000007
C                0.5607037983        0.3863147722        0.0000000020
C                0.6102713524        0.4442251860        0.0000000005
C                0.5556457049        0.5561151375       -0.0000000011
C                0.6106336242        0.6108281972       -0.0000000012
C                0.5549155829        0.7222239572        0.0000000003
C                0.6112643274        0.7776912986        0.0000000004
C                0.5554037198        0.8889648092        0.0000000003
C                0.6112643287        0.9443777088        0.0000000007
C                0.7224303883        0.0556416656       -0.0000000012
C                0.7779096453        0.1108538863       -0.0000000005
C                0.7218984864        0.2229961030       -0.0000000012
C                0.7773852488        0.2779740402       -0.0000000005
C                0.7218984930        0.3884387384        0.0000000018
C                0.7779096473        0.4445697989       -0.0000000009
C                0.7224303956        0.5552612782       -0.0000000007
C                0.7779503547        0.6105575934       -0.0000000015
C                0.7217049146        0.7225368974        0.0000000000
C                0.7776685591        0.7778323874       -0.0000000010
C                0.7217049124        0.8890915239       -0.0000000007
C                0.7779503557        0.9448253824       -0.0000000012
C                0.8883937180        0.0557432005        0.0000000000
C                0.9447301733        0.1112748566       -0.0000000002
C                0.8890591125        0.2221371115       -0.0000000006
C                0.9447301744        0.2773283013       -0.0000000007
C                0.8883937220        0.3891964115       -0.0000000007
C                0.9443573047        0.4445497335       -0.0000000005
C                0.8885561739        0.5552805779       -0.0000000010
C                0.9449719438        0.6110200733       -0.0000000005
C                0.8891083636        0.7221124843       -0.0000000005
C                0.9449719428        0.7773413151       -0.0000000004
C                0.8885561696        0.8894965826       -0.0000000007
C                0.9443573047        0.9444262958        0.0000000000



     Writing config-only to output data dir /home/gregb26/links/scratch/qe_tmp/vacancy_relaxed/series/6x6/nspin1/vac_6x6_relax_nspin1.save/ :
     XML data file
     NEW-OLD atomic charge density approx. for the potential

     negative rho (up, down):  8.068E-07 0.000E+00

     total cpu time spent up to now is      104.8 secs

     per-process dynamical memory:   205.3 Mb

     Self-consistent Calculation

     iteration #  1     ecut=   100.00 Ry     beta= 0.30
     Davidson diagonalization with overlap
     ethr =  1.00E-06,  avg # of iterations =  5.0

     negative rho (up, down):  5.243E-07 0.000E+00

     total cpu time spent up to now is      106.2 secs

     total energy              =    -854.72177155 Ry
     estimated scf accuracy    <       0.00127244 Ry

     iteration #  2     ecut=   100.00 Ry     beta= 0.30
     Davidson diagonalization with overlap
     ethr =  4.48E-07,  avg # of iterations =  3.0

     negative rho (up, down):  4.997E-07 0.000E+00

     total cpu time spent up to now is      107.1 secs

     total energy              =    -854.72076068 Ry
     estimated scf accuracy    <       0.05639674 Ry

     iteration #  3     ecut=   100.00 Ry     beta= 0.30
     Davidson diagonalization with overlap
     ethr =  4.48E-07,  avg # of iterations =  3.0

     negative rho (up, down):  4.216E-07 0.000E+00

     total cpu time spent up to now is      108.0 secs

     total energy              =    -854.72226708 Ry
     estimated scf accuracy    <       0.00018222 Ry

     iteration #  4     ecut=   100.00 Ry     beta= 0.30
     Davidson diagonalization with overlap
     ethr =  6.42E-08,  avg # of iterations =  4.0

     negative rho (up, down):  2.112E-07 0.000E+00

     total cpu time spent up to now is      108.9 secs

     total energy              =    -854.72228169 Ry
     estimated scf accuracy    <       0.00004161 Ry

     iteration #  5     ecut=   100.00 Ry     beta= 0.30
     Davidson diagonalization with overlap
     ethr =  1.47E-08,  avg # of iterations =  4.0

     negative rho (up, down):  8.145E-08 0.000E+00

     total cpu time spent up to now is      109.8 secs

     total energy              =    -854.72228446 Ry
     estimated scf accuracy    <       0.00008582 Ry

     iteration #  6     ecut=   100.00 Ry     beta= 0.30
     Davidson diagonalization with overlap
     ethr =  1.47E-08,  avg # of iterations =  1.0

     negative rho (up, down):  4.341E-08 0.000E+00

     total cpu time spent up to now is      110.6 secs

     total energy              =    -854.72228727 Ry
     estimated scf accuracy    <       0.00000122 Ry

     iteration #  7     ecut=   100.00 Ry     beta= 0.30
     Davidson diagonalization with overlap
     ethr =  4.28E-10,  avg # of iterations =  5.0

     negative rho (up, down):  1.654E-08 0.000E+00

     total cpu time spent up to now is      111.7 secs

     total energy              =    -854.72228751 Ry
     estimated scf accuracy    <       0.00000053 Ry

     iteration #  8     ecut=   100.00 Ry     beta= 0.30
     Davidson diagonalization with overlap
     ethr =  1.86E-10,  avg # of iterations =  2.0

     total cpu time spent up to now is      112.6 secs

     total energy              =    -854.72228754 Ry
     estimated scf accuracy    <       0.00000013 Ry

     iteration #  9     ecut=   100.00 Ry     beta= 0.30
     Davidson diagonalization with overlap
     ethr =  4.47E-11,  avg # of iterations =  4.0

     total cpu time spent up to now is      113.6 secs

     total energy              =    -854.72228754 Ry
     estimated scf accuracy    <       0.00000017 Ry

     iteration # 10     ecut=   100.00 Ry     beta= 0.30
     Davidson diagonalization with overlap
     ethr =  4.47E-11,  avg # of iterations =  2.0

     total cpu time spent up to now is      114.4 secs

     total energy              =    -854.72228756 Ry
     estimated scf accuracy    <       0.00000001 Ry

     iteration # 11     ecut=   100.00 Ry     beta= 0.30
     Davidson diagonalization with overlap
     ethr =  4.86E-12,  avg # of iterations =  4.0

     total cpu time spent up to now is      115.4 secs

     total energy              =    -854.72228756 Ry
     estimated scf accuracy    <          2.5E-09 Ry

     iteration # 12     ecut=   100.00 Ry     beta= 0.30
     Davidson diagonalization with overlap
     ethr =  8.78E-13,  avg # of iterations =  4.0

     total cpu time spent up to now is      116.3 secs

     total energy              =    -854.72228756 Ry
     estimated scf accuracy    <          3.4E-10 Ry

     iteration # 13     ecut=   100.00 Ry     beta= 0.30
     Davidson diagonalization with overlap
     ethr =  1.19E-13,  avg # of iterations =  4.0

     total cpu time spent up to now is      117.4 secs

     total energy              =    -854.72228756 Ry
     estimated scf accuracy    <          7.5E-11 Ry

     iteration # 14     ecut=   100.00 Ry     beta= 0.30
     Davidson diagonalization with overlap
     ethr =  1.00E-13,  avg # of iterations =  2.0

     total cpu time spent up to now is      118.3 secs

     total energy              =    -854.72228756 Ry
     estimated scf accuracy    <          6.0E-11 Ry

     iteration # 15     ecut=   100.00 Ry     beta= 0.30
     Davidson diagonalization with overlap
     ethr =  1.00E-13,  avg # of iterations =  1.0

     total cpu time spent up to now is      119.0 secs

     End of self-consistent calculation

          k = 0.0000 0.0000 0.0000 (171510 PWs)   bands (ev):

   -23.7994 -23.2342 -23.2191 -23.1705 -23.1636 -23.1449 -22.9469 -21.9477
   -21.9271 -21.8891 -21.8887 -21.8590 -21.6384 -21.3257 -21.2660 -21.2520
   -21.2497 -21.2043 -20.7611 -19.5059 -19.4994 -19.4395 -19.4333 -19.4156
   -19.4005 -19.3931 -19.3894 -19.3760 -19.3249 -19.3081 -18.8092 -18.6160
   -18.5862 -18.0811 -17.5130 -17.4659 -17.3752 -16.9956 -16.8672 -16.8438
   -16.4297 -15.8245 -15.7953 -15.7790 -15.7778 -15.7724 -15.7404 -15.7400
   -15.7127 -15.6983 -15.4422 -15.4324 -14.8032 -14.7629 -14.4335 -14.0419
   -14.0167 -13.9800 -13.7719 -13.7392 -13.0123 -12.5661 -12.4261 -12.4200
   -12.3926 -12.3802 -12.3762 -12.3575 -12.3466 -12.3280 -12.2933 -12.2565
   -12.2361 -12.1703 -12.0868 -12.0808 -11.8756 -11.6198 -11.6083 -11.1725
   -11.1646 -11.1257 -11.1177 -11.1066 -10.9133 -10.9130 -10.8864 -10.8273
   -10.8267 -10.7436 -10.6874 -10.6821 -10.4221 -10.4037 -10.2020 -10.1768
   -10.1675 -10.1534 -10.0478  -9.9602  -9.9065  -9.6953  -9.6818  -9.6623
    -9.6459  -9.6439  -9.6316  -9.6199  -9.6058  -9.3777  -8.9762  -8.9381
    -8.9313  -8.9245  -8.9112  -8.9062  -8.8964  -8.5958  -8.5735  -8.5031
    -8.4720  -8.4244  -7.8577  -7.6371  -7.4969  -7.0200  -7.0145  -6.9858
    -6.9703  -6.9549  -6.9426  -6.9256  -6.9231  -6.9191  -6.9149  -6.9057
    -6.7099  -6.6771  -6.6200  -5.4711  -4.3769  -4.2645  -4.1957  -4.1838
    -4.0869  -3.7307  -2.6156  -2.5379  -2.4371  -1.8898  -1.8333  -1.8155
    -1.7771  -1.7666  -1.7608  -1.7366  -1.7146  -1.7063  -1.5522  -1.5501
    -0.9517  -0.3068  -0.0831  -0.0827  -0.0813  -0.0791  -0.0734  -0.0715
     0.0370   0.5752   0.5914   0.6266

     the Fermi energy is    -4.2371 ev

!    total energy              =    -854.72228756 Ry
     estimated scf accuracy    <          2.1E-11 Ry
     smearing contrib. (-TS)   =      -0.00688394 Ry
     internal energy E=F+TS    =    -854.71540362 Ry

     The total energy is F=E-TS. E is the sum of the following terms:
     one-electron contribution =   -9612.48624797 Ry
     hartree contribution      =    4832.39715702 Ry
     xc contribution           =    -303.93880049 Ry
     ewald contribution        =    4229.31248782 Ry

     convergence has been achieved in  15 iterations

     Forces acting on atoms (cartesian axes, Ry/au):

     atom    1 type  1   force =     0.00051612   -0.00159807   -0.00000000
     atom    2 type  1   force =     0.00035623   -0.00061709   -0.00000001
     atom    3 type  1   force =     0.00112588   -0.00124597    0.00000001
     atom    4 type  1   force =    -0.00130688    0.00024711    0.00000000
     atom    5 type  1   force =    -0.00086988    0.00137477    0.00000000
     atom    6 type  1   force =    -0.00048655    0.00063733   -0.00000001
     atom    7 type  1   force =    -0.00124420    0.00152064    0.00000000
     atom    8 type  1   force =    -0.00013526    0.00023427    0.00000000
     atom    9 type  1   force =    -0.00069486    0.00183789   -0.00000000
     atom   10 type  1   force =    -0.00030878    0.00074019    0.00000001
     atom   11 type  1   force =    -0.00075553    0.00144060   -0.00000000
     atom   12 type  1   force =     0.00043933    0.00125542    0.00000000
     atom   13 type  1   force =    -0.00023494    0.00040701    0.00000000
     atom   14 type  1   force =    -0.00046675    0.00051076   -0.00000000
     atom   15 type  1   force =    -0.00195932   -0.00075003   -0.00000001
     atom   16 type  1   force =     0.00026542   -0.00009967    0.00000001
     atom   17 type  1   force =     0.00107804    0.00175264   -0.00000000
     atom   18 type  1   force =    -0.00314719    0.00173385    0.00000000
     atom   19 type  1   force =    -0.00121128    0.00209849   -0.00000000
     atom   20 type  1   force =     0.00007168    0.00359277   -0.00000001
     atom   21 type  1   force =    -0.00205660   -0.00005743   -0.00000000
     atom   22 type  1   force =    -0.00004666   -0.00027976   -0.00000001
     atom   23 type  1   force =     0.00162926    0.00132176   -0.00000001
     atom   24 type  1   force =    -0.00020897    0.00065965    0.00000001
     atom   25 type  1   force =     0.00046049   -0.00099564    0.00000000
     atom   26 type  1   force =    -0.00036588    0.00154434   -0.00000000
     atom   27 type  1   force =     0.00211533    0.00007413   -0.00000000
     atom   28 type  1   force =     0.00089299    0.00295031   -0.00000001
     atom   29 type  1   force =     0.00681253    0.00354969    0.00000000
     atom   30 type  1   force =    -0.00648037   -0.00412505    0.00000000
     atom   31 type  1   force =    -0.00300141    0.00070180    0.00000000
     atom   32 type  1   force =    -0.00112205   -0.00179493    0.00000001
     atom   33 type  1   force =    -0.00115430    0.00108901   -0.00000001
     atom   34 type  1   force =     0.00063199   -0.00089666    0.00000000
     atom   35 type  1   force =    -0.00020726    0.00035915    0.00000000
     atom   36 type  1   force =    -0.00024108   -0.00194373    0.00000001
     atom   37 type  1   force =     0.00096553    0.00112072    0.00000000
     atom   38 type  1   force =     0.00207316    0.00037326    0.00000001
     atom   39 type  1   force =     0.00080539   -0.00290245    0.00000000
     atom   40 type  1   force =     0.00101296   -0.00175424   -0.00000000
     atom   41 type  1   force =     0.00211082   -0.00214885    0.00000001
     atom   42 type  1   force =    -0.00135995   -0.00160862   -0.00000001
     atom   43 type  1   force =    -0.00145332   -0.00027593    0.00000001
     atom   44 type  1   force =     0.00180377   -0.00076306   -0.00000001
     atom   45 type  1   force =    -0.00103395    0.00098375   -0.00000000
     atom   46 type  1   force =     0.00023408   -0.00040546    0.00000000
     atom   47 type  1   force =    -0.00033505    0.00138739   -0.00000001
     atom   48 type  1   force =    -0.00079352   -0.00086622    0.00000001
     atom   49 type  1   force =     0.00116534    0.00013399   -0.00000000
     atom   50 type  1   force =    -0.00028383   -0.00309603    0.00000000
     atom   51 type  1   force =     0.00095249   -0.00164971    0.00000000
     atom   52 type  1   force =     0.00282317   -0.00130215   -0.00000001
     atom   53 type  1   force =    -0.00069863   -0.00094235    0.00000001
     atom   54 type  1   force =     0.00114686    0.00025419   -0.00000001
     atom   55 type  1   force =    -0.00020078    0.00079523    0.00000001
     atom   56 type  1   force =     0.00064624   -0.00065311   -0.00000001
     atom   57 type  1   force =    -0.00033604    0.00058205    0.00000001
     atom   58 type  1   force =     0.00024250   -0.00088632   -0.00000000
     atom   59 type  1   force =    -0.00058828    0.00057169   -0.00000000
     atom   60 type  1   force =     0.00074716   -0.00200272   -0.00000000
     atom   61 type  1   force =    -0.00050989   -0.00077680    0.00000000
     atom   62 type  1   force =     0.00132702   -0.00229854    0.00000000
     atom   63 type  1   force =     0.00092771    0.00005314   -0.00000000
     atom   64 type  1   force =     0.00136082   -0.00164833   -0.00000000
     atom   65 type  1   force =    -0.00032645   -0.00072068   -0.00000000
     atom   66 type  1   force =     0.00124924    0.00060150    0.00000000
     atom   67 type  1   force =    -0.00136226    0.00055656   -0.00000000
     atom   68 type  1   force =    -0.00084248    0.00145928   -0.00000000
     atom   69 type  1   force =     0.00019911    0.00145801   -0.00000000
     atom   70 type  1   force =    -0.00114547   -0.00078118    0.00000000
     atom   71 type  1   force =     0.00078721   -0.00007756    0.00000000

     Total force =     0.018373     Total SCF correction =     0.000010
     Energy error            =      2.4E-04 Ry
     Gradient error          =      6.8E-03 Ry/Bohr

     number of scf cycles    =   7
     number of bfgs steps    =   6

     energy             old  =    -854.7220426029 Ry
     energy             new  =    -854.7222875595 Ry

     CASE: energy            _new < energy            _old

     new trust radius        =       0.0083319792 bohr
     new conv_thr            =            2.4E-11 Ry


ATOMIC_POSITIONS (crystal)
C                0.0552202593        0.0559058693        0.0000000007
C                0.1110552910        0.1111390229        0.0000000005
C                0.0552202632        0.2222072048       -0.0000000012
C                0.1117223893        0.2778513486       -0.0000000001
C                0.0559984863        0.3887340801       -0.0000000003
C                0.1116705451        0.4442282918        0.0000000012
C                0.0549899134        0.5558006117        0.0000000001
C                0.1110145394        0.6111593940        0.0000000005
C                0.0549899161        0.7225427991        0.0000000004
C                0.1116705456        0.7774344900        0.0000000001
C                0.0559984829        0.8886007649        0.0000000007
C                0.1117223848        0.9437595993        0.0000000005
C                0.2224461818        0.0554435750       -0.0000000005
C                0.2781957744        0.1108928147       -0.0000000005
C                0.2219917067        0.2227724572        0.0000000006
C                0.2779692716        0.2783651857        0.0000000001
C                0.2222210422        0.3887678436        0.0000000007
C                0.2789286716        0.4457037214       -0.0000000001
C                0.2203979862        0.5564676650        0.0000000012
C                0.2789286866        0.6087009197        0.0000000006
C                0.2222210318        0.7223444451        0.0000000002
C                0.2779692731        0.7769988795        0.0000000013
C                0.2219917028        0.8885691712        0.0000000013
C                0.2781957781        0.9442447425       -0.0000000003
C                0.3884191641        0.0560181964       -0.0000000006
C                0.4448726676        0.1120336165        0.0000000013
C                0.3887675854        0.2236730597        0.0000000016
C                0.4454537584        0.2802543398        0.0000000016
C                0.3859042569        0.3900685081       -0.0000000003
C                0.3859042574        0.5573605749       -0.0000000012
C                0.4454537637        0.6076252287       -0.0000000015
C                0.3887675892        0.7208926963       -0.0000000002
C                0.4448726633        0.7764270481        0.0000000010
C                0.3884191623        0.8888959792        0.0000000005
C                0.4443601727        0.9444865808        0.0000000002
C                0.5548948544        0.0562471554        0.0000000011
C                0.6106094142        0.1119307185        0.0000000004
C                0.5556431882        0.2216460869        0.0000000013
C                0.6104885169        0.2787224572        0.0000000008
C                0.5609984381        0.3861674532        0.0000000021
C                0.6104885259        0.4441223635        0.0000000004
C                0.5556431987        0.5560440577       -0.0000000010
C                0.6106094190        0.6107932051       -0.0000000009
C                0.5548948577        0.7221913274        0.0000000002
C                0.6112456146        0.7777056502        0.0000000001
C                0.5553778450        0.8889777464        0.0000000003
C                0.6112456157        0.9443820690        0.0000000005
C                0.7224373537        0.0556574750       -0.0000000009
C                0.7779924609        0.1107727758       -0.0000000006
C                0.7220183759        0.2229087483       -0.0000000015
C                0.7774487195        0.2779423045       -0.0000000007
C                0.7220183833        0.3884062028        0.0000000019
C                0.7779924656        0.4445680938       -0.0000000007
C                0.7224373629        0.5552385054       -0.0000000007
C                0.7779500887        0.6105467217       -0.0000000019
C                0.7216678275        0.7225504670       -0.0000000001
C                0.7776337614        0.7778497864       -0.0000000009
C                0.7216678251        0.8891150407       -0.0000000010
C                0.7779500879        0.9448365199       -0.0000000011
C                0.8884299470        0.0557123688       -0.0000000000
C                0.9447795348        0.1112386619       -0.0000000003
C                0.8891104790        0.2221114285       -0.0000000006
C                0.9447795355        0.2773151333       -0.0000000010
C                0.8884299531        0.3891910125       -0.0000000009
C                0.9443574444        0.4445487498       -0.0000000008
C                0.8885369153        0.5552601433       -0.0000000006
C                0.9449346996        0.6110351506       -0.0000000006
C                0.8890886288        0.7221223517       -0.0000000006
C                0.9449346985        0.7773634816       -0.0000000005
C                0.8885369108        0.8895362755       -0.0000000011
C                0.9443574438        0.9444271407       -0.0000000000



     Writing config-only to output data dir /home/gregb26/links/scratch/qe_tmp/vacancy_relaxed/series/6x6/nspin1/vac_6x6_relax_nspin1.save/ :
     XML data file
     NEW-OLD atomic charge density approx. for the potential

     negative rho (up, down):  8.027E-07 0.000E+00

     total cpu time spent up to now is      119.8 secs

     per-process dynamical memory:   205.3 Mb

     Self-consistent Calculation

     iteration #  1     ecut=   100.00 Ry     beta= 0.30
     Davidson diagonalization with overlap
     ethr =  1.00E-06,  avg # of iterations =  5.0

     negative rho (up, down):  5.217E-07 0.000E+00

     total cpu time spent up to now is      121.3 secs

     total energy              =    -854.72196614 Ry
     estimated scf accuracy    <       0.00137147 Ry

     iteration #  2     ecut=   100.00 Ry     beta= 0.30
     Davidson diagonalization with overlap
     ethr =  4.83E-07,  avg # of iterations =  3.0

     negative rho (up, down):  4.974E-07 0.000E+00

     total cpu time spent up to now is      122.3 secs

     total energy              =    -854.72086154 Ry
     estimated scf accuracy    <       0.06446393 Ry

     iteration #  3     ecut=   100.00 Ry     beta= 0.30
     Davidson diagonalization with overlap
     ethr =  4.83E-07,  avg # of iterations =  3.0

     negative rho (up, down):  3.981E-07 0.000E+00

     total cpu time spent up to now is      123.1 secs

     total energy              =    -854.72252972 Ry
     estimated scf accuracy    <       0.00015443 Ry

     iteration #  4     ecut=   100.00 Ry     beta= 0.30
     Davidson diagonalization with overlap
     ethr =  5.44E-08,  avg # of iterations =  4.0

     negative rho (up, down):  2.050E-07 0.000E+00

     total cpu time spent up to now is      124.0 secs

     total energy              =    -854.72254025 Ry
     estimated scf accuracy    <       0.00001773 Ry

     iteration #  5     ecut=   100.00 Ry     beta= 0.30
     Davidson diagonalization with overlap
     ethr =  6.24E-09,  avg # of iterations =  4.0

     negative rho (up, down):  7.740E-08 0.000E+00

     total cpu time spent up to now is      125.0 secs

     total energy              =    -854.72254079 Ry
     estimated scf accuracy    <       0.00007250 Ry

     iteration #  6     ecut=   100.00 Ry     beta= 0.30
     Davidson diagonalization with overlap
     ethr =  6.24E-09,  avg # of iterations =  1.0

     negative rho (up, down):  3.713E-08 0.000E+00

     total cpu time spent up to now is      125.9 secs

     total energy              =    -854.72254343 Ry
     estimated scf accuracy    <       0.00000557 Ry

     iteration #  7     ecut=   100.00 Ry     beta= 0.30
     Davidson diagonalization with overlap
     ethr =  1.96E-09,  avg # of iterations =  1.0

     total cpu time spent up to now is      126.7 secs

     total energy              =    -854.72254358 Ry
     estimated scf accuracy    <       0.00000032 Ry

     iteration #  8     ecut=   100.00 Ry     beta= 0.30
     Davidson diagonalization with overlap
     ethr =  1.11E-10,  avg # of iterations =  5.0

     total cpu time spent up to now is      127.7 secs

     total energy              =    -854.72254361 Ry
     estimated scf accuracy    <       0.00000037 Ry

     iteration #  9     ecut=   100.00 Ry     beta= 0.30
     Davidson diagonalization with overlap
     ethr =  1.11E-10,  avg # of iterations =  2.0

     total cpu time spent up to now is      128.6 secs

     total energy              =    -854.72254363 Ry
     estimated scf accuracy    <       0.00000008 Ry

     iteration # 10     ecut=   100.00 Ry     beta= 0.30
     Davidson diagonalization with overlap
     ethr =  2.96E-11,  avg # of iterations =  2.0

     total cpu time spent up to now is      129.5 secs

     total energy              =    -854.72254363 Ry
     estimated scf accuracy    <       0.00000006 Ry

     iteration # 11     ecut=   100.00 Ry     beta= 0.30
     Davidson diagonalization with overlap
     ethr =  2.29E-11,  avg # of iterations =  1.0

     total cpu time spent up to now is      130.2 secs

     total energy              =    -854.72254364 Ry
     estimated scf accuracy    <          4.9E-09 Ry

     iteration # 12     ecut=   100.00 Ry     beta= 0.30
     Davidson diagonalization with overlap
     ethr =  1.74E-12,  avg # of iterations =  4.0

     total cpu time spent up to now is      131.1 secs

     total energy              =    -854.72254364 Ry
     estimated scf accuracy    <          4.1E-10 Ry

     iteration # 13     ecut=   100.00 Ry     beta= 0.30
     Davidson diagonalization with overlap
     ethr =  1.44E-13,  avg # of iterations =  4.0

     total cpu time spent up to now is      132.3 secs

     total energy              =    -854.72254364 Ry
     estimated scf accuracy    <          5.4E-11 Ry

     iteration # 14     ecut=   100.00 Ry     beta= 0.30
     Davidson diagonalization with overlap
     ethr =  1.00E-13,  avg # of iterations =  1.0

     total cpu time spent up to now is      133.0 secs

     End of self-consistent calculation

          k = 0.0000 0.0000 0.0000 (171510 PWs)   bands (ev):

   -23.7995 -23.2350 -23.2158 -23.1726 -23.1643 -23.1451 -22.9442 -21.9483
   -21.9272 -21.8893 -21.8880 -21.8574 -21.6378 -21.3260 -21.2651 -21.2525
   -21.2491 -21.2027 -20.7586 -19.5043 -19.4977 -19.4400 -19.4334 -19.4165
   -19.4019 -19.3940 -19.3897 -19.3753 -19.3229 -19.3048 -18.8082 -18.6167
   -18.5844 -18.0784 -17.5131 -17.4645 -17.3752 -16.9973 -16.8661 -16.8412
   -16.4300 -15.8242 -15.7931 -15.7785 -15.7761 -15.7721 -15.7403 -15.7395
   -15.7126 -15.6982 -15.4427 -15.4315 -14.8039 -14.7611 -14.4334 -14.0412
   -14.0167 -13.9771 -13.7729 -13.7385 -13.0112 -12.5609 -12.4265 -12.4184
   -12.3914 -12.3786 -12.3769 -12.3565 -12.3466 -12.3307 -12.2940 -12.2549
   -12.2361 -12.1710 -12.0852 -12.0805 -11.8757 -11.6202 -11.6065 -11.1731
   -11.1621 -11.1277 -11.1184 -11.1069 -10.9113 -10.9111 -10.8839 -10.8268
   -10.8251 -10.7433 -10.6868 -10.6832 -10.4216 -10.4037 -10.2016 -10.1768
   -10.1685 -10.1493 -10.0479  -9.9584  -9.9046  -9.6960  -9.6817  -9.6628
    -9.6463  -9.6438  -9.6315  -9.6177  -9.6063  -9.3771  -8.9766  -8.9386
    -8.9302  -8.9255  -8.9102  -8.9046  -8.8964  -8.5948  -8.5722  -8.5021
    -8.4700  -8.4253  -7.8603  -7.6372  -7.4964  -7.0177  -7.0136  -6.9851
    -6.9704  -6.9555  -6.9428  -6.9235  -6.9234  -6.9200  -6.9154  -6.9052
    -6.7104  -6.6781  -6.6183  -5.4689  -4.3800  -4.2639  -4.1985  -4.1805
    -4.0710  -3.7301  -2.6160  -2.5366  -2.4386  -1.8903  -1.8332  -1.8141
    -1.7774  -1.7658  -1.7614  -1.7358  -1.7150  -1.7055  -1.5513  -1.5510
    -0.9518  -0.3075  -0.0837  -0.0831  -0.0817  -0.0792  -0.0730  -0.0714
     0.0379   0.5733   0.5922   0.6274

     the Fermi energy is    -4.2368 ev

!    total energy              =    -854.72254364 Ry
     estimated scf accuracy    <          2.2E-11 Ry
     smearing contrib. (-TS)   =      -0.00657842 Ry
     internal energy E=F+TS    =    -854.71596522 Ry

     The total energy is F=E-TS. E is the sum of the following terms:
     one-electron contribution =   -9612.50564277 Ry
     hartree contribution      =    4832.41161382 Ry
     xc contribution           =    -303.93881375 Ry
     ewald contribution        =    4229.31687747 Ry

     convergence has been achieved in  14 iterations

     Forces acting on atoms (cartesian axes, Ry/au):

     atom    1 type  1   force =     0.00124508   -0.00180423    0.00000000
     atom    2 type  1   force =     0.00041790   -0.00072391   -0.00000001
     atom    3 type  1   force =     0.00093999   -0.00198040    0.00000001
     atom    4 type  1   force =    -0.00117201   -0.00049620   -0.00000000
     atom    5 type  1   force =    -0.00087726    0.00200151    0.00000000
     atom    6 type  1   force =    -0.00003660    0.00005092   -0.00000001
     atom    7 type  1   force =    -0.00150895    0.00202782    0.00000002
     atom    8 type  1   force =    -0.00011235    0.00019441   -0.00000000
     atom    9 type  1   force =    -0.00100168    0.00232079   -0.00000001
     atom   10 type  1   force =    -0.00002590    0.00005723    0.00000000
     atom   11 type  1   force =    -0.00129454    0.00176053    0.00000001
     atom   12 type  1   force =     0.00101558    0.00076684    0.00000002
     atom   13 type  1   force =    -0.00072442    0.00125485    0.00000001
     atom   14 type  1   force =     0.00010857    0.00109214   -0.00000000
     atom   15 type  1   force =    -0.00248179   -0.00075221   -0.00000000
     atom   16 type  1   force =     0.00026104   -0.00030231    0.00000001
     atom   17 type  1   force =     0.00115693    0.00147931    0.00000002
     atom   18 type  1   force =    -0.00225743    0.00121118    0.00000001
     atom   19 type  1   force =    -0.00152453    0.00264090   -0.00000000
     atom   20 type  1   force =     0.00007954    0.00256121   -0.00000000
     atom   21 type  1   force =    -0.00185921   -0.00026257    0.00000000
     atom   22 type  1   force =     0.00013100   -0.00037720   -0.00000001
     atom   23 type  1   force =     0.00189245    0.00177312    0.00000000
     atom   24 type  1   force =    -0.00100019    0.00045212    0.00000001
     atom   25 type  1   force =     0.00082142   -0.00123374    0.00000001
     atom   26 type  1   force =    -0.00014468    0.00210725   -0.00000001
     atom   27 type  1   force =     0.00185959    0.00059685   -0.00000001
     atom   28 type  1   force =     0.00207072    0.00386071   -0.00000000
     atom   29 type  1   force =     0.00646959    0.00338386   -0.00000001
     atom   30 type  1   force =    -0.00616538   -0.00391110    0.00000001
     atom   31 type  1   force =    -0.00437856    0.00013710   -0.00000000
     atom   32 type  1   force =    -0.00144696   -0.00131212    0.00000002
     atom   33 type  1   force =    -0.00175225    0.00117889    0.00000000
     atom   34 type  1   force =     0.00065764   -0.00132836   -0.00000000
     atom   35 type  1   force =    -0.00022119    0.00038326   -0.00000001
     atom   36 type  1   force =    -0.00038435   -0.00237468   -0.00000000
     atom   37 type  1   force =     0.00092662    0.00091599    0.00000001
     atom   38 type  1   force =     0.00196533    0.00027696    0.00000001
     atom   39 type  1   force =     0.00046561   -0.00172712   -0.00000000
     atom   40 type  1   force =     0.00132300   -0.00229139   -0.00000000
     atom   41 type  1   force =     0.00126268   -0.00126688   -0.00000000
     atom   42 type  1   force =    -0.00122259   -0.00156340   -0.00000000
     atom   43 type  1   force =    -0.00125655   -0.00034454   -0.00000000
     atom   44 type  1   force =     0.00224863   -0.00085450   -0.00000000
     atom   45 type  1   force =    -0.00156554    0.00076456    0.00000001
     atom   46 type  1   force =     0.00035772   -0.00061959    0.00000000
     atom   47 type  1   force =     0.00012064    0.00173821   -0.00000000
     atom   48 type  1   force =    -0.00127258   -0.00087739   -0.00000000
     atom   49 type  1   force =     0.00158953    0.00060865   -0.00000001
     atom   50 type  1   force =     0.00011145   -0.00333680   -0.00000001
     atom   51 type  1   force =     0.00130365   -0.00225799    0.00000000
     atom   52 type  1   force =     0.00283410   -0.00176487   -0.00000001
     atom   53 type  1   force =    -0.00132184   -0.00107233    0.00000002
     atom   54 type  1   force =     0.00139592    0.00066347   -0.00000001
     atom   55 type  1   force =    -0.00054943    0.00106842    0.00000002
     atom   56 type  1   force =     0.00095237   -0.00078884   -0.00000001
     atom   57 type  1   force =    -0.00027842    0.00048223    0.00000000
     atom   58 type  1   force =     0.00020703   -0.00121929    0.00000001
     atom   59 type  1   force =    -0.00065050    0.00101020   -0.00000001
     atom   60 type  1   force =     0.00064978   -0.00216817    0.00000001
     atom   61 type  1   force =    -0.00033095   -0.00022772   -0.00000001
     atom   62 type  1   force =     0.00145331   -0.00251732    0.00000000
     atom   63 type  1   force =     0.00036277    0.00017268    0.00000001
     atom   64 type  1   force =     0.00155281   -0.00164664   -0.00000001
     atom   65 type  1   force =    -0.00031791   -0.00102024   -0.00000000
     atom   66 type  1   force =     0.00169826    0.00102331   -0.00000001
     atom   67 type  1   force =    -0.00128404    0.00035513    0.00000001
     atom   68 type  1   force =    -0.00112914    0.00195582   -0.00000001
     atom   69 type  1   force =     0.00033443    0.00128955   -0.00000002
     atom   70 type  1   force =    -0.00173530   -0.00095912    0.00000000
     atom   71 type  1   force =     0.00104237   -0.00023479   -0.00000000

     Total force =     0.019401     Total SCF correction =     0.000007
     Energy error            =      2.6E-04 Ry
     Gradient error          =      6.5E-03 Ry/Bohr

     number of scf cycles    =   8
     number of bfgs steps    =   7

     energy             old  =    -854.7222875595 Ry
     energy             new  =    -854.7225436375 Ry

     CASE: energy            _new < energy            _old

     new trust radius        =       0.0124979688 bohr
     new conv_thr            =            2.6E-11 Ry


ATOMIC_POSITIONS (crystal)
C                0.0552453574        0.0558803643        0.0000000009
C                0.1110834408        0.1111249497        0.0000000004
C                0.0552453641        0.2222076119       -0.0000000015
C                0.1117440129        0.2778718508        0.0000000005
C                0.0559880975        0.3887253559       -0.0000000004
C                0.1115769147        0.4442641676        0.0000000006
C                0.0548989480        0.5558421207       -0.0000000001
C                0.1108723059        0.6112305086        0.0000000004
C                0.0548989552        0.7225922513        0.0000000005
C                0.1115769180        0.7774922419        0.0000000005
C                0.0559880903        0.8886198795        0.0000000013
C                0.1117440077        0.9437174725        0.0000000005
C                0.2224991130        0.0554171091       -0.0000000005
C                0.2782266881        0.1108786754       -0.0000000007
C                0.2220152660        0.2228046782        0.0000000008
C                0.2779586511        0.2784327015        0.0000000004
C                0.2220978969        0.3888384482        0.0000000009
C                0.2787173222        0.4458215379        0.0000000001
C                0.2202008405        0.5565662338        0.0000000017
C                0.2787173479        0.6087944533        0.0000000006
C                0.2220978832        0.7223969850       -0.0000000000
C                0.2779586516        0.7769419885        0.0000000011
C                0.2220152610        0.8885133907        0.0000000017
C                0.2782266937        0.9442279667       -0.0000000002
C                0.3884055431        0.0560447382       -0.0000000005
C                0.4448802436        0.1121109658        0.0000000014
C                0.3888003212        0.2238136023        0.0000000013
C                0.4454329325        0.2805047319        0.0000000012
C                0.3857052697        0.3905804647       -0.0000000003
C                0.3857052673        0.5570476088       -0.0000000007
C                0.4454329346        0.6073956605       -0.0000000014
C                0.3888003288        0.7207194191        0.0000000003
C                0.4448802376        0.7763421219        0.0000000011
C                0.3884055403        0.8888830591        0.0000000009
C                0.4443413685        0.9444959823        0.0000000003
C                0.5548669089        0.0563201794        0.0000000010
C                0.6105769669        0.1120152164        0.0000000010
C                0.5556372664        0.2217585039        0.0000000017
C                0.6107956455        0.2785615631        0.0000000007
C                0.5614549847        0.3859391774        0.0000000022
C                0.6107956495        0.4439761351        0.0000000000
C                0.5556372767        0.5559375620       -0.0000000008
C                0.6105769710        0.6107411579       -0.0000000009
C                0.5548669165        0.7221462496        0.0000000002
C                0.6112228444        0.7777158830       -0.0000000000
C                0.5553380748        0.8889976315        0.0000000002
C                0.6112228468        0.9443946059        0.0000000004
C                0.7224415462        0.0556808942       -0.0000000009
C                0.7781099497        0.1106641641       -0.0000000011
C                0.7222040287        0.2227799489       -0.0000000024
C                0.7775655635        0.2778838807       -0.0000000008
C                0.7222040392        0.3883493473        0.0000000021
C                0.7781099544        0.4445592186       -0.0000000001
C                0.7224415579        0.5552108943       -0.0000000008
C                0.7779415250        0.6105393881       -0.0000000023
C                0.7216136606        0.7225687493       -0.0000000003
C                0.7775842808        0.7778745262       -0.0000000009
C                0.7216136576        0.8891509261       -0.0000000011
C                0.7779415247        0.9448524148       -0.0000000010
C                0.8884911225        0.0556647385        0.0000000003
C                0.9448499175        0.1111916246       -0.0000000006
C                0.8891971540        0.2220680911       -0.0000000005
C                0.9448499184        0.2772917858       -0.0000000009
C                0.8884911315        0.3891774655       -0.0000000013
C                0.9443590427        0.4445522343       -0.0000000012
C                0.8885066439        0.5552366602       -0.0000000005
C                0.9448730082        0.6110636572       -0.0000000004
C                0.8890512721        0.7221410305       -0.0000000009
C                0.9448730068        0.7773966658       -0.0000000012
C                0.8885066372        0.8895900295       -0.0000000017
C                0.9443590453        0.9444220574       -0.0000000003



     Writing config-only to output data dir /home/gregb26/links/scratch/qe_tmp/vacancy_relaxed/series/6x6/nspin1/vac_6x6_relax_nspin1.save/ :
     XML data file
     NEW-OLD atomic charge density approx. for the potential

     negative rho (up, down):  1.299E-06 0.000E+00

     total cpu time spent up to now is      133.9 secs

     per-process dynamical memory:   205.3 Mb

     Self-consistent Calculation

     iteration #  1     ecut=   100.00 Ry     beta= 0.30
     Davidson diagonalization with overlap
     ethr =  1.00E-06,  avg # of iterations =  5.0

     negative rho (up, down):  8.459E-07 0.000E+00

     total cpu time spent up to now is      135.4 secs

     total energy              =    -854.72159066 Ry
     estimated scf accuracy    <       0.00316027 Ry

     iteration #  2     ecut=   100.00 Ry     beta= 0.30
     Davidson diagonalization with overlap
     ethr =  1.11E-06,  avg # of iterations =  5.0

     negative rho (up, down):  8.008E-07 0.000E+00

     total cpu time spent up to now is      136.4 secs

     total energy              =    -854.72041990 Ry
     estimated scf accuracy    <       0.10132454 Ry

     iteration #  3     ecut=   100.00 Ry     beta= 0.30
     Davidson diagonalization with overlap
     ethr =  1.11E-06,  avg # of iterations =  5.0

     negative rho (up, down):  5.692E-07 0.000E+00

     total cpu time spent up to now is      137.4 secs

     total energy              =    -854.72285308 Ry
     estimated scf accuracy    <       0.00115997 Ry

     iteration #  4     ecut=   100.00 Ry     beta= 0.30
     Davidson diagonalization with overlap
     ethr =  4.08E-07,  avg # of iterations =  2.0

     negative rho (up, down):  2.156E-07 0.000E+00

     total cpu time spent up to now is      138.2 secs

     total energy              =    -854.72290424 Ry
     estimated scf accuracy    <       0.00033411 Ry

     iteration #  5     ecut=   100.00 Ry     beta= 0.30
     Davidson diagonalization with overlap
     ethr =  1.18E-07,  avg # of iterations =  2.0

     negative rho (up, down):  7.160E-08 0.000E+00

     total cpu time spent up to now is      139.0 secs

     total energy              =    -854.72291954 Ry
     estimated scf accuracy    <       0.00001975 Ry

     iteration #  6     ecut=   100.00 Ry     beta= 0.30
     Davidson diagonalization with overlap
     ethr =  6.95E-09,  avg # of iterations =  5.0

     negative rho (up, down):  5.717E-08 0.000E+00

     total cpu time spent up to now is      140.0 secs

     total energy              =    -854.72292245 Ry
     estimated scf accuracy    <       0.00000161 Ry

     iteration #  7     ecut=   100.00 Ry     beta= 0.30
     Davidson diagonalization with overlap
     ethr =  5.68E-10,  avg # of iterations =  5.0

     negative rho (up, down):  2.291E-08 0.000E+00

     total cpu time spent up to now is      141.0 secs

     total energy              =    -854.72292249 Ry
     estimated scf accuracy    <       0.00000156 Ry

     iteration #  8     ecut=   100.00 Ry     beta= 0.30
     Davidson diagonalization with overlap
     ethr =  5.48E-10,  avg # of iterations =  2.0

     total cpu time spent up to now is      141.9 secs

     total energy              =    -854.72292251 Ry
     estimated scf accuracy    <       0.00000901 Ry

     iteration #  9     ecut=   100.00 Ry     beta= 0.30
     Davidson diagonalization with overlap
     ethr =  5.48E-10,  avg # of iterations =  2.0

     total cpu time spent up to now is      142.8 secs

     total energy              =    -854.72292272 Ry
     estimated scf accuracy    <       0.00000005 Ry

     iteration # 10     ecut=   100.00 Ry     beta= 0.30
     Davidson diagonalization with overlap
     ethr =  1.83E-11,  avg # of iterations =  4.0

     total cpu time spent up to now is      143.7 secs

     total energy              =    -854.72292272 Ry
     estimated scf accuracy    <       0.00000006 Ry

     iteration # 11     ecut=   100.00 Ry     beta= 0.30
     Davidson diagonalization with overlap
     ethr =  1.83E-11,  avg # of iterations =  2.0

     total cpu time spent up to now is      144.5 secs

     total energy              =    -854.72292273 Ry
     estimated scf accuracy    <       0.00000001 Ry

     iteration # 12     ecut=   100.00 Ry     beta= 0.30
     Davidson diagonalization with overlap
     ethr =  3.85E-12,  avg # of iterations =  2.0

     total cpu time spent up to now is      145.3 secs

     total energy              =    -854.72292273 Ry
     estimated scf accuracy    <          2.0E-09 Ry

     iteration # 13     ecut=   100.00 Ry     beta= 0.30
     Davidson diagonalization with overlap
     ethr =  7.20E-13,  avg # of iterations =  2.0

     total cpu time spent up to now is      146.1 secs

     total energy              =    -854.72292273 Ry
     estimated scf accuracy    <          2.0E-10 Ry

     iteration # 14     ecut=   100.00 Ry     beta= 0.30
     Davidson diagonalization with overlap
     ethr =  1.00E-13,  avg # of iterations =  5.0

     total cpu time spent up to now is      147.2 secs

     total energy              =    -854.72292273 Ry
     estimated scf accuracy    <          7.0E-11 Ry

     iteration # 15     ecut=   100.00 Ry     beta= 0.30
     Davidson diagonalization with overlap
     ethr =  1.00E-13,  avg # of iterations =  2.0

     total cpu time spent up to now is      148.0 secs

     End of self-consistent calculation

          k = 0.0000 0.0000 0.0000 (171510 PWs)   bands (ev):

   -23.7996 -23.2362 -23.2105 -23.1754 -23.1649 -23.1460 -22.9403 -21.9489
   -21.9270 -21.8900 -21.8865 -21.8549 -21.6375 -21.3263 -21.2647 -21.2519
   -21.2487 -21.2000 -20.7553 -19.5017 -19.4948 -19.4399 -19.4339 -19.4176
   -19.4036 -19.3950 -19.3903 -19.3743 -19.3207 -19.3005 -18.8077 -18.6176
   -18.5814 -18.0746 -17.5132 -17.4624 -17.3748 -16.9995 -16.8645 -16.8375
   -16.4302 -15.8234 -15.7908 -15.7780 -15.7738 -15.7712 -15.7401 -15.7388
   -15.7124 -15.6978 -15.4430 -15.4302 -14.8045 -14.7584 -14.4332 -14.0397
   -14.0164 -13.9730 -13.7738 -13.7376 -13.0095 -12.5534 -12.4272 -12.4164
   -12.3903 -12.3777 -12.3759 -12.3559 -12.3465 -12.3336 -12.2947 -12.2525
   -12.2361 -12.1718 -12.0828 -12.0796 -11.8759 -11.6201 -11.6038 -11.1739
   -11.1580 -11.1304 -11.1192 -11.1079 -10.9095 -10.9080 -10.8802 -10.8263
   -10.8226 -10.7426 -10.6854 -10.6845 -10.4212 -10.4041 -10.2006 -10.1768
   -10.1694 -10.1437 -10.0479  -9.9552  -9.9019  -9.6971  -9.6819  -9.6634
    -9.6466  -9.6438  -9.6317  -9.6142  -9.6067  -9.3766  -8.9771  -8.9397
    -8.9287  -8.9264  -8.9085  -8.9023  -8.8965  -8.5936  -8.5704  -8.5007
    -8.4674  -8.4257  -7.8617  -7.6378  -7.4956  -7.0139  -7.0126  -6.9845
    -6.9710  -6.9569  -6.9431  -6.9234  -6.9212  -6.9205  -6.9157  -6.9039
    -6.7118  -6.6797  -6.6156  -5.4656  -4.3838  -4.2630  -4.2021  -4.1761
    -4.0415  -3.7290  -2.6167  -2.5348  -2.4404  -1.8913  -1.8338  -1.8126
    -1.7781  -1.7645  -1.7624  -1.7348  -1.7154  -1.7039  -1.5507  -1.5496
    -0.9519  -0.3078  -0.0846  -0.0838  -0.0825  -0.0793  -0.0723  -0.0712
     0.0393   0.5710   0.5935   0.6286

     the Fermi energy is    -4.2364 ev

!    total energy              =    -854.72292273 Ry
     estimated scf accuracy    <          8.5E-12 Ry
     smearing contrib. (-TS)   =      -0.00620253 Ry
     internal energy E=F+TS    =    -854.71672020 Ry

     The total energy is F=E-TS. E is the sum of the following terms:
     one-electron contribution =   -9612.52974792 Ry
     hartree contribution      =    4832.43143375 Ry
     xc contribution           =    -303.93896857 Ry
     ewald contribution        =    4229.32056253 Ry

     convergence has been achieved in  15 iterations

     Forces acting on atoms (cartesian axes, Ry/au):

     atom    1 type  1   force =     0.00184112   -0.00206843   -0.00000000
     atom    2 type  1   force =     0.00051724   -0.00089606    0.00000000
     atom    3 type  1   force =     0.00087068   -0.00262862    0.00000002
     atom    4 type  1   force =    -0.00127335   -0.00120676    0.00000000
     atom    5 type  1   force =    -0.00060729    0.00260649    0.00000001
     atom    6 type  1   force =     0.00031655   -0.00046930    0.00000000
     atom    7 type  1   force =    -0.00180544    0.00248208    0.00000000
     atom    8 type  1   force =    -0.00011610    0.00020102   -0.00000001
     atom    9 type  1   force =    -0.00124689    0.00280476   -0.00000001
     atom   10 type  1   force =     0.00024800   -0.00050855   -0.00000000
     atom   11 type  1   force =    -0.00195342    0.00182904   -0.00000001
     atom   12 type  1   force =     0.00168158    0.00049941    0.00000002
     atom   13 type  1   force =    -0.00113933    0.00197355    0.00000001
     atom   14 type  1   force =     0.00044464    0.00164944   -0.00000000
     atom   15 type  1   force =    -0.00280906   -0.00072422   -0.00000001
     atom   16 type  1   force =     0.00029051   -0.00051720    0.00000000
     atom   17 type  1   force =     0.00137839    0.00109342   -0.00000001
     atom   18 type  1   force =    -0.00140768    0.00070687    0.00000000
     atom   19 type  1   force =    -0.00178966    0.00310057   -0.00000001
     atom   20 type  1   force =     0.00009083    0.00157331   -0.00000001
     atom   21 type  1   force =    -0.00163551   -0.00064740    0.00000000
     atom   22 type  1   force =     0.00030225   -0.00051025    0.00000000
     atom   23 type  1   force =     0.00203188    0.00207057   -0.00000001
     atom   24 type  1   force =    -0.00165091    0.00043980    0.00000000
     atom   25 type  1   force =     0.00146806   -0.00153891    0.00000001
     atom   26 type  1   force =    -0.00008206    0.00272119    0.00000001
     atom   27 type  1   force =     0.00175797    0.00119001    0.00000001
     atom   28 type  1   force =     0.00291718    0.00486573   -0.00000000
     atom   29 type  1   force =     0.00628254    0.00276601    0.00000001
     atom   30 type  1   force =    -0.00553671   -0.00405820   -0.00000001
     atom   31 type  1   force =    -0.00567195   -0.00009364    0.00000001
     atom   32 type  1   force =    -0.00191005   -0.00092748    0.00000001
     atom   33 type  1   force =    -0.00231510    0.00143162   -0.00000000
     atom   34 type  1   force =     0.00059859   -0.00204097   -0.00000000
     atom   35 type  1   force =    -0.00035113    0.00060838    0.00000000
     atom   36 type  1   force =    -0.00041096   -0.00280723    0.00000001
     atom   37 type  1   force =     0.00083959    0.00081000    0.00000000
     atom   38 type  1   force =     0.00189023    0.00016176   -0.00000000
     atom   39 type  1   force =    -0.00001091   -0.00046027   -0.00000002
     atom   40 type  1   force =     0.00144507   -0.00250248   -0.00000002
     atom   41 type  1   force =     0.00040385   -0.00022094    0.00000002
     atom   42 type  1   force =    -0.00108516   -0.00155575   -0.00000002
     atom   43 type  1   force =    -0.00112129   -0.00032220    0.00000001
     atom   44 type  1   force =     0.00263633   -0.00104757   -0.00000001
     atom   45 type  1   force =    -0.00221229    0.00081132    0.00000000
     atom   46 type  1   force =     0.00065444   -0.00113354   -0.00000000
     atom   47 type  1   force =     0.00040353    0.00232183    0.00000000
     atom   48 type  1   force =    -0.00174216   -0.00092103    0.00000000
     atom   49 type  1   force =     0.00204877    0.00107309   -0.00000001
     atom   50 type  1   force =     0.00059109   -0.00357026    0.00000001
     atom   51 type  1   force =     0.00160576   -0.00278111   -0.00000001
     atom   52 type  1   force =     0.00279636   -0.00229686   -0.00000002
     atom   53 type  1   force =    -0.00195369   -0.00123800    0.00000000
     atom   54 type  1   force =     0.00166842    0.00104834   -0.00000001
     atom   55 type  1   force =    -0.00107191    0.00129155    0.00000001
     atom   56 type  1   force =     0.00146252   -0.00103734   -0.00000001
     atom   57 type  1   force =    -0.00026464    0.00045840    0.00000002
     atom   58 type  1   force =     0.00016709   -0.00178542    0.00000001
     atom   59 type  1   force =    -0.00058241    0.00157434   -0.00000001
     atom   60 type  1   force =     0.00045649   -0.00222472   -0.00000001
     atom   61 type  1   force =    -0.00012169    0.00013399   -0.00000001
     atom   62 type  1   force =     0.00156487   -0.00271063    0.00000001
     atom   63 type  1   force =    -0.00005509    0.00017235   -0.00000002
     atom   64 type  1   force =     0.00169836   -0.00150744    0.00000001
     atom   65 type  1   force =    -0.00043277   -0.00146242   -0.00000000
     atom   66 type  1   force =     0.00230796    0.00166810    0.00000000
     atom   67 type  1   force =    -0.00131315    0.00003925    0.00000000
     atom   68 type  1   force =    -0.00150568    0.00260793    0.00000000
     atom   69 type  1   force =     0.00062254    0.00115674    0.00000000
     atom   70 type  1   force =    -0.00259845   -0.00116478    0.00000000
     atom   71 type  1   force =     0.00148257   -0.00035625   -0.00000001

     Total force =     0.021666     Total SCF correction =     0.000003
     Energy error            =      3.8E-04 Ry
     Gradient error          =      6.3E-03 Ry/Bohr

     number of scf cycles    =   9
     number of bfgs steps    =   8

     energy             old  =    -854.7225436375 Ry
     energy             new  =    -854.7229227302 Ry

     CASE: energy            _new < energy            _old

     new trust radius        =       0.0187469532 bohr
     new conv_thr            =            3.8E-11 Ry


ATOMIC_POSITIONS (crystal)
C                0.0552965730        0.0558342492        0.0000000009
C                0.1111331290        0.1111001069        0.0000000011
C                0.0552965783        0.2222025123       -0.0000000015
C                0.1117683359        0.2778912830        0.0000000015
C                0.0559692897        0.3887201895       -0.0000000003
C                0.1114360886        0.4443214109        0.0000000001
C                0.0547570683        0.5559021446       -0.0000000012
C                0.1106538155        0.6113397543       -0.0000000001
C                0.0547570800        0.7226741011        0.0000000008
C                0.1114360884        0.7775758269        0.0000000009
C                0.0559692854        0.8886438456        0.0000000015
C                0.1117683237        0.9436737213        0.0000000003
C                0.2225712007        0.0553810652       -0.0000000003
C                0.2782604426        0.1108636482       -0.0000000008
C                0.2220521817        0.2228423898        0.0000000007
C                0.2779422294        0.2785277292        0.0000000009
C                0.2219331124        0.3889424948        0.0000000002
C                0.2784049794        0.4459969334       -0.0000000001
C                0.2198986244        0.5567173446        0.0000000023
C                0.2784050131        0.6089313858        0.0000000005
C                0.2219330948        0.7224577258       -0.0000000005
C                0.2779422313        0.7768633837        0.0000000015
C                0.2220521721        0.8884387651        0.0000000018
C                0.2782604488        0.9442092389       -0.0000000003
C                0.3883995551        0.0560880393       -0.0000000003
C                0.4448773295        0.1122337901        0.0000000025
C                0.3888417892        0.2240384012        0.0000000017
C                0.4453747063        0.2809117462        0.0000000003
C                0.3854479477        0.3913415337        0.0000000009
C                0.3854479463        0.5565438665       -0.0000000007
C                0.4453747141        0.6070468628       -0.0000000008
C                0.3888417964        0.7204531547        0.0000000007
C                0.4448773216        0.7762222113        0.0000000012
C                0.3883995499        0.8888457487        0.0000000019
C                0.4443124461        0.9445104431        0.0000000010
C                0.5548365109        0.0564171737        0.0000000017
C                0.6105259647        0.1121436892        0.0000000016
C                0.5556314575        0.2219289793        0.0000000020
C                0.6112303128        0.2783296338       -0.0000000001
C                0.5621167011        0.3856083226        0.0000000018
C                0.6112303178        0.4437734049        0.0000000007
C                0.5556314630        0.5557729044       -0.0000000011
C                0.6105259671        0.6106636910       -0.0000000000
C                0.5548365141        0.7220796564       -0.0000000003
C                0.6111772384        0.7777308631       -0.0000000007
C                0.5552942368        0.8890195501       -0.0000000001
C                0.6111772378        0.9444252353        0.0000000003
C                0.7224460823        0.0557112348       -0.0000000007
C                0.7782799700        0.1105149696       -0.0000000016
C                0.7224955665        0.2225836780       -0.0000000029
C                0.7777602827        0.2777865216       -0.0000000017
C                0.7224955744        0.3882540785        0.0000000021
C                0.7782799823        0.4445383890        0.0000000003
C                0.7224460963        0.5551760199       -0.0000000007
C                0.7779168896        0.6105364480       -0.0000000034
C                0.7215475221        0.7225909867       -0.0000000005
C                0.7775075730        0.7779128803       -0.0000000004
C                0.7215475184        0.8891948236       -0.0000000015
C                0.7779168883        0.9448799911       -0.0000000006
C                0.8885904280        0.0555921355       -0.0000000002
C                0.9449615309        0.1111152190       -0.0000000010
C                0.8893412428        0.2219960463       -0.0000000002
C                0.9449615290        0.2772565773       -0.0000000022
C                0.8885904396        0.3891507591       -0.0000000013
C                0.9443649175        0.4445547448       -0.0000000020
C                0.8884582069        0.5552224289        0.0000000005
C                0.9447702879        0.6111062352       -0.0000000004
C                0.8889772110        0.7221780594       -0.0000000009
C                0.9447702892        0.7774568043       -0.0000000012
C                0.8884582011        0.8896526976       -0.0000000028
C                0.9443649146        0.9444136757       -0.0000000011



     Writing config-only to output data dir /home/gregb26/links/scratch/qe_tmp/vacancy_relaxed/series/6x6/nspin1/vac_6x6_relax_nspin1.save/ :
     XML data file
     NEW-OLD atomic charge density approx. for the potential

     negative rho (up, down):  2.071E-06 0.000E+00

     total cpu time spent up to now is      148.9 secs

     per-process dynamical memory:   205.3 Mb

     Self-consistent Calculation

     iteration #  1     ecut=   100.00 Ry     beta= 0.30
     Davidson diagonalization with overlap
     ethr =  1.00E-06,  avg # of iterations =  5.0

     negative rho (up, down):  1.351E-06 0.000E+00

     total cpu time spent up to now is      150.5 secs

     total energy              =    -854.72067355 Ry
     estimated scf accuracy    <       0.00670442 Ry

     iteration #  2     ecut=   100.00 Ry     beta= 0.30
     Davidson diagonalization with overlap
     ethr =  2.36E-06,  avg # of iterations =  5.0

     negative rho (up, down):  1.266E-06 0.000E+00

     total cpu time spent up to now is      151.5 secs

     total energy              =    -854.72040720 Ry
     estimated scf accuracy    <       0.14179232 Ry

     iteration #  3     ecut=   100.00 Ry     beta= 0.30
     Davidson diagonalization with overlap
     ethr =  2.36E-06,  avg # of iterations =  5.0

     negative rho (up, down):  9.526E-07 0.000E+00

     total cpu time spent up to now is      152.4 secs

     total energy              =    -854.72312453 Ry
     estimated scf accuracy    <       0.00604187 Ry

     iteration #  4     ecut=   100.00 Ry     beta= 0.30
     Davidson diagonalization with overlap
     ethr =  2.13E-06,  avg # of iterations =  2.0

     negative rho (up, down):  4.351E-07 0.000E+00

     total cpu time spent up to now is      153.2 secs

     total energy              =    -854.72336740 Ry
     estimated scf accuracy    <       0.00289582 Ry

     iteration #  5     ecut=   100.00 Ry     beta= 0.30
     Davidson diagonalization with overlap
     ethr =  1.02E-06,  avg # of iterations =  1.0

     negative rho (up, down):  1.446E-07 0.000E+00

     total cpu time spent up to now is      154.0 secs

     total energy              =    -854.72345928 Ry
     estimated scf accuracy    <       0.00011782 Ry

     iteration #  6     ecut=   100.00 Ry     beta= 0.30
     Davidson diagonalization with overlap
     ethr =  4.15E-08,  avg # of iterations =  4.0

     negative rho (up, down):  7.379E-08 0.000E+00

     total cpu time spent up to now is      154.8 secs

     total energy              =    -854.72346616 Ry
     estimated scf accuracy    <       0.00001375 Ry

     iteration #  7     ecut=   100.00 Ry     beta= 0.30
     Davidson diagonalization with overlap
     ethr =  4.84E-09,  avg # of iterations =  5.0

     negative rho (up, down):  3.400E-08 0.000E+00

     total cpu time spent up to now is      155.9 secs

     total energy              =    -854.72346889 Ry
     estimated scf accuracy    <       0.00001491 Ry

     iteration #  8     ecut=   100.00 Ry     beta= 0.30
     Davidson diagonalization with overlap
     ethr =  4.84E-09,  avg # of iterations =  1.0

     total cpu time spent up to now is      156.7 secs

     total energy              =    -854.72346811 Ry
     estimated scf accuracy    <       0.00002517 Ry

     iteration #  9     ecut=   100.00 Ry     beta= 0.30
     Davidson diagonalization with overlap
     ethr =  4.84E-09,  avg # of iterations =  1.0

     total cpu time spent up to now is      157.4 secs

     total energy              =    -854.72346858 Ry
     estimated scf accuracy    <       0.00000037 Ry

     iteration # 10     ecut=   100.00 Ry     beta= 0.30
     Davidson diagonalization with overlap
     ethr =  1.31E-10,  avg # of iterations =  5.0

     total cpu time spent up to now is      158.4 secs

     total energy              =    -854.72346863 Ry
     estimated scf accuracy    <       0.00000005 Ry

     iteration # 11     ecut=   100.00 Ry     beta= 0.30
     Davidson diagonalization with overlap
     ethr =  1.77E-11,  avg # of iterations =  4.0

     total cpu time spent up to now is      159.3 secs

     total energy              =    -854.72346863 Ry
     estimated scf accuracy    <       0.00000002 Ry

     iteration # 12     ecut=   100.00 Ry     beta= 0.30
     Davidson diagonalization with overlap
     ethr =  7.42E-12,  avg # of iterations =  2.0

     total cpu time spent up to now is      160.1 secs

     total energy              =    -854.72346864 Ry
     estimated scf accuracy    <          2.4E-09 Ry

     iteration # 13     ecut=   100.00 Ry     beta= 0.30
     Davidson diagonalization with overlap
     ethr =  8.60E-13,  avg # of iterations =  4.0

     total cpu time spent up to now is      161.1 secs

     total energy              =    -854.72346864 Ry
     estimated scf accuracy    <          4.3E-10 Ry

     iteration # 14     ecut=   100.00 Ry     beta= 0.30
     Davidson diagonalization with overlap
     ethr =  1.50E-13,  avg # of iterations =  4.0

     total cpu time spent up to now is      162.2 secs

     total energy              =    -854.72346864 Ry
     estimated scf accuracy    <          1.9E-10 Ry

     iteration # 15     ecut=   100.00 Ry     beta= 0.30
     Davidson diagonalization with overlap
     ethr =  1.00E-13,  avg # of iterations =  2.0

     total cpu time spent up to now is      163.0 secs

     End of self-consistent calculation

          k = 0.0000 0.0000 0.0000 (171510 PWs)   bands (ev):

   -23.7997 -23.2377 -23.2015 -23.1795 -23.1657 -23.1485 -22.9337 -21.9494
   -21.9260 -21.8907 -21.8841 -21.8508 -21.6376 -21.3262 -21.2649 -21.2491
   -21.2481 -21.1958 -20.7499 -19.4970 -19.4890 -19.4397 -19.4347 -19.4193
   -19.4054 -19.3965 -19.3912 -19.3730 -19.3175 -19.2934 -18.8076 -18.6182
   -18.5772 -18.0680 -17.5127 -17.4599 -17.3740 -17.0009 -16.8622 -16.8327
   -16.4309 -15.8207 -15.7871 -15.7778 -15.7695 -15.7692 -15.7394 -15.7383
   -15.7123 -15.6976 -15.4422 -15.4283 -14.8049 -14.7549 -14.4327 -14.0369
   -14.0158 -13.9673 -13.7742 -13.7362 -13.0066 -12.5404 -12.4273 -12.4134
   -12.3888 -12.3787 -12.3713 -12.3563 -12.3474 -12.3371 -12.2955 -12.2475
   -12.2358 -12.1720 -12.0799 -12.0781 -11.8762 -11.6199 -11.6001 -11.1750
   -11.1509 -11.1344 -11.1204 -11.1105 -10.9069 -10.9008 -10.8740 -10.8259
   -10.8173 -10.7407 -10.6868 -10.6836 -10.4210 -10.4056 -10.1983 -10.1772
   -10.1708 -10.1356 -10.0480  -9.9482  -9.8983  -9.6976  -9.6813  -9.6640
    -9.6466  -9.6432  -9.6318  -9.6089  -9.6068  -9.3766  -8.9776  -8.9410
    -8.9272  -8.9266  -8.9059  -8.8991  -8.8964  -8.5902  -8.5677  -8.5004
    -8.4629  -8.4271  -7.8631  -7.6366  -7.4958  -7.0102  -7.0058  -6.9838
    -6.9718  -6.9593  -6.9438  -6.9242  -6.9217  -6.9182  -6.9148  -6.9020
    -6.7141  -6.6813  -6.6124  -5.4599  -4.3871  -4.2618  -4.2065  -4.1714
    -3.9872  -3.7270  -2.6167  -2.5331  -2.4432  -1.8909  -1.8345  -1.8110
    -1.7791  -1.7639  -1.7630  -1.7342  -1.7170  -1.7022  -1.5486  -1.5474
    -0.9522  -0.3085  -0.0861  -0.0851  -0.0838  -0.0794  -0.0710  -0.0709
     0.0418   0.5685   0.5950   0.6305

     the Fermi energy is    -4.2364 ev

!    total energy              =    -854.72346864 Ry
     estimated scf accuracy    <          1.6E-11 Ry
     smearing contrib. (-TS)   =      -0.00593156 Ry
     internal energy E=F+TS    =    -854.71753708 Ry

     The total energy is F=E-TS. E is the sum of the following terms:
     one-electron contribution =   -9612.54430932 Ry
     hartree contribution      =    4832.45243334 Ry
     xc contribution           =    -303.93817665 Ry
     ewald contribution        =    4229.31251555 Ry

     convergence has been achieved in  15 iterations

     Forces acting on atoms (cartesian axes, Ry/au):

     atom    1 type  1   force =     0.00269811   -0.00230906    0.00000001
     atom    2 type  1   force =     0.00062033   -0.00107472   -0.00000002
     atom    3 type  1   force =     0.00065061   -0.00349118    0.00000003
     atom    4 type  1   force =    -0.00098319   -0.00211818   -0.00000001
     atom    5 type  1   force =    -0.00043233    0.00325508    0.00000001
     atom    6 type  1   force =     0.00091045   -0.00123553    0.00000001
     atom    7 type  1   force =    -0.00209730    0.00294643    0.00000000
     atom    8 type  1   force =    -0.00016837    0.00029155    0.00000002
     atom    9 type  1   force =    -0.00150301    0.00328994   -0.00000000
     atom   10 type  1   force =     0.00061461   -0.00140632    0.00000002
     atom   11 type  1   force =    -0.00260244    0.00200221   -0.00000002
     atom   12 type  1   force =     0.00232581   -0.00020782    0.00000001
     atom   13 type  1   force =    -0.00167556    0.00290237    0.00000001
     atom   14 type  1   force =     0.00120354    0.00222473    0.00000000
     atom   15 type  1   force =    -0.00329820   -0.00061803    0.00000002
     atom   16 type  1   force =     0.00049349   -0.00073764   -0.00000000
     atom   17 type  1   force =     0.00161003    0.00067312    0.00000001
     atom   18 type  1   force =    -0.00017127   -0.00024978   -0.00000000
     atom   19 type  1   force =    -0.00198862    0.00344489   -0.00000000
     atom   20 type  1   force =     0.00030143    0.00002454   -0.00000001
     atom   21 type  1   force =    -0.00138746   -0.00105833    0.00000000
     atom   22 type  1   force =     0.00039156   -0.00079611   -0.00000003
     atom   23 type  1   force =     0.00218459    0.00254728   -0.00000000
     atom   24 type  1   force =    -0.00252865    0.00007030    0.00000001
     atom   25 type  1   force =     0.00198742   -0.00174989    0.00000001
     atom   26 type  1   force =     0.00027219    0.00336628   -0.00000000
     atom   27 type  1   force =     0.00143580    0.00179223   -0.00000001
     atom   28 type  1   force =     0.00363059    0.00582939    0.00000001
     atom   29 type  1   force =     0.00563886    0.00150992   -0.00000001
     atom   30 type  1   force =    -0.00412706   -0.00412897   -0.00000001
     atom   31 type  1   force =    -0.00686301   -0.00022919   -0.00000000
     atom   32 type  1   force =    -0.00227058   -0.00034737    0.00000000
     atom   33 type  1   force =    -0.00305087    0.00144739    0.00000000
     atom   34 type  1   force =     0.00052156   -0.00259634   -0.00000002
     atom   35 type  1   force =    -0.00036406    0.00063080   -0.00000001
     atom   36 type  1   force =    -0.00054855   -0.00295131    0.00000000
     atom   37 type  1   force =     0.00079916    0.00054386   -0.00000007
     atom   38 type  1   force =     0.00162223    0.00017125   -0.00000002
     atom   39 type  1   force =    -0.00063072    0.00122578    0.00000003
     atom   40 type  1   force =     0.00135393   -0.00234484    0.00000002
     atom   41 type  1   force =    -0.00074663    0.00115885    0.00000005
     atom   42 type  1   force =    -0.00095950   -0.00131916    0.00000000
     atom   43 type  1   force =    -0.00087047   -0.00042031   -0.00000008
     atom   44 type  1   force =     0.00283001   -0.00100055    0.00000001
     atom   45 type  1   force =    -0.00279890    0.00046021    0.00000001
     atom   46 type  1   force =     0.00075977   -0.00131582    0.00000000
     atom   47 type  1   force =     0.00100079    0.00265414    0.00000000
     atom   48 type  1   force =    -0.00217503   -0.00073732   -0.00000001
     atom   49 type  1   force =     0.00249105    0.00163098   -0.00000003
     atom   50 type  1   force =     0.00110452   -0.00358564    0.00000002
     atom   51 type  1   force =     0.00195204   -0.00338105   -0.00000002
     atom   52 type  1   force =     0.00255320   -0.00274921    0.00000002
     atom   53 type  1   force =    -0.00265813   -0.00134195    0.00000000
     atom   54 type  1   force =     0.00172565    0.00151513   -0.00000003
     atom   55 type  1   force =    -0.00156110    0.00156742    0.00000003
     atom   56 type  1   force =     0.00174350   -0.00105533   -0.00000002
     atom   57 type  1   force =    -0.00020151    0.00034892   -0.00000002
     atom   58 type  1   force =     0.00004235   -0.00203767    0.00000001
     atom   59 type  1   force =    -0.00057677    0.00213588    0.00000000
     atom   60 type  1   force =     0.00025129   -0.00226068   -0.00000002
     atom   61 type  1   force =     0.00009742    0.00071942    0.00000000
     atom   62 type  1   force =     0.00170668   -0.00295628    0.00000002
     atom   63 type  1   force =    -0.00067160    0.00027524    0.00000001
     atom   64 type  1   force =     0.00183212   -0.00134760   -0.00000002
     atom   65 type  1   force =    -0.00038352   -0.00180650    0.00000003
     atom   66 type  1   force =     0.00270739    0.00219091   -0.00000002
     atom   67 type  1   force =    -0.00118812   -0.00018712    0.00000000
     atom   68 type  1   force =    -0.00184252    0.00319150   -0.00000001
     atom   69 type  1   force =     0.00075609    0.00093525    0.00000000
     atom   70 type  1   force =    -0.00325106   -0.00124926    0.00000002
     atom   71 type  1   force =     0.00175597   -0.00057113    0.00000005

     Total force =     0.024210     Total SCF correction =     0.000004
     Energy error            =      5.5E-04 Ry
     Gradient error          =      6.9E-03 Ry/Bohr

     number of scf cycles    =  10
     number of bfgs steps    =   9

     energy             old  =    -854.7229227302 Ry
     energy             new  =    -854.7234686366 Ry

     CASE: energy            _new < energy            _old

     new trust radius        =       0.0281204299 bohr
     new conv_thr            =            5.5E-11 Ry


ATOMIC_POSITIONS (crystal)
C                0.0554051120        0.0557561122        0.0000000018
C                0.1112209947        0.1110561742        0.0000000011
C                0.0554051193        0.2221721091       -0.0000000009
C                0.1118049901        0.2779093465        0.0000000027
C                0.0559243063        0.3887215385        0.0000000003
C                0.1112309295        0.4444134876       -0.0000000004
C                0.0545333639        0.5559886852       -0.0000000029
C                0.1103113190        0.6115110047        0.0000000007
C                0.0545333740        0.7228112703        0.0000000017
C                0.1112309430        0.7776888944        0.0000000025
C                0.0559242889        0.8886874908        0.0000000017
C                0.1118049794        0.9436189996       -0.0000000007
C                0.2226564347        0.0553384482       -0.0000000003
C                0.2783038387        0.1108596768       -0.0000000008
C                0.2221003530        0.2228731454        0.0000000022
C                0.2779219583        0.2786674185        0.0000000014
C                0.2217074870        0.3891055763       -0.0000000004
C                0.2779571856        0.4462436742       -0.0000000008
C                0.2194388067        0.5569472480        0.0000000038
C                0.2779572427        0.6091324358        0.0000000005
C                0.2217074581        0.7225202628       -0.0000000013
C                0.2779219539        0.7767439740        0.0000000004
C                0.2221003375        0.8883598426        0.0000000024
C                0.2783038419        0.9441698152       -0.0000000003
C                0.3884031994        0.0561542391        0.0000000005
C                0.4448578003        0.1124342869        0.0000000033
C                0.3888942359        0.2243880951        0.0000000013
C                0.4452399161        0.2815649102       -0.0000000005
C                0.3851401118        0.3924652609        0.0000000014
C                0.3851401172        0.5557279793       -0.0000000010
C                0.4452399077        0.6065285015       -0.0000000001
C                0.3888942446        0.7200510180        0.0000000013
C                0.4448577843        0.7760412410        0.0000000012
C                0.3884031932        0.8887759042        0.0000000028
C                0.4442847241        0.9445243037        0.0000000012
C                0.5547930705        0.0565497018        0.0000000022
C                0.6104556192        0.1123377998       -0.0000000015
C                0.5556179934        0.2221968730        0.0000000016
C                0.6118420849        0.2779971846        0.0000000010
C                0.5630537058        0.3851398176        0.0000000033
C                0.6118420831        0.4434940928        0.0000000028
C                0.5556180017        0.5555184671       -0.0000000005
C                0.6104556246        0.6105399336       -0.0000000036
C                0.5547930787        0.7219905725       -0.0000000001
C                0.6111133008        0.7777369115       -0.0000000012
C                0.5552215631        0.8890558900       -0.0000000002
C                0.6111133035        0.9444831129       -0.0000000001
C                0.7224425773        0.0557606644       -0.0000000007
C                0.7785249475        0.1103118927       -0.0000000031
C                0.7229526382        0.2222801462       -0.0000000031
C                0.7780906740        0.2776213212       -0.0000000031
C                0.7229526521        0.3881005411        0.0000000042
C                0.7785249575        0.4444964882        0.0000000008
C                0.7224425919        0.5551301006       -0.0000000016
C                0.7778610754        0.6105535389       -0.0000000041
C                0.7214509309        0.7226200947       -0.0000000011
C                0.7773925013        0.7779704127       -0.0000000014
C                0.7214509253        0.8892623123       -0.0000000022
C                0.7778610740        0.9449187088        0.0000000007
C                0.8887611793        0.0554766883       -0.0000000013
C                0.9451286859        0.1109952943       -0.0000000013
C                0.8895924040        0.2218704656        0.0000000003
C                0.9451286829        0.2772093425       -0.0000000023
C                0.8887611938        0.3890954522       -0.0000000032
C                0.9443779673        0.4445655521       -0.0000000015
C                0.8883865273        0.5552144546        0.0000000007
C                0.9445913808        0.6111819813       -0.0000000005
C                0.8888428313        0.7222452505       -0.0000000014
C                0.9445913877        0.7775599602       -0.0000000012
C                0.8883865160        0.8897323485       -0.0000000038
C                0.9443779717        0.9443898158        0.0000000010



     Writing config-only to output data dir /home/gregb26/links/scratch/qe_tmp/vacancy_relaxed/series/6x6/nspin1/vac_6x6_relax_nspin1.save/ :
     XML data file
     NEW-OLD atomic charge density approx. for the potential

     negative rho (up, down):  3.284E-06 0.000E+00

     total cpu time spent up to now is      163.9 secs

     per-process dynamical memory:   205.3 Mb

     Self-consistent Calculation

     iteration #  1     ecut=   100.00 Ry     beta= 0.30
     Davidson diagonalization with overlap
     ethr =  1.00E-06,  avg # of iterations =  6.0

     negative rho (up, down):  2.165E-06 0.000E+00

     total cpu time spent up to now is      165.6 secs

     total energy              =    -854.71831508 Ry
     estimated scf accuracy    <       0.01399852 Ry

     iteration #  2     ecut=   100.00 Ry     beta= 0.30
     Davidson diagonalization with overlap
     ethr =  4.93E-06,  avg # of iterations =  5.0

     negative rho (up, down):  2.009E-06 0.000E+00

     total cpu time spent up to now is      166.6 secs

     total energy              =    -854.72050926 Ry
     estimated scf accuracy    <       0.20359136 Ry

     iteration #  3     ecut=   100.00 Ry     beta= 0.30
     Davidson diagonalization with overlap
     ethr =  4.93E-06,  avg # of iterations =  5.0

     negative rho (up, down):  1.656E-06 0.000E+00

     total cpu time spent up to now is      167.5 secs

     total energy              =    -854.72299051 Ry
     estimated scf accuracy    <       0.02322412 Ry

     iteration #  4     ecut=   100.00 Ry     beta= 0.30
     Davidson diagonalization with overlap
     ethr =  4.93E-06,  avg # of iterations =  2.0

     negative rho (up, down):  9.534E-07 0.000E+00

     total cpu time spent up to now is      168.3 secs

     total energy              =    -854.72395214 Ry
     estimated scf accuracy    <       0.00917062 Ry

     iteration #  5     ecut=   100.00 Ry     beta= 0.30
     Davidson diagonalization with overlap
     ethr =  3.23E-06,  avg # of iterations =  1.0

     negative rho (up, down):  2.936E-07 0.000E+00

     total cpu time spent up to now is      169.0 secs

     total energy              =    -854.72415079 Ry
     estimated scf accuracy    <       0.00004251 Ry

     iteration #  6     ecut=   100.00 Ry     beta= 0.30
     Davidson diagonalization with overlap
     ethr =  1.50E-08,  avg # of iterations =  5.0

     negative rho (up, down):  1.807E-07 0.000E+00

     total cpu time spent up to now is      170.1 secs

     total energy              =    -854.72416550 Ry
     estimated scf accuracy    <       0.00000728 Ry

     iteration #  7     ecut=   100.00 Ry     beta= 0.30
     Davidson diagonalization with overlap
     ethr =  2.56E-09,  avg # of iterations =  4.0

     negative rho (up, down):  6.275E-08 0.000E+00

     total cpu time spent up to now is      171.0 secs

     total energy              =    -854.72416536 Ry
     estimated scf accuracy    <       0.00009066 Ry

     iteration #  8     ecut=   100.00 Ry     beta= 0.30
     Davidson diagonalization with overlap
     ethr =  2.56E-09,  avg # of iterations =  2.0

     total cpu time spent up to now is      171.9 secs

     total energy              =    -854.72416575 Ry
     estimated scf accuracy    <       0.00001284 Ry

     iteration #  9     ecut=   100.00 Ry     beta= 0.30
     Davidson diagonalization with overlap
     ethr =  2.56E-09,  avg # of iterations =  1.0

     total cpu time spent up to now is      172.6 secs

     total energy              =    -854.72416614 Ry
     estimated scf accuracy    <       0.00000032 Ry

     iteration # 10     ecut=   100.00 Ry     beta= 0.30
     Davidson diagonalization with overlap
     ethr =  1.12E-10,  avg # of iterations =  4.0

     total cpu time spent up to now is      173.4 secs

     total energy              =    -854.72416616 Ry
     estimated scf accuracy    <       0.00000002 Ry

     iteration # 11     ecut=   100.00 Ry     beta= 0.30
     Davidson diagonalization with overlap
     ethr =  8.79E-12,  avg # of iterations =  5.0

     total cpu time spent up to now is      174.6 secs

     total energy              =    -854.72416616 Ry
     estimated scf accuracy    <       0.00000023 Ry

     iteration # 12     ecut=   100.00 Ry     beta= 0.30
     Davidson diagonalization with overlap
     ethr =  8.79E-12,  avg # of iterations =  2.0

     total cpu time spent up to now is      175.4 secs

     total energy              =    -854.72416616 Ry
     estimated scf accuracy    <          2.4E-09 Ry

     iteration # 13     ecut=   100.00 Ry     beta= 0.30
     Davidson diagonalization with overlap
     ethr =  8.52E-13,  avg # of iterations =  4.0

     total cpu time spent up to now is      176.3 secs

     total energy              =    -854.72416616 Ry
     estimated scf accuracy    <          9.2E-10 Ry

     iteration # 14     ecut=   100.00 Ry     beta= 0.30
     Davidson diagonalization with overlap
     ethr =  3.24E-13,  avg # of iterations =  2.0

     total cpu time spent up to now is      177.1 secs

     total energy              =    -854.72416616 Ry
     estimated scf accuracy    <          1.8E-10 Ry

     iteration # 15     ecut=   100.00 Ry     beta= 0.30
     Davidson diagonalization with overlap
     ethr =  1.00E-13,  avg # of iterations =  2.0

     total cpu time spent up to now is      177.9 secs

     End of self-consistent calculation

          k = 0.0000 0.0000 0.0000 (171510 PWs)   bands (ev):

   -23.8000 -23.2392 -23.1914 -23.1812 -23.1665 -23.1533 -22.9233 -21.9490
   -21.9234 -21.8911 -21.8814 -21.8443 -21.6390 -21.3247 -21.2648 -21.2479
   -21.2440 -21.1893 -20.7418 -19.4890 -19.4784 -19.4398 -19.4360 -19.4222
   -19.4073 -19.3982 -19.3920 -19.3708 -19.3126 -19.2833 -18.8086 -18.6178
   -18.5708 -18.0574 -17.5115 -17.4568 -17.3725 -17.0006 -16.8590 -16.8268
   -16.4324 -15.8149 -15.7823 -15.7767 -15.7654 -15.7627 -15.7380 -15.7380
   -15.7123 -15.6969 -15.4405 -15.4258 -14.8041 -14.7498 -14.4327 -14.0308
   -14.0133 -13.9594 -13.7742 -13.7354 -13.0029 -12.5198 -12.4269 -12.4100
   -12.3880 -12.3796 -12.3645 -12.3593 -12.3493 -12.3397 -12.2957 -12.2379
   -12.2343 -12.1707 -12.0757 -12.0757 -11.8768 -11.6194 -11.5948 -11.1760
   -11.1425 -11.1372 -11.1220 -11.1152 -10.9030 -10.8875 -10.8642 -10.8252
   -10.8077 -10.7370 -10.6902 -10.6818 -10.4211 -10.4092 -10.1922 -10.1781
   -10.1715 -10.1240 -10.0490  -9.9351  -9.8920  -9.6986  -9.6806  -9.6642
    -9.6457  -9.6428  -9.6316  -9.6086  -9.5996  -9.3776  -8.9772  -8.9433
    -8.9271  -8.9237  -8.9035  -8.8951  -8.8945  -8.5844  -8.5627  -8.5004
    -8.4565  -8.4283  -7.8707  -7.6340  -7.4972  -7.0065  -6.9916  -6.9830
    -6.9739  -6.9631  -6.9450  -6.9275  -6.9193  -6.9183  -6.9103  -6.8984
    -6.7178  -6.6826  -6.6080  -5.4514  -4.3886  -4.2604  -4.2124  -4.1671
    -3.8978  -3.7241  -2.6161  -2.5317  -2.4475  -1.8890  -1.8363  -1.8097
    -1.7806  -1.7661  -1.7610  -1.7343  -1.7194  -1.6994  -1.5448  -1.5444
    -0.9527  -0.3101  -0.0885  -0.0877  -0.0855  -0.0797  -0.0705  -0.0688
     0.0455   0.5660   0.5976   0.6325

     the Fermi energy is    -4.2368 ev

!    total energy              =    -854.72416616 Ry
     estimated scf accuracy    <          2.1E-11 Ry
     smearing contrib. (-TS)   =      -0.00586974 Ry
     internal energy E=F+TS    =    -854.71829643 Ry

     The total energy is F=E-TS. E is the sum of the following terms:
     one-electron contribution =   -9612.52236306 Ry
     hartree contribution      =    4832.46300452 Ry
     xc contribution           =    -303.93473642 Ry
     ewald contribution        =    4229.27579854 Ry

     convergence has been achieved in  15 iterations

     Forces acting on atoms (cartesian axes, Ry/au):

     atom    1 type  1   force =     0.00326560   -0.00225878   -0.00000001
     atom    2 type  1   force =     0.00073701   -0.00127674   -0.00000001
     atom    3 type  1   force =     0.00032335   -0.00395745    0.00000003
     atom    4 type  1   force =    -0.00067556   -0.00315405   -0.00000001
     atom    5 type  1   force =     0.00023294    0.00368352    0.00000001
     atom    6 type  1   force =     0.00148785   -0.00215409   -0.00000004
     atom    7 type  1   force =    -0.00227496    0.00354163    0.00000003
     atom    8 type  1   force =    -0.00018647    0.00032269    0.00000004
     atom    9 type  1   force =    -0.00192983    0.00374103   -0.00000001
     atom   10 type  1   force =     0.00112127   -0.00236489   -0.00000003
     atom   11 type  1   force =    -0.00330603    0.00163967   -0.00000000
     atom   12 type  1   force =     0.00306904   -0.00099173    0.00000004
     atom   13 type  1   force =    -0.00199723    0.00345955   -0.00000002
     atom   14 type  1   force =     0.00171879    0.00264946   -0.00000000
     atom   15 type  1   force =    -0.00290015   -0.00030222    0.00000002
     atom   16 type  1   force =     0.00046445   -0.00089890   -0.00000001
     atom   17 type  1   force =     0.00174630   -0.00014530   -0.00000001
     atom   18 type  1   force =     0.00221244   -0.00172488    0.00000001
     atom   19 type  1   force =    -0.00197363    0.00341944   -0.00000007
     atom   20 type  1   force =     0.00038594   -0.00277673    0.00000005
     atom   21 type  1   force =    -0.00074604   -0.00158573    0.00000001
     atom   22 type  1   force =     0.00054553   -0.00085172   -0.00000002
     atom   23 type  1   force =     0.00171210    0.00236022    0.00000001
     atom   24 type  1   force =    -0.00315404   -0.00016360    0.00000002
     atom   25 type  1   force =     0.00271626   -0.00184791    0.00000001
     atom   26 type  1   force =     0.00061985    0.00386480   -0.00000003
     atom   27 type  1   force =     0.00082436    0.00273376   -0.00000001
     atom   28 type  1   force =     0.00453295    0.00595677    0.00000001
     atom   29 type  1   force =     0.00398448    0.00035287   -0.00000001
     atom   30 type  1   force =    -0.00229794   -0.00327476    0.00000003
     atom   31 type  1   force =    -0.00742419   -0.00094761    0.00000000
     atom   32 type  1   force =    -0.00278034    0.00065318   -0.00000001
     atom   33 type  1   force =    -0.00365601    0.00139540    0.00000002
     atom   34 type  1   force =     0.00024198   -0.00327647   -0.00000002
     atom   35 type  1   force =    -0.00056170    0.00097315    0.00000001
     atom   36 type  1   force =    -0.00035328   -0.00289867   -0.00000004
     atom   37 type  1   force =     0.00055866    0.00046866    0.00000002
     atom   38 type  1   force =     0.00087776    0.00016555    0.00000001
     atom   39 type  1   force =    -0.00122919    0.00344566   -0.00000002
     atom   40 type  1   force =     0.00109365   -0.00189348   -0.00000001
     atom   41 type  1   force =    -0.00237018    0.00278639    0.00000004
     atom   42 type  1   force =    -0.00058192   -0.00067694   -0.00000001
     atom   43 type  1   force =    -0.00068547   -0.00024977   -0.00000001
     atom   44 type  1   force =     0.00268655   -0.00114325   -0.00000002
     atom   45 type  1   force =    -0.00351251    0.00053112   -0.00000001
     atom   46 type  1   force =     0.00117155   -0.00202941    0.00000001
     atom   47 type  1   force =     0.00129661    0.00330802   -0.00000002
     atom   48 type  1   force =    -0.00257061   -0.00057223   -0.00000000
     atom   49 type  1   force =     0.00292527    0.00200564   -0.00000002
     atom   50 type  1   force =     0.00173766   -0.00293740   -0.00000002
     atom   51 type  1   force =     0.00223437   -0.00386975    0.00000005
     atom   52 type  1   force =     0.00167504   -0.00297342   -0.00000003
     atom   53 type  1   force =    -0.00319962   -0.00153082   -0.00000002
     atom   54 type  1   force =     0.00178033    0.00194016   -0.00000000
     atom   55 type  1   force =    -0.00237757    0.00155886    0.00000001
     atom   56 type  1   force =     0.00221440   -0.00111713   -0.00000003
     atom   57 type  1   force =    -0.00024326    0.00042167    0.00000001
     atom   58 type  1   force =    -0.00013991   -0.00247659    0.00000001
     atom   59 type  1   force =    -0.00016089    0.00283893   -0.00000002
     atom   60 type  1   force =    -0.00031968   -0.00190832    0.00000001
     atom   61 type  1   force =     0.00072967    0.00099072    0.00000002
     atom   62 type  1   force =     0.00162318   -0.00281176   -0.00000001
     atom   63 type  1   force =    -0.00122256   -0.00013666   -0.00000000
     atom   64 type  1   force =     0.00181242   -0.00067693    0.00000001
     atom   65 type  1   force =    -0.00047965   -0.00224791    0.00000002
     atom   66 type  1   force =     0.00301589    0.00312269   -0.00000001
     atom   67 type  1   force =    -0.00094216   -0.00072652   -0.00000001
     atom   68 type  1   force =    -0.00219696    0.00380530    0.00000002
     atom   69 type  1   force =     0.00110009    0.00045285   -0.00000002
     atom   70 type  1   force =    -0.00421206   -0.00105062    0.00000004
     atom   71 type  1   force =     0.00218598   -0.00070822   -0.00000001

     Total force =     0.026865     Total SCF correction =     0.000006
     Energy error            =      7.0E-04 Ry
     Gradient error          =      7.4E-03 Ry/Bohr

     number of scf cycles    =  11
     number of bfgs steps    =  10

     energy             old  =    -854.7234686366 Ry
     energy             new  =    -854.7241661646 Ry

     CASE: energy            _new < energy            _old

     new trust radius        =       0.0421806448 bohr
     new conv_thr            =            7.0E-11 Ry


ATOMIC_POSITIONS (crystal)
C                0.0555897094        0.0556317865        0.0000000020
C                0.1113775264        0.1109779122        0.0000000014
C                0.0555897177        0.2221118400       -0.0000000000
C                0.1118714185        0.2779101573        0.0000000047
C                0.0558601226        0.3887454860        0.0000000008
C                0.1109524546        0.4445426879       -0.0000000044
C                0.0541579059        0.5561378727       -0.0000000036
C                0.1097789649        0.6117771795        0.0000000039
C                0.0541579334        0.7230375157        0.0000000032
C                0.1109524363        0.7778381897        0.0000000022
C                0.0558601271        0.8887277055        0.0000000030
C                0.1118713785        0.9435517844       -0.0000000006
C                0.2227831906        0.0552750705       -0.0000000020
C                0.2783594071        0.1108609726       -0.0000000009
C                0.2221794736        0.2229279332        0.0000000045
C                0.2778896234        0.2788742269        0.0000000024
C                0.2214139359        0.3893499160       -0.0000000023
C                0.2773687486        0.4466032933       -0.0000000014
C                0.2187492962        0.5572920102        0.0000000019
C                0.2773687746        0.6093612424        0.0000000040
C                0.2214139201        0.7225694832       -0.0000000021
C                0.2778896108        0.7765694988       -0.0000000006
C                0.2221794644        0.8882259252        0.0000000042
C                0.2783594147        0.9441129517        0.0000000008
C                0.3884305868        0.0562715146        0.0000000017
C                0.4448053486        0.1127742467        0.0000000021
C                0.3889372692        0.2249589334        0.0000000008
C                0.4450260208        0.2825695345       -0.0000000025
C                0.3847274705        0.3941373237        0.0000000023
C                0.3847274767        0.5544685669        0.0000000012
C                0.4450260352        0.6057377590        0.0000000011
C                0.3889372629        0.7194371706        0.0000000018
C                0.4448053425        0.7757537314        0.0000000023
C                0.3884305712        0.8886312474        0.0000000041
C                0.4442305496        0.9445513912        0.0000000028
C                0.5547367497        0.0567514131        0.0000000004
C                0.6103303754        0.1126522300       -0.0000000010
C                0.5555755656        0.2226061444        0.0000000029
C                0.6127032757        0.2775330520       -0.0000000001
C                0.5643929255        0.3844702203        0.0000000042
C                0.6127032970        0.4430969972        0.0000000060
C                0.5555755734        0.5551516430       -0.0000000006
C                0.6103303815        0.6103507360       -0.0000000047
C                0.5547367560        0.7218451846       -0.0000000008
C                0.6109818761        0.7777478520       -0.0000000035
C                0.5551554283        0.8890889495        0.0000000003
C                0.6109818749        0.9446036182       -0.0000000021
C                0.7224264789        0.0558339123       -0.0000000003
C                0.7788918224        0.1100334705       -0.0000000048
C                0.7236339457        0.2218491647       -0.0000000059
C                0.7786390060        0.2773471569       -0.0000000010
C                0.7236339640        0.3878502097        0.0000000045
C                0.7788918408        0.4444080311        0.0000000003
C                0.7224264985        0.5550729513       -0.0000000018
C                0.7777538411        0.6105749694       -0.0000000065
C                0.7213216687        0.7226640995       -0.0000000028
C                0.7771973557        0.7780679939       -0.0000000019
C                0.7213216604        0.8893475530       -0.0000000035
C                0.7777538314        0.9450045261        0.0000000017
C                0.8890167218        0.0552977553       -0.0000000012
C                0.9454215763        0.1107996540        0.0000000001
C                0.8900015078        0.2216659111       -0.0000000009
C                0.9454215746        0.2771120889       -0.0000000035
C                0.8890167421        0.3890188358       -0.0000000047
C                0.9444079675        0.4445730513       -0.0000000017
C                0.8882441512        0.5552538236        0.0000000017
C                0.9443114533        0.6112931311       -0.0000000014
C                0.8885958430        0.7223687440       -0.0000000003
C                0.9443114411        0.7777287463       -0.0000000023
C                0.8882441432        0.8898353513       -0.0000000040
C                0.9444079517        0.9443523233        0.0000000008



     Writing config-only to output data dir /home/gregb26/links/scratch/qe_tmp/vacancy_relaxed/series/6x6/nspin1/vac_6x6_relax_nspin1.save/ :
     XML data file
     NEW-OLD atomic charge density approx. for the potential

     negative rho (up, down):  5.173E-06 0.000E+00

     total cpu time spent up to now is      178.7 secs

     per-process dynamical memory:   205.7 Mb

     Self-consistent Calculation

     iteration #  1     ecut=   100.00 Ry     beta= 0.30
     Davidson diagonalization with overlap
     ethr =  1.00E-06,  avg # of iterations =  7.0

     negative rho (up, down):  3.418E-06 0.000E+00

     total cpu time spent up to now is      180.6 secs

     total energy              =    -854.71237840 Ry
     estimated scf accuracy    <       0.02992395 Ry

     iteration #  2     ecut=   100.00 Ry     beta= 0.30
     Davidson diagonalization with overlap
     ethr =  1.05E-05,  avg # of iterations =  5.0

     negative rho (up, down):  3.136E-06 0.000E+00

     total cpu time spent up to now is      181.5 secs

     total energy              =    -854.72027740 Ry
     estimated scf accuracy    <       0.31332394 Ry

     iteration #  3     ecut=   100.00 Ry     beta= 0.30
     Davidson diagonalization with overlap
     ethr =  1.05E-05,  avg # of iterations =  5.0

     negative rho (up, down):  2.754E-06 0.000E+00

     total cpu time spent up to now is      182.4 secs

     total energy              =    -854.72189384 Ry
     estimated scf accuracy    <       0.07189084 Ry

     iteration #  4     ecut=   100.00 Ry     beta= 0.30
     Davidson diagonalization with overlap
     ethr =  1.05E-05,  avg # of iterations =  2.0

     negative rho (up, down):  1.629E-06 0.000E+00

     total cpu time spent up to now is      183.3 secs

     total energy              =    -854.72464110 Ry
     estimated scf accuracy    <       0.01449652 Ry

     iteration #  5     ecut=   100.00 Ry     beta= 0.30
     Davidson diagonalization with overlap
     ethr =  5.10E-06,  avg # of iterations =  1.0

     negative rho (up, down):  4.714E-07 0.000E+00

     total cpu time spent up to now is      184.0 secs

     total energy              =    -854.72485121 Ry
     estimated scf accuracy    <       0.00056747 Ry

     iteration #  6     ecut=   100.00 Ry     beta= 0.30
     Davidson diagonalization with overlap
     ethr =  2.00E-07,  avg # of iterations =  4.0

     negative rho (up, down):  2.255E-07 0.000E+00

     total cpu time spent up to now is      184.9 secs

     total energy              =    -854.72489023 Ry
     estimated scf accuracy    <       0.00001656 Ry

     iteration #  7     ecut=   100.00 Ry     beta= 0.30
     Davidson diagonalization with overlap
     ethr =  5.83E-09,  avg # of iterations =  6.0

     negative rho (up, down):  1.296E-07 0.000E+00

     total cpu time spent up to now is      186.2 secs

     total energy              =    -854.72490130 Ry
     estimated scf accuracy    <       0.00005251 Ry

     iteration #  8     ecut=   100.00 Ry     beta= 0.30
     Davidson diagonalization with overlap
     ethr =  5.83E-09,  avg # of iterations =  2.0

     negative rho (up, down):  3.933E-08 0.000E+00

     total cpu time spent up to now is      187.1 secs

     total energy              =    -854.72489224 Ry
     estimated scf accuracy    <       0.00028604 Ry

     iteration #  9     ecut=   100.00 Ry     beta= 0.30
     Davidson diagonalization with overlap
     ethr =  5.83E-09,  avg # of iterations =  2.0

     total cpu time spent up to now is      187.9 secs

     total energy              =    -854.72489811 Ry
     estimated scf accuracy    <       0.00000031 Ry

     iteration # 10     ecut=   100.00 Ry     beta= 0.30
     Davidson diagonalization with overlap
     ethr =  1.09E-10,  avg # of iterations =  5.0

     total cpu time spent up to now is      188.9 secs

     total energy              =    -854.72489816 Ry
     estimated scf accuracy    <       0.00000024 Ry

     iteration # 11     ecut=   100.00 Ry     beta= 0.30
     Davidson diagonalization with overlap
     ethr =  8.60E-11,  avg # of iterations =  2.0

     total cpu time spent up to now is      189.7 secs

     total energy              =    -854.72489815 Ry
     estimated scf accuracy    <       0.00000061 Ry

     iteration # 12     ecut=   100.00 Ry     beta= 0.30
     Davidson diagonalization with overlap
     ethr =  8.60E-11,  avg # of iterations =  2.0

     total cpu time spent up to now is      190.5 secs

     total energy              =    -854.72489816 Ry
     estimated scf accuracy    <       0.00000002 Ry

     iteration # 13     ecut=   100.00 Ry     beta= 0.30
     Davidson diagonalization with overlap
     ethr =  7.30E-12,  avg # of iterations =  2.0

     total cpu time spent up to now is      191.3 secs

     total energy              =    -854.72489817 Ry
     estimated scf accuracy    <          7.6E-10 Ry

     iteration # 14     ecut=   100.00 Ry     beta= 0.30
     Davidson diagonalization with overlap
     ethr =  2.68E-13,  avg # of iterations =  5.0

     total cpu time spent up to now is      192.7 secs

     total energy              =    -854.72489817 Ry
     estimated scf accuracy    <          3.7E-10 Ry

     iteration # 15     ecut=   100.00 Ry     beta= 0.30
     Davidson diagonalization with overlap
     ethr =  1.29E-13,  avg # of iterations =  2.0

     total cpu time spent up to now is      193.6 secs

     total energy              =    -854.72489817 Ry
     estimated scf accuracy    <          1.6E-10 Ry

     iteration # 16     ecut=   100.00 Ry     beta= 0.30
     Davidson diagonalization with overlap
     ethr =  1.00E-13,  avg # of iterations =  2.0

     total cpu time spent up to now is      194.4 secs

     End of self-consistent calculation

          k = 0.0000 0.0000 0.0000 (171510 PWs)   bands (ev):

   -23.8008 -23.2408 -23.1966 -23.1665 -23.1639 -23.1607 -22.9094 -21.9476
   -21.9192 -21.8919 -21.8785 -21.8345 -21.6414 -21.3229 -21.2646 -21.2471
   -21.2360 -21.1791 -20.7308 -19.4774 -19.4638 -19.4429 -19.4382 -19.4283
   -19.4078 -19.3975 -19.3915 -19.3670 -19.3065 -19.2685 -18.8114 -18.6165
   -18.5610 -18.0428 -17.5099 -17.4523 -17.3702 -16.9999 -16.8544 -16.8183
   -16.4355 -15.8067 -15.7766 -15.7762 -15.7593 -15.7535 -15.7366 -15.7343
   -15.7121 -15.6952 -15.4366 -15.4212 -14.8037 -14.7435 -14.4332 -14.0230
   -14.0105 -13.9489 -13.7725 -13.7329 -12.9983 -12.4925 -12.4262 -12.4086
   -12.3880 -12.3796 -12.3651 -12.3592 -12.3487 -12.3393 -12.2941 -12.2304
   -12.2221 -12.1676 -12.0714 -12.0684 -11.8778 -11.6193 -11.5873 -11.1771
   -11.1490 -11.1235 -11.1225 -11.1223 -10.8993 -10.8676 -10.8509 -10.8240
   -10.7928 -10.7304 -10.6940 -10.6789 -10.4225 -10.4157 -10.1841 -10.1830
   -10.1715 -10.1090 -10.0487  -9.9156  -9.8816  -9.6970  -9.6761  -9.6638
    -9.6441  -9.6399  -9.6313  -9.6093  -9.5885  -9.3797  -8.9767  -8.9461
    -8.9268  -8.9191  -8.9032  -8.8894  -8.8877  -8.5744  -8.5579  -8.5015
    -8.4473  -8.4311  -7.8918  -7.6283  -7.4985  -7.0008  -6.9831  -6.9779
    -6.9744  -6.9692  -6.9460  -6.9314  -6.9182  -6.9135  -6.9035  -6.8923
    -6.7237  -6.6825  -6.6012  -5.4407  -4.3899  -4.2583  -4.2201  -4.1613
    -3.7568  -3.7210  -2.6153  -2.5300  -2.4529  -1.8867  -1.8398  -1.8081
    -1.7842  -1.7686  -1.7585  -1.7346  -1.7222  -1.6959  -1.5413  -1.5367
    -0.9534  -0.3139  -0.0919  -0.0917  -0.0874  -0.0803  -0.0697  -0.0657
     0.0504   0.5621   0.5999   0.6353

     the Fermi energy is    -4.2376 ev

!    total energy              =    -854.72489817 Ry
     estimated scf accuracy    <          4.2E-11 Ry
     smearing contrib. (-TS)   =      -0.00582174 Ry
     internal energy E=F+TS    =    -854.71907643 Ry

     The total energy is F=E-TS. E is the sum of the following terms:
     one-electron contribution =   -9612.44008641 Ry
     hartree contribution      =    4832.45209635 Ry
     xc contribution           =    -303.92764101 Ry
     ewald contribution        =    4229.19655464 Ry

     convergence has been achieved in  16 iterations

     Forces acting on atoms (cartesian axes, Ry/au):

     atom    1 type  1   force =     0.00423494   -0.00237641   -0.00000002
     atom    2 type  1   force =     0.00075775   -0.00131291   -0.00000001
     atom    3 type  1   force =    -0.00005926   -0.00485590    0.00000000
     atom    4 type  1   force =     0.00059884   -0.00390268   -0.00000002
     atom    5 type  1   force =     0.00060832    0.00340925   -0.00000002
     atom    6 type  1   force =     0.00265399   -0.00289694    0.00000003
     atom    7 type  1   force =    -0.00201124    0.00320345    0.00000004
     atom    8 type  1   force =    -0.00023363    0.00040419   -0.00000001
     atom    9 type  1   force =    -0.00176881    0.00334462   -0.00000002
     atom   10 type  1   force =     0.00118180   -0.00374771    0.00000000
     atom   11 type  1   force =    -0.00325628    0.00117893   -0.00000003
     atom   12 type  1   force =     0.00308036   -0.00247098    0.00000004
     atom   13 type  1   force =    -0.00229091    0.00396851    0.00000000
     atom   14 type  1   force =     0.00302860    0.00290236    0.00000000
     atom   15 type  1   force =    -0.00296949    0.00000331   -0.00000001
     atom   16 type  1   force =     0.00095887   -0.00069384   -0.00000001
     atom   17 type  1   force =     0.00178943   -0.00118148    0.00000001
     atom   18 type  1   force =     0.00489132   -0.00287770    0.00000001
     atom   19 type  1   force =    -0.00163247    0.00282731   -0.00000002
     atom   20 type  1   force =     0.00004622   -0.00567347   -0.00000002
     atom   21 type  1   force =     0.00012853   -0.00214083    0.00000002
     atom   22 type  1   force =     0.00012112   -0.00117743    0.00000003
     atom   23 type  1   force =     0.00148219    0.00257385   -0.00000003
     atom   24 type  1   force =    -0.00402830   -0.00117147    0.00000003
     atom   25 type  1   force =     0.00276949   -0.00157796    0.00000000
     atom   26 type  1   force =     0.00145538    0.00397318   -0.00000002
     atom   27 type  1   force =    -0.00016585    0.00331106   -0.00000002
     atom   28 type  1   force =     0.00544352    0.00555783    0.00000004
     atom   29 type  1   force =     0.00204240   -0.00099469   -0.00000003
     atom   30 type  1   force =    -0.00016009   -0.00226656    0.00000005
     atom   31 type  1   force =    -0.00753399   -0.00193490   -0.00000003
     atom   32 type  1   force =    -0.00278526    0.00179875    0.00000000
     atom   33 type  1   force =    -0.00416786    0.00072648    0.00000001
     atom   34 type  1   force =    -0.00001814   -0.00318785   -0.00000000
     atom   35 type  1   force =    -0.00031507    0.00054587   -0.00000001
     atom   36 type  1   force =    -0.00032531   -0.00185446   -0.00000001
     atom   37 type  1   force =     0.00013561   -0.00031436    0.00000000
     atom   38 type  1   force =     0.00030054    0.00011179   -0.00000001
     atom   39 type  1   force =    -0.00185910    0.00594382    0.00000002
     atom   40 type  1   force =     0.00042245   -0.00073194    0.00000002
     atom   41 type  1   force =    -0.00421797    0.00458212   -0.00000004
     atom   42 type  1   force =    -0.00024756   -0.00020490    0.00000001
     atom   43 type  1   force =     0.00020494   -0.00027463    0.00000003
     atom   44 type  1   force =     0.00176843   -0.00064563   -0.00000001
     atom   45 type  1   force =    -0.00350472   -0.00054593    0.00000003
     atom   46 type  1   force =     0.00080525   -0.00139385   -0.00000003
     atom   47 type  1   force =     0.00222448    0.00276231    0.00000000
     atom   48 type  1   force =    -0.00226620    0.00030127   -0.00000000
     atom   49 type  1   force =     0.00273669    0.00259072   -0.00000000
     atom   50 type  1   force =     0.00229389   -0.00185112   -0.00000002
     atom   51 type  1   force =     0.00207085   -0.00358664    0.00000001
     atom   52 type  1   force =     0.00045630   -0.00291218    0.00000001
     atom   53 type  1   force =    -0.00361195   -0.00107487   -0.00000000
     atom   54 type  1   force =     0.00087173    0.00211319   -0.00000001
     atom   55 type  1   force =    -0.00271013    0.00186718    0.00000006
     atom   56 type  1   force =     0.00160631   -0.00045024   -0.00000003
     atom   57 type  1   force =    -0.00014623    0.00025246   -0.00000001
     atom   58 type  1   force =    -0.00041242   -0.00161597    0.00000002
     atom   59 type  1   force =    -0.00026210    0.00328056   -0.00000005
     atom   60 type  1   force =    -0.00035149   -0.00153371    0.00000001
     atom   61 type  1   force =     0.00085261    0.00192674    0.00000002
     atom   62 type  1   force =     0.00167932   -0.00290879   -0.00000001
     atom   63 type  1   force =    -0.00209471    0.00022485    0.00000000
     atom   64 type  1   force =     0.00150403   -0.00046197    0.00000000
     atom   65 type  1   force =    -0.00005456   -0.00183559    0.00000002
     atom   66 type  1   force =     0.00254389    0.00299424   -0.00000004
     atom   67 type  1   force =    -0.00046099   -0.00042093    0.00000001
     atom   68 type  1   force =    -0.00217506    0.00376754   -0.00000001
     atom   69 type  1   force =     0.00059501    0.00018817    0.00000003
     atom   70 type  1   force =    -0.00386490   -0.00070560    0.00000004
     atom   71 type  1   force =     0.00161672   -0.00087090   -0.00000001

     Total force =     0.028841     Total SCF correction =     0.000012
     Energy error            =      7.3E-04 Ry
     Gradient error          =      7.5E-03 Ry/Bohr

     number of scf cycles    =  12
     number of bfgs steps    =  11

     energy             old  =    -854.7241661646 Ry
     energy             new  =    -854.7248981663 Ry

     CASE: energy            _new < energy            _old

     new trust radius        =       0.0488200288 bohr
     new conv_thr            =            7.3E-11 Ry


ATOMIC_POSITIONS (crystal)
C                0.0558977153        0.0554726500        0.0000000008
C                0.1115904691        0.1108714369        0.0000000014
C                0.0558977405        0.2219629718       -0.0000000001
C                0.1119940371        0.2779046411        0.0000000063
C                0.0557897755        0.3887777100       -0.0000000002
C                0.1107048230        0.4447029249       -0.0000000067
C                0.0537125954        0.5563085114       -0.0000000035
C                0.1091472732        0.6120930159        0.0000000052
C                0.0537125742        0.7233122230        0.0000000041
C                0.1107048580        0.7779255326        0.0000000034
C                0.0557897184        0.8887658866        0.0000000034
C                0.1119940437        0.9434346425       -0.0000000001
C                0.2228950807        0.0552191363       -0.0000000035
C                0.2784349746        0.1109202032       -0.0000000009
C                0.2222459263        0.2229549801        0.0000000051
C                0.2778549436        0.2791427323        0.0000000039
C                0.2211564858        0.3896290030       -0.0000000042
C                0.2768126646        0.4470215363       -0.0000000018
C                0.2179830020        0.5576751335        0.0000000011
C                0.2768127060        0.6094990931        0.0000000049
C                0.2211564219        0.7225478401       -0.0000000023
C                0.2778549398        0.7763356728        0.0000000012
C                0.2222458743        0.8881324659        0.0000000035
C                0.2784349759        0.9439781429        0.0000000031
C                0.3884750172        0.0564147411        0.0000000028
C                0.4447214596        0.1132376089        0.0000000003
C                0.3889394838        0.2256500300       -0.0000000009
C                0.4447647571        0.2837759978       -0.0000000035
C                0.3843593619        0.3960381783        0.0000000020
C                0.3843593515        0.5529358326        0.0000000059
C                0.4447647592        0.6047925858        0.0000000008
C                0.3889394941        0.7187438479        0.0000000028
C                0.4447214299        0.7753742816        0.0000000029
C                0.3884750176        0.8884435941        0.0000000069
C                0.4442062214        0.9445635537        0.0000000039
C                0.5546458872        0.0570050503       -0.0000000006
C                0.6101994297        0.1129965463       -0.0000000006
C                0.5555152952        0.2230963429        0.0000000040
C                0.6135606486        0.2770823602        0.0000000009
C                0.5657562921        0.3837885250        0.0000000070
C                0.6135606638        0.4426903574        0.0000000054
C                0.5555153338        0.5547216450        0.0000000007
C                0.6101994506        0.6101373909       -0.0000000019
C                0.5546459127        0.7216824003       -0.0000000015
C                0.6108600096        0.7777060621       -0.0000000044
C                0.5550424703        0.8891454531       -0.0000000008
C                0.6108599904        0.9447672403       -0.0000000043
C                0.7223697273        0.0559653918        0.0000000004
C                0.7792665339        0.1097779386       -0.0000000054
C                0.7244065187        0.2213893300       -0.0000000098
C                0.7793071206        0.2770131012        0.0000000008
C                0.7244065586        0.3875374549        0.0000000062
C                0.7792665645        0.4442888536        0.0000000000
C                0.7223697626        0.5549982201       -0.0000000027
C                0.7775702732        0.6106377747       -0.0000000066
C                0.7211302030        0.7227207205       -0.0000000054
C                0.7769582896        0.7781875023       -0.0000000037
C                0.7211301931        0.8894824466       -0.0000000053
C                0.7775702645        0.9451252592        0.0000000007
C                0.8893531827        0.0550829154       -0.0000000005
C                0.9457394725        0.1105874039        0.0000000024
C                0.8905779874        0.2213776748       -0.0000000037
C                0.9457394731        0.2770064350       -0.0000000047
C                0.8893532088        0.3888972176       -0.0000000066
C                0.9444367007        0.4446208864       -0.0000000020
C                0.8880685295        0.5553107798        0.0000000010
C                0.9439264919        0.6114686150       -0.0000000019
C                0.8882654303        0.7225339562       -0.0000000001
C                0.9439265070        0.7779381919       -0.0000000008
C                0.8880684944        0.8899540414       -0.0000000040
C                0.9444367114        0.9442757329       -0.0000000001



     Writing config-only to output data dir /home/gregb26/links/scratch/qe_tmp/vacancy_relaxed/series/6x6/nspin1/vac_6x6_relax_nspin1.save/ :
     XML data file
     NEW-OLD atomic charge density approx. for the potential

     negative rho (up, down):  6.011E-06 0.000E+00

     total cpu time spent up to now is      195.2 secs

     per-process dynamical memory:   205.7 Mb

     Self-consistent Calculation

     iteration #  1     ecut=   100.00 Ry     beta= 0.30
     Davidson diagonalization with overlap
     ethr =  1.00E-06,  avg # of iterations =  7.0

     negative rho (up, down):  3.976E-06 0.000E+00

     total cpu time spent up to now is      197.2 secs

     total energy              =    -854.71097356 Ry
     estimated scf accuracy    <       0.03455575 Ry

     iteration #  2     ecut=   100.00 Ry     beta= 0.30
     Davidson diagonalization with overlap
     ethr =  1.22E-05,  avg # of iterations =  5.0

     negative rho (up, down):  3.654E-06 0.000E+00

     total cpu time spent up to now is      198.2 secs

     total energy              =    -854.72029856 Ry
     estimated scf accuracy    <       0.37227429 Ry

     iteration #  3     ecut=   100.00 Ry     beta= 0.30
     Davidson diagonalization with overlap
     ethr =  1.22E-05,  avg # of iterations =  5.0

     negative rho (up, down):  3.250E-06 0.000E+00

     total cpu time spent up to now is      199.2 secs

     total energy              =    -854.72192351 Ry
     estimated scf accuracy    <       0.09053911 Ry

     iteration #  4     ecut=   100.00 Ry     beta= 0.30
     Davidson diagonalization with overlap
     ethr =  1.22E-05,  avg # of iterations =  2.0

     negative rho (up, down):  1.939E-06 0.000E+00

     total cpu time spent up to now is      200.1 secs

     total energy              =    -854.72515140 Ry
     estimated scf accuracy    <       0.01560385 Ry

     iteration #  5     ecut=   100.00 Ry     beta= 0.30
     Davidson diagonalization with overlap
     ethr =  5.49E-06,  avg # of iterations =  1.0

     negative rho (up, down):  5.761E-07 0.000E+00

     total cpu time spent up to now is      200.8 secs

     total energy              =    -854.72536728 Ry
     estimated scf accuracy    <       0.00065797 Ry

     iteration #  6     ecut=   100.00 Ry     beta= 0.30
     Davidson diagonalization with overlap
     ethr =  2.32E-07,  avg # of iterations =  4.0

     negative rho (up, down):  2.586E-07 0.000E+00

     total cpu time spent up to now is      201.7 secs

     total energy              =    -854.72540967 Ry
     estimated scf accuracy    <       0.00001714 Ry

     iteration #  7     ecut=   100.00 Ry     beta= 0.30
     Davidson diagonalization with overlap
     ethr =  6.03E-09,  avg # of iterations =  7.0

     negative rho (up, down):  1.433E-07 0.000E+00

     total cpu time spent up to now is      203.1 secs

     total energy              =    -854.72542216 Ry
     estimated scf accuracy    <       0.00005159 Ry

     iteration #  8     ecut=   100.00 Ry     beta= 0.30
     Davidson diagonalization with overlap
     ethr =  6.03E-09,  avg # of iterations =  2.0

     negative rho (up, down):  4.544E-08 0.000E+00

     total cpu time spent up to now is      203.9 secs

     total energy              =    -854.72541146 Ry
     estimated scf accuracy    <       0.00034812 Ry

     iteration #  9     ecut=   100.00 Ry     beta= 0.30
     Davidson diagonalization with overlap
     ethr =  6.03E-09,  avg # of iterations =  2.0

     total cpu time spent up to now is      204.7 secs

     total energy              =    -854.72541875 Ry
     estimated scf accuracy    <       0.00000050 Ry

     iteration # 10     ecut=   100.00 Ry     beta= 0.30
     Davidson diagonalization with overlap
     ethr =  1.76E-10,  avg # of iterations =  4.0

     total cpu time spent up to now is      205.6 secs

     total energy              =    -854.72541880 Ry
     estimated scf accuracy    <       0.00000048 Ry

     iteration # 11     ecut=   100.00 Ry     beta= 0.30
     Davidson diagonalization with overlap
     ethr =  1.68E-10,  avg # of iterations =  1.0

     total cpu time spent up to now is      206.3 secs

     total energy              =    -854.72541878 Ry
     estimated scf accuracy    <       0.00000072 Ry

     iteration # 12     ecut=   100.00 Ry     beta= 0.30
     Davidson diagonalization with overlap
     ethr =  1.68E-10,  avg # of iterations =  1.0

     total cpu time spent up to now is      207.1 secs

     total energy              =    -854.72541880 Ry
     estimated scf accuracy    <       0.00000002 Ry

     iteration # 13     ecut=   100.00 Ry     beta= 0.30
     Davidson diagonalization with overlap
     ethr =  6.11E-12,  avg # of iterations =  4.0

     total cpu time spent up to now is      208.0 secs

     total energy              =    -854.72541880 Ry
     estimated scf accuracy    <          8.0E-10 Ry

     iteration # 14     ecut=   100.00 Ry     beta= 0.30
     Davidson diagonalization with overlap
     ethr =  2.82E-13,  avg # of iterations =  5.0

     total cpu time spent up to now is      209.4 secs

     total energy              =    -854.72541880 Ry
     estimated scf accuracy    <          6.7E-10 Ry

     iteration # 15     ecut=   100.00 Ry     beta= 0.30
     Davidson diagonalization with overlap
     ethr =  2.35E-13,  avg # of iterations =  2.0

     total cpu time spent up to now is      210.2 secs

     total energy              =    -854.72541880 Ry
     estimated scf accuracy    <          1.9E-10 Ry

     iteration # 16     ecut=   100.00 Ry     beta= 0.30
     Davidson diagonalization with overlap
     ethr =  1.00E-13,  avg # of iterations =  2.0

     total cpu time spent up to now is      211.0 secs

     End of self-consistent calculation

          k = 0.0000 0.0000 0.0000 (171510 PWs)   bands (ev):

   -23.8019 -23.2418 -23.2039 -23.1695 -23.1644 -23.1429 -22.8955 -21.9437
   -21.9135 -21.8932 -21.8755 -21.8243 -21.6454 -21.3195 -21.2619 -21.2476
   -21.2282 -21.1660 -20.7219 -19.4655 -19.4492 -19.4460 -19.4411 -19.4335
   -19.4082 -19.3952 -19.3861 -19.3611 -19.3016 -19.2558 -18.8174 -18.6133
   -18.5493 -18.0282 -17.5089 -17.4481 -17.3683 -16.9969 -16.8494 -16.8102
   -16.4384 -15.7978 -15.7740 -15.7718 -15.7535 -15.7472 -15.7361 -15.7278
   -15.7135 -15.6892 -15.4324 -15.4159 -14.8021 -14.7356 -14.4357 -14.0115
   -14.0048 -13.9385 -13.7717 -13.7319 -12.9965 -12.4689 -12.4264 -12.4078
   -12.3895 -12.3799 -12.3708 -12.3639 -12.3409 -12.3327 -12.2901 -12.2239
   -12.2028 -12.1625 -12.0668 -12.0593 -11.8789 -11.6189 -11.5802 -11.1779
   -11.1562 -11.1305 -11.1232 -11.1057 -10.8968 -10.8458 -10.8379 -10.8216
   -10.7747 -10.7210 -10.6971 -10.6763 -10.4247 -10.4233 -10.1888 -10.1739
   -10.1640 -10.0936 -10.0492  -9.8927  -9.8673  -9.6993  -9.6742  -9.6616
    -9.6415  -9.6400  -9.6314  -9.6092  -9.5776  -9.3834  -8.9749  -8.9501
    -8.9245  -8.9144  -8.9050  -8.8844  -8.8774  -8.5663  -8.5492  -8.5012
    -8.4405  -8.4282  -7.9354  -7.6231  -7.5016  -6.9984  -6.9833  -6.9828
    -6.9739  -6.9614  -6.9469  -6.9320  -6.9182  -6.9074  -6.8960  -6.8818
    -6.7299  -6.6788  -6.5931  -5.4329  -4.3886  -4.2562  -4.2275  -4.1573
    -3.7200  -3.5871  -2.6153  -2.5295  -2.4588  -1.8866  -1.8467  -1.8094
    -1.7863  -1.7701  -1.7559  -1.7373  -1.7237  -1.6897  -1.5381  -1.5274
    -0.9542  -0.3185  -0.0965  -0.0949  -0.0891  -0.0808  -0.0687  -0.0625
     0.0546   0.5595   0.6031   0.6365

     the Fermi energy is    -4.2385 ev

!    total energy              =    -854.72541880 Ry
     estimated scf accuracy    <          3.6E-11 Ry
     smearing contrib. (-TS)   =      -0.00587690 Ry
     internal energy E=F+TS    =    -854.71954190 Ry

     The total energy is F=E-TS. E is the sum of the following terms:
     one-electron contribution =   -9612.22087953 Ry
     hartree contribution      =    4832.37182321 Ry
     xc contribution           =    -303.91462123 Ry
     ewald contribution        =    4229.04413564 Ry

     convergence has been achieved in  16 iterations

     Forces acting on atoms (cartesian axes, Ry/au):

     atom    1 type  1   force =     0.00245490   -0.00119097    0.00000002
     atom    2 type  1   force =     0.00095983   -0.00166236    0.00000000
     atom    3 type  1   force =    -0.00019681   -0.00272127    0.00000004
     atom    4 type  1   force =     0.00021995   -0.00382769   -0.00000005
     atom    5 type  1   force =     0.00241255    0.00280606    0.00000001
     atom    6 type  1   force =     0.00239856   -0.00303609    0.00000003
     atom    7 type  1   force =    -0.00123406    0.00304934    0.00000001
     atom    8 type  1   force =    -0.00000167    0.00000343   -0.00000004
     atom    9 type  1   force =    -0.00202334    0.00259212   -0.00000002
     atom   10 type  1   force =     0.00142956   -0.00359300   -0.00000004
     atom   11 type  1   force =    -0.00363576   -0.00068854    0.00000001
     atom   12 type  1   force =     0.00320410   -0.00210261    0.00000001
     atom   13 type  1   force =    -0.00133775    0.00231645    0.00000004
     atom   14 type  1   force =     0.00181579    0.00221273    0.00000004
     atom   15 type  1   force =     0.00030910    0.00038838   -0.00000001
     atom   16 type  1   force =     0.00014039   -0.00067271   -0.00000002
     atom   17 type  1   force =     0.00228789   -0.00200707    0.00000004
     atom   18 type  1   force =     0.00669582   -0.00364534   -0.00000002
     atom   19 type  1   force =    -0.00115934    0.00201031    0.00000003
     atom   20 type  1   force =    -0.00019190   -0.00762034   -0.00000002
     atom   21 type  1   force =     0.00059633   -0.00298647    0.00000003
     atom   22 type  1   force =     0.00051136   -0.00045759    0.00000002
     atom   23 type  1   force =    -0.00049033   -0.00007554   -0.00000001
     atom   24 type  1   force =    -0.00282380   -0.00046568    0.00000000
     atom   25 type  1   force =     0.00343937   -0.00111572   -0.00000001
     atom   26 type  1   force =     0.00105806    0.00322498    0.00000002
     atom   27 type  1   force =    -0.00021901    0.00383852    0.00000001
     atom   28 type  1   force =     0.00575373    0.00373012    0.00000003
     atom   29 type  1   force =     0.00009341   -0.00133498   -0.00000005
     atom   30 type  1   force =     0.00110930   -0.00074912    0.00000002
     atom   31 type  1   force =    -0.00610733   -0.00311824    0.00000000
     atom   32 type  1   force =    -0.00321541    0.00210911    0.00000001
     atom   33 type  1   force =    -0.00332112    0.00069544   -0.00000001
     atom   34 type  1   force =    -0.00075429   -0.00353639   -0.00000003
     atom   35 type  1   force =    -0.00074846    0.00129735   -0.00000003
     atom   36 type  1   force =     0.00036133   -0.00118241   -0.00000003
     atom   37 type  1   force =    -0.00010839    0.00013483   -0.00000001
     atom   38 type  1   force =    -0.00085558   -0.00027195   -0.00000003
     atom   39 type  1   force =    -0.00151580    0.00699667    0.00000000
     atom   40 type  1   force =    -0.00043463    0.00075414    0.00000000
     atom   41 type  1   force =    -0.00530295    0.00480993   -0.00000002
     atom   42 type  1   force =     0.00066452    0.00060721   -0.00000002
     atom   43 type  1   force =    -0.00006402    0.00016065   -0.00000000
     atom   44 type  1   force =     0.00084263   -0.00090357   -0.00000001
     atom   45 type  1   force =    -0.00374782    0.00105623    0.00000003
     atom   46 type  1   force =     0.00153772   -0.00266536   -0.00000004
     atom   47 type  1   force =     0.00096077    0.00377438    0.00000001
     atom   48 type  1   force =    -0.00198019    0.00043098   -0.00000002
     atom   49 type  1   force =     0.00268890    0.00191209   -0.00000000
     atom   50 type  1   force =     0.00220926    0.00056956    0.00000003
     atom   51 type  1   force =     0.00187429   -0.00324637    0.00000000
     atom   52 type  1   force =    -0.00159736   -0.00162764    0.00000002
     atom   53 type  1   force =    -0.00300091   -0.00137298    0.00000000
     atom   54 type  1   force =     0.00061621    0.00193083   -0.00000001
     atom   55 type  1   force =    -0.00327381    0.00096170    0.00000004
     atom   56 type  1   force =     0.00186802   -0.00077425   -0.00000001
     atom   57 type  1   force =    -0.00050583    0.00087862    0.00000002
     atom   58 type  1   force =    -0.00026511   -0.00200615    0.00000003
     atom   59 type  1   force =     0.00080514    0.00331697   -0.00000003
     atom   60 type  1   force =    -0.00155426    0.00024427   -0.00000000
     atom   61 type  1   force =     0.00216519    0.00009342   -0.00000005
     atom   62 type  1   force =     0.00019956   -0.00034586    0.00000002
     atom   63 type  1   force =    -0.00116314   -0.00182851   -0.00000001
     atom   64 type  1   force =     0.00056520    0.00146872   -0.00000002
     atom   65 type  1   force =    -0.00025491   -0.00239847   -0.00000001
     atom   66 type  1   force =     0.00200614    0.00402253   -0.00000005
     atom   67 type  1   force =    -0.00004449   -0.00146246    0.00000003
     atom   68 type  1   force =    -0.00213152    0.00369107   -0.00000000
     atom   69 type  1   force =     0.00128890   -0.00069138    0.00000001
     atom   70 type  1   force =    -0.00448672    0.00027297    0.00000002
     atom   71 type  1   force =     0.00220409   -0.00097708    0.00000001

     Total force =     0.028185     Total SCF correction =     0.000010
     Energy error            =      5.2E-04 Ry
     Gradient error          =      7.6E-03 Ry/Bohr

     number of scf cycles    =  13
     number of bfgs steps    =  12

     energy             old  =    -854.7248981663 Ry
     energy             new  =    -854.7254188017 Ry

     CASE: energy            _new < energy            _old

     new trust radius        =       0.0307411230 bohr
     new conv_thr            =            5.2E-11 Ry


ATOMIC_POSITIONS (crystal)
C                0.0560823041        0.0553608866        0.0000000012
C                0.1117875293        0.1107729133        0.0000000017
C                0.0560823058        0.2218901363        0.0000000010
C                0.1121006437        0.2778612509        0.0000000054
C                0.0557926339        0.3888543863       -0.0000000004
C                0.1106317305        0.4447781640       -0.0000000070
C                0.0533882452        0.5564617245       -0.0000000034
C                0.1087609409        0.6122861947        0.0000000046
C                0.0533882909        0.7234833150        0.0000000047
C                0.1106316751        0.7779234555        0.0000000026
C                0.0557926688        0.8886862758        0.0000000047
C                0.1121005620        0.9433714802       -0.0000000006
C                0.2230207518        0.0551562865       -0.0000000028
C                0.2784757331        0.1109490695        0.0000000010
C                0.2223336496        0.2230380375        0.0000000049
C                0.2778241210        0.2793092338        0.0000000045
C                0.2211006030        0.3898159025       -0.0000000038
C                0.2766190953        0.4472926713       -0.0000000033
C                0.2175075555        0.5579128881        0.0000000029
C                0.2766191452        0.6094215243        0.0000000046
C                0.2211006045        0.7224168106       -0.0000000018
C                0.2778240848        0.7761999939        0.0000000030
C                0.2223336850        0.8879616148        0.0000000029
C                0.2784757333        0.9439085449        0.0000000043
C                0.3885357971        0.0565501863        0.0000000031
C                0.4446360903        0.1135936233        0.0000000000
C                0.3888864615        0.2261758981       -0.0000000013
C                0.4446455770        0.2845609010       -0.0000000037
C                0.3841694840        0.3972202663       -0.0000000002
C                0.3841694768        0.5519436167        0.0000000093
C                0.4446455682        0.6041268342        0.0000000010
C                0.3888864692        0.7182710037        0.0000000040
C                0.4446360888        0.7751036205        0.0000000022
C                0.3885357729        0.8882473643        0.0000000078
C                0.4441516885        0.9445908405        0.0000000031
C                0.5545896073        0.0571952392       -0.0000000023
C                0.6100806619        0.1132537589       -0.0000000006
C                0.5554597374        0.2233815898        0.0000000038
C                0.6139908367        0.2768974909        0.0000000020
C                0.5664495747        0.3834419030        0.0000000091
C                0.6139908550        0.4424449863        0.0000000040
C                0.5554597244        0.5544920493        0.0000000008
C                0.6100806769        0.6099988915       -0.0000000002
C                0.5545896097        0.7215484965       -0.0000000018
C                0.6106836252        0.7777109738       -0.0000000038
C                0.5550597675        0.8891367665       -0.0000000028
C                0.6106836266        0.9449387528       -0.0000000057
C                0.7223081091        0.0560654023        0.0000000002
C                0.7795015342        0.1096673440       -0.0000000053
C                0.7247978705        0.2212098709       -0.0000000105
C                0.7797837891        0.2767747635        0.0000000025
C                0.7247979012        0.3873256036        0.0000000084
C                0.7795015666        0.4441644270        0.0000000002
C                0.7223081269        0.5549598393       -0.0000000036
C                0.7774197481        0.6106422465       -0.0000000057
C                0.7210282833        0.7227521144       -0.0000000070
C                0.7767430739        0.7782951598       -0.0000000044
C                0.7210282817        0.8895528917       -0.0000000058
C                0.7774197287        0.9452713599       -0.0000000004
C                0.8894989765        0.0549683191       -0.0000000000
C                0.9460653377        0.1104076367        0.0000000015
C                0.8908951110        0.2212191147       -0.0000000048
C                0.9460653475        0.2768603353       -0.0000000056
C                0.8894989863        0.3888660219       -0.0000000090
C                0.9444915913        0.4446183092       -0.0000000031
C                0.8878669924        0.5554380322       -0.0000000011
C                0.9437011703        0.6115583265       -0.0000000012
C                0.8879832945        0.7226750059       -0.0000000003
C                0.9437011330        0.7780738616        0.0000000004
C                0.8878669838        0.8900282888       -0.0000000040
C                0.9444915478        0.9442234667        0.0000000002



     Writing config-only to output data dir /home/gregb26/links/scratch/qe_tmp/vacancy_relaxed/series/6x6/nspin1/vac_6x6_relax_nspin1.save/ :
     XML data file
     NEW-OLD atomic charge density approx. for the potential

     negative rho (up, down):  3.571E-06 0.000E+00

     total cpu time spent up to now is      211.7 secs

     per-process dynamical memory:   205.7 Mb

     Self-consistent Calculation

     iteration #  1     ecut=   100.00 Ry     beta= 0.30
     Davidson diagonalization with overlap
     ethr =  1.00E-06,  avg # of iterations =  6.0

     negative rho (up, down):  2.353E-06 0.000E+00

     total cpu time spent up to now is      213.5 secs

     total energy              =    -854.71986057 Ry
     estimated scf accuracy    <       0.01400485 Ry

     iteration #  2     ecut=   100.00 Ry     beta= 0.30
     Davidson diagonalization with overlap
     ethr =  4.93E-06,  avg # of iterations =  5.0

     negative rho (up, down):  2.205E-06 0.000E+00

     total cpu time spent up to now is      214.4 secs

     total energy              =    -854.72089913 Ry
     estimated scf accuracy    <       0.28885949 Ry

     iteration #  3     ecut=   100.00 Ry     beta= 0.30
     Davidson diagonalization with overlap
     ethr =  4.93E-06,  avg # of iterations =  5.0

     negative rho (up, down):  1.767E-06 0.000E+00

     total cpu time spent up to now is      215.4 secs

     total energy              =    -854.72469632 Ry
     estimated scf accuracy    <       0.02176043 Ry

     iteration #  4     ecut=   100.00 Ry     beta= 0.30
     Davidson diagonalization with overlap
     ethr =  4.93E-06,  avg # of iterations =  1.0

     negative rho (up, down):  1.014E-06 0.000E+00

     total cpu time spent up to now is      216.2 secs

     total energy              =    -854.72550340 Ry
     estimated scf accuracy    <       0.01054314 Ry

     iteration #  5     ecut=   100.00 Ry     beta= 0.30
     Davidson diagonalization with overlap
     ethr =  3.71E-06,  avg # of iterations =  1.0

     negative rho (up, down):  3.082E-07 0.000E+00

     total cpu time spent up to now is      216.9 secs

     total energy              =    -854.72573203 Ry
     estimated scf accuracy    <       0.00005261 Ry

     iteration #  6     ecut=   100.00 Ry     beta= 0.30
     Davidson diagonalization with overlap
     ethr =  1.85E-08,  avg # of iterations =  5.0

     negative rho (up, down):  1.600E-07 0.000E+00

     total cpu time spent up to now is      217.9 secs

     total energy              =    -854.72574442 Ry
     estimated scf accuracy    <       0.00000780 Ry

     iteration #  7     ecut=   100.00 Ry     beta= 0.30
     Davidson diagonalization with overlap
     ethr =  2.75E-09,  avg # of iterations =  4.0

     negative rho (up, down):  5.426E-08 0.000E+00

     total cpu time spent up to now is      218.8 secs

     total energy              =    -854.72574479 Ry
     estimated scf accuracy    <       0.00007530 Ry

     iteration #  8     ecut=   100.00 Ry     beta= 0.30
     Davidson diagonalization with overlap
     ethr =  2.75E-09,  avg # of iterations =  2.0

     total cpu time spent up to now is      219.6 secs

     total energy              =    -854.72574403 Ry
     estimated scf accuracy    <       0.00002589 Ry

     iteration #  9     ecut=   100.00 Ry     beta= 0.30
     Davidson diagonalization with overlap
     ethr =  2.75E-09,  avg # of iterations =  1.0

     total cpu time spent up to now is      220.4 secs

     total energy              =    -854.72574480 Ry
     estimated scf accuracy    <       0.00000156 Ry

     iteration # 10     ecut=   100.00 Ry     beta= 0.30
     Davidson diagonalization with overlap
     ethr =  5.48E-10,  avg # of iterations =  1.0

     total cpu time spent up to now is      221.1 secs

     total energy              =    -854.72574484 Ry
     estimated scf accuracy    <       0.00000006 Ry

     iteration # 11     ecut=   100.00 Ry     beta= 0.30
     Davidson diagonalization with overlap
     ethr =  1.99E-11,  avg # of iterations =  5.0

     total cpu time spent up to now is      222.2 secs

     total energy              =    -854.72574485 Ry
     estimated scf accuracy    <       0.00000004 Ry

     iteration # 12     ecut=   100.00 Ry     beta= 0.30
     Davidson diagonalization with overlap
     ethr =  1.25E-11,  avg # of iterations =  1.0

     total cpu time spent up to now is      223.0 secs

     total energy              =    -854.72574485 Ry
     estimated scf accuracy    <          2.9E-09 Ry

     iteration # 13     ecut=   100.00 Ry     beta= 0.30
     Davidson diagonalization with overlap
     ethr =  1.03E-12,  avg # of iterations =  4.0

     total cpu time spent up to now is      223.9 secs

     total energy              =    -854.72574485 Ry
     estimated scf accuracy    <          4.0E-10 Ry

     iteration # 14     ecut=   100.00 Ry     beta= 0.30
     Davidson diagonalization with overlap
     ethr =  1.42E-13,  avg # of iterations =  4.0

     total cpu time spent up to now is      224.9 secs

     total energy              =    -854.72574485 Ry
     estimated scf accuracy    <          1.1E-10 Ry

     iteration # 15     ecut=   100.00 Ry     beta= 0.30
     Davidson diagonalization with overlap
     ethr =  1.00E-13,  avg # of iterations =  2.0

     total cpu time spent up to now is      225.8 secs

     End of self-consistent calculation

          k = 0.0000 0.0000 0.0000 (171510 PWs)   bands (ev):

   -23.8017 -23.2421 -23.2055 -23.1738 -23.1609 -23.1322 -22.8896 -21.9406
   -21.9098 -21.8947 -21.8722 -21.8183 -21.6459 -21.3194 -21.2621 -21.2455
   -21.2229 -21.1585 -20.7186 -19.4597 -19.4497 -19.4413 -19.4402 -19.4362
   -19.4060 -19.3914 -19.3813 -19.3565 -19.3017 -19.2484 -18.8211 -18.6117
   -18.5412 -18.0227 -17.5090 -17.4441 -17.3671 -16.9965 -16.8461 -16.8033
   -16.4420 -15.7939 -15.7744 -15.7699 -15.7486 -15.7429 -15.7318 -15.7225
   -15.7130 -15.6854 -15.4267 -15.4119 -14.8039 -14.7341 -14.4367 -14.0097
   -14.0043 -13.9340 -13.7659 -13.7275 -12.9965 -12.4582 -12.4270 -12.4047
   -12.3899 -12.3816 -12.3704 -12.3629 -12.3352 -12.3291 -12.2884 -12.2193
   -12.1919 -12.1587 -12.0621 -12.0512 -11.8789 -11.6203 -11.5776 -11.1783
   -11.1581 -11.1346 -11.1211 -11.0972 -10.9007 -10.8356 -10.8323 -10.8193
   -10.7648 -10.7141 -10.6946 -10.6720 -10.4289 -10.4257 -10.2016 -10.1722
   -10.1612 -10.0883 -10.0432  -9.8824  -9.8584  -9.6927  -9.6653  -9.6599
    -9.6396  -9.6320  -9.6319  -9.6077  -9.5716  -9.3849  -8.9758  -8.9516
    -8.9249  -8.9121  -8.9039  -8.8798  -8.8721  -8.5598  -8.5534  -8.5016
    -8.4370  -8.4295  -7.9696  -7.6194  -7.4978  -6.9971  -6.9850  -6.9822
    -6.9781  -6.9571  -6.9474  -6.9316  -6.9163  -6.9027  -6.8937  -6.8740
    -6.7345  -6.6756  -6.5867  -5.4308  -4.3901  -4.2548  -4.2311  -4.1523
    -3.7214  -3.4714  -2.6169  -2.5281  -2.4605  -1.8864  -1.8510  -1.8093
    -1.7923  -1.7725  -1.7557  -1.7367  -1.7234  -1.6877  -1.5359  -1.5187
    -0.9546  -0.3233  -0.0989  -0.0962  -0.0896  -0.0814  -0.0681  -0.0610
     0.0562   0.5554   0.6016   0.6380

     the Fermi energy is    -4.2386 ev

!    total energy              =    -854.72574485 Ry
     estimated scf accuracy    <          4.0E-11 Ry
     smearing contrib. (-TS)   =      -0.00574388 Ry
     internal energy E=F+TS    =    -854.72000097 Ry

     The total energy is F=E-TS. E is the sum of the following terms:
     one-electron contribution =   -9611.97592904 Ry
     hartree contribution      =    4832.26557856 Ry
     xc contribution           =    -303.90410965 Ry
     ewald contribution        =    4228.89445916 Ry

     convergence has been achieved in  15 iterations

     Forces acting on atoms (cartesian axes, Ry/au):

     atom    1 type  1   force =     0.00364383   -0.00215167   -0.00000001
     atom    2 type  1   force =     0.00047559   -0.00082471    0.00000002
     atom    3 type  1   force =     0.00004228   -0.00423194   -0.00000002
     atom    4 type  1   force =     0.00239064   -0.00238713   -0.00000003
     atom    5 type  1   force =     0.00103091    0.00091310   -0.00000002
     atom    6 type  1   force =     0.00349372   -0.00198170    0.00000002
     atom    7 type  1   force =    -0.00045437    0.00069241    0.00000002
     atom    8 type  1   force =    -0.00024403    0.00042219    0.00000000
     atom    9 type  1   force =    -0.00037316    0.00074210   -0.00000001
     atom   10 type  1   force =    -0.00002989   -0.00401897    0.00000001
     atom   11 type  1   force =    -0.00130671   -0.00043354   -0.00000003
     atom   12 type  1   force =     0.00087321   -0.00326691    0.00000004
     atom   13 type  1   force =    -0.00127734    0.00221344    0.00000006
     atom   14 type  1   force =     0.00346206    0.00150303    0.00000002
     atom   15 type  1   force =    -0.00157225    0.00024412    0.00000000
     atom   16 type  1   force =     0.00219227   -0.00000311   -0.00000005
     atom   17 type  1   force =     0.00159045   -0.00181824    0.00000002
     atom   18 type  1   force =     0.00502492   -0.00230516    0.00000004
     atom   19 type  1   force =    -0.00020824    0.00036070    0.00000002
     atom   20 type  1   force =    -0.00051696   -0.00550248   -0.00000003
     atom   21 type  1   force =     0.00077914   -0.00228591    0.00000004
     atom   22 type  1   force =    -0.00109296   -0.00190126   -0.00000000
     atom   23 type  1   force =     0.00057411    0.00148606    0.00000001
     atom   24 type  1   force =    -0.00303354   -0.00224719   -0.00000003
     atom   25 type  1   force =     0.00148841   -0.00039899   -0.00000001
     atom   26 type  1   force =     0.00187450    0.00224875   -0.00000000
     atom   27 type  1   force =    -0.00026063    0.00230211   -0.00000001
     atom   28 type  1   force =     0.00415773    0.00287140    0.00000003
     atom   29 type  1   force =     0.00054669   -0.00247684   -0.00000003
     atom   30 type  1   force =     0.00187149   -0.00171298   -0.00000000
     atom   31 type  1   force =    -0.00456383   -0.00216481    0.00000004
     atom   32 type  1   force =    -0.00186467    0.00137676   -0.00000000
     atom   33 type  1   force =    -0.00288445   -0.00049880    0.00000002
     atom   34 type  1   force =    -0.00039772   -0.00148872   -0.00000004
     atom   35 type  1   force =     0.00016547   -0.00028823    0.00000001
     atom   36 type  1   force =    -0.00009065    0.00066823    0.00000002
     atom   37 type  1   force =    -0.00041196   -0.00104444   -0.00000000
     atom   38 type  1   force =    -0.00000805    0.00031036    0.00000002
     atom   39 type  1   force =    -0.00163387    0.00610346   -0.00000000
     atom   40 type  1   force =    -0.00120351    0.00208358   -0.00000001
     atom   41 type  1   force =    -0.00446775    0.00446747    0.00000004
     atom   42 type  1   force =    -0.00026604    0.00016119    0.00000002
     atom   43 type  1   force =     0.00111156   -0.00016464   -0.00000002
     atom   44 type  1   force =    -0.00053364    0.00041232   -0.00000001
     atom   45 type  1   force =    -0.00180055   -0.00147503   -0.00000002
     atom   46 type  1   force =    -0.00033809    0.00058783   -0.00000003
     atom   47 type  1   force =     0.00217617    0.00082147    0.00000001
     atom   48 type  1   force =    -0.00039325    0.00130692   -0.00000004
     atom   49 type  1   force =     0.00102630    0.00282500   -0.00000001
     atom   50 type  1   force =     0.00186117    0.00058591    0.00000004
     atom   51 type  1   force =     0.00014451   -0.00024907   -0.00000007
     atom   52 type  1   force =    -0.00143914   -0.00131922   -0.00000002
     atom   53 type  1   force =    -0.00295904    0.00052433   -0.00000002
     atom   54 type  1   force =    -0.00093592    0.00099351    0.00000002
     atom   55 type  1   force =    -0.00200164    0.00149610    0.00000000
     atom   56 type  1   force =    -0.00045176    0.00102415   -0.00000001
     atom   57 type  1   force =    -0.00015659    0.00026765    0.00000001
     atom   58 type  1   force =    -0.00065887    0.00090477   -0.00000000
     atom   59 type  1   force =    -0.00029544    0.00248088   -0.00000003
     atom   60 type  1   force =     0.00036735   -0.00077063   -0.00000001
     atom   61 type  1   force =    -0.00005662    0.00281829   -0.00000004
     atom   62 type  1   force =     0.00132195   -0.00229038    0.00000002
     atom   63 type  1   force =    -0.00241212    0.00145867    0.00000000
     atom   64 type  1   force =     0.00048422   -0.00070377    0.00000004
     atom   65 type  1   force =     0.00049305   -0.00001845   -0.00000002
     atom   66 type  1   force =     0.00068884    0.00087464   -0.00000002
     atom   67 type  1   force =     0.00015551    0.00048447    0.00000001
     atom   68 type  1   force =    -0.00108332    0.00187808   -0.00000000
     atom   69 type  1   force =    -0.00049758    0.00010549   -0.00000000
     atom   70 type  1   force =    -0.00110130   -0.00015805    0.00000004
     atom   71 type  1   force =    -0.00023060   -0.00043801    0.00000001

     Total force =     0.022231     Total SCF correction =     0.000011
     Energy error            =      3.3E-04 Ry
     Gradient error          =      6.1E-03 Ry/Bohr

     number of scf cycles    =  14
     number of bfgs steps    =  13

     energy             old  =    -854.7254188017 Ry
     energy             new  =    -854.7257448499 Ry

     CASE: energy            _new < energy            _old

     new trust radius        =       0.0309567413 bohr
     new conv_thr            =            3.3E-11 Ry


ATOMIC_POSITIONS (crystal)
C                0.0564394207        0.0552005461        0.0000000005
C                0.1120333457        0.1106499885        0.0000000033
C                0.0564394428        0.2216933508        0.0000000012
C                0.1122627079        0.2778475044        0.0000000028
C                0.0558403818        0.3889270646       -0.0000000015
C                0.1106817160        0.4449048179       -0.0000000070
C                0.0531056186        0.5565865687       -0.0000000023
C                0.1083816549        0.6124758432        0.0000000042
C                0.0531055952        0.7236411463        0.0000000051
C                0.1106817128        0.7777467918        0.0000000018
C                0.0558403648        0.8885658777        0.0000000050
C                0.1122627212        0.9432231117       -0.0000000002
C                0.2231236099        0.0551048664        0.0000000007
C                0.2785520666        0.1110568492        0.0000000041
C                0.2223940688        0.2230674858        0.0000000040
C                0.2778259935        0.2795394279        0.0000000032
C                0.2212017996        0.3899981517       -0.0000000030
C                0.2766058776        0.4475554031       -0.0000000032
C                0.2171440911        0.5580946567        0.0000000059
C                0.2766058523        0.6091720500        0.0000000027
C                0.2212018060        0.7221333848        0.0000000008
C                0.2778260091        0.7759678792        0.0000000051
C                0.2223940479        0.8878717748        0.0000000023
C                0.2785520766        0.9437244071        0.0000000042
C                0.3886153403        0.0566937927        0.0000000026
C                0.4445186645        0.1140294309       -0.0000000010
C                0.3887889411        0.2267394543       -0.0000000018
C                0.4445084783        0.2853981971       -0.0000000030
C                0.3842350838        0.3982932051       -0.0000000037
C                0.3842351199        0.5508050248        0.0000000128
C                0.4445084946        0.6034266507        0.0000000032
C                0.3887889132        0.7178049386        0.0000000051
C                0.4445186833        0.7747852311        0.0000000017
C                0.3886153270        0.8880242392        0.0000000074
C                0.4441510695        0.9445911269        0.0000000029
C                0.5544873868        0.0574201318       -0.0000000033
C                0.6099863542        0.1134672729        0.0000000002
C                0.5553921498        0.2236927360        0.0000000050
C                0.6141498567        0.2768892747        0.0000000029
C                0.5667099052        0.3833117332        0.0000000106
C                0.6141498751        0.4422942099        0.0000000039
C                0.5553920908        0.5542484969        0.0000000016
C                0.6099863507        0.6098797002        0.0000000026
C                0.5544873761        0.7214258071       -0.0000000027
C                0.6105379404        0.7776472182       -0.0000000045
C                0.5550018158        0.8891657578       -0.0000000061
C                0.6105379401        0.9451481652       -0.0000000071
C                0.7222000469        0.0562418313       -0.0000000013
C                0.7796004960        0.1097058156       -0.0000000047
C                0.7251131291        0.2211305615       -0.0000000089
C                0.7801907830        0.2765712966        0.0000000014
C                0.7251131327        0.3870896401        0.0000000091
C                0.7796005164        0.4440270312       -0.0000000010
C                0.7222000598        0.5548914408       -0.0000000032
C                0.7771720151        0.6106962640       -0.0000000051
C                0.7208397185        0.7227953664       -0.0000000089
C                0.7764911310        0.7784210906       -0.0000000047
C                0.7208397124        0.8896982611       -0.0000000070
C                0.7771719973        0.9454650714       -0.0000000031
C                0.8897212833        0.0548484188        0.0000000005
C                0.9462922040        0.1102781647       -0.0000000010
C                0.8913700526        0.2209816301       -0.0000000055
C                0.9462922005        0.2767629753       -0.0000000065
C                0.8897213203        0.3887636062       -0.0000000092
C                0.9445193123        0.4446854994       -0.0000000058
C                0.8876777413        0.5555606405       -0.0000000039
C                0.9433906735        0.6117128888       -0.0000000005
C                0.8876451885        0.7228440851       -0.0000000002
C                0.9433906775        0.7782297465        0.0000000020
C                0.8876777179        0.8900949722       -0.0000000020
C                0.9445193072        0.9441285134        0.0000000003



     Writing config-only to output data dir /home/gregb26/links/scratch/qe_tmp/vacancy_relaxed/series/6x6/nspin1/vac_6x6_relax_nspin1.save/ :
     XML data file
     NEW-OLD atomic charge density approx. for the potential

     negative rho (up, down):  3.610E-06 0.000E+00

     total cpu time spent up to now is      226.5 secs

     per-process dynamical memory:   205.7 Mb

     Self-consistent Calculation

     iteration #  1     ecut=   100.00 Ry     beta= 0.30
     Davidson diagonalization with overlap
     ethr =  1.00E-06,  avg # of iterations =  6.0

     negative rho (up, down):  2.378E-06 0.000E+00

     total cpu time spent up to now is      228.3 secs

     total energy              =    -854.72116508 Ry
     estimated scf accuracy    <       0.01180673 Ry

     iteration #  2     ecut=   100.00 Ry     beta= 0.30
     Davidson diagonalization with overlap
     ethr =  4.16E-06,  avg # of iterations =  6.0

     negative rho (up, down):  2.239E-06 0.000E+00

     total cpu time spent up to now is      229.5 secs

     total energy              =    -854.72124584 Ry
     estimated scf accuracy    <       0.28902522 Ry

     iteration #  3     ecut=   100.00 Ry     beta= 0.30
     Davidson diagonalization with overlap
     ethr =  4.16E-06,  avg # of iterations =  5.0

     negative rho (up, down):  1.731E-06 0.000E+00

     total cpu time spent up to now is      230.4 secs

     total energy              =    -854.72529883 Ry
     estimated scf accuracy    <       0.01646036 Ry

     iteration #  4     ecut=   100.00 Ry     beta= 0.30
     Davidson diagonalization with overlap
     ethr =  4.16E-06,  avg # of iterations =  1.0

     negative rho (up, down):  9.463E-07 0.000E+00

     total cpu time spent up to now is      231.2 secs

     total energy              =    -854.72589683 Ry
     estimated scf accuracy    <       0.01064674 Ry

     iteration #  5     ecut=   100.00 Ry     beta= 0.30
     Davidson diagonalization with overlap
     ethr =  3.75E-06,  avg # of iterations =  1.0

     negative rho (up, down):  2.836E-07 0.000E+00

     total cpu time spent up to now is      231.9 secs

     total energy              =    -854.72612216 Ry
     estimated scf accuracy    <       0.00005639 Ry

     iteration #  6     ecut=   100.00 Ry     beta= 0.30
     Davidson diagonalization with overlap
     ethr =  1.99E-08,  avg # of iterations =  5.0

     negative rho (up, down):  1.329E-07 0.000E+00

     total cpu time spent up to now is      232.9 secs

     total energy              =    -854.72613217 Ry
     estimated scf accuracy    <       0.00001316 Ry

     iteration #  7     ecut=   100.00 Ry     beta= 0.30
     Davidson diagonalization with overlap
     ethr =  4.63E-09,  avg # of iterations =  2.0

     negative rho (up, down):  4.182E-08 0.000E+00

     total cpu time spent up to now is      233.8 secs

     total energy              =    -854.72613041 Ry
     estimated scf accuracy    <       0.00010292 Ry

     iteration #  8     ecut=   100.00 Ry     beta= 0.30
     Davidson diagonalization with overlap
     ethr =  4.63E-09,  avg # of iterations =  2.0

     total cpu time spent up to now is      234.6 secs

     total energy              =    -854.72613196 Ry
     estimated scf accuracy    <       0.00000246 Ry

     iteration #  9     ecut=   100.00 Ry     beta= 0.30
     Davidson diagonalization with overlap
     ethr =  8.64E-10,  avg # of iterations =  2.0

     total cpu time spent up to now is      235.5 secs

     total energy              =    -854.72613209 Ry
     estimated scf accuracy    <       0.00000020 Ry

     iteration # 10     ecut=   100.00 Ry     beta= 0.30
     Davidson diagonalization with overlap
     ethr =  6.99E-11,  avg # of iterations =  5.0

     total cpu time spent up to now is      236.6 secs

     total energy              =    -854.72613214 Ry
     estimated scf accuracy    <       0.00000005 Ry

     iteration # 11     ecut=   100.00 Ry     beta= 0.30
     Davidson diagonalization with overlap
     ethr =  1.84E-11,  avg # of iterations =  4.0

     total cpu time spent up to now is      237.5 secs

     total energy              =    -854.72613214 Ry
     estimated scf accuracy    <       0.00000018 Ry

     iteration # 12     ecut=   100.00 Ry     beta= 0.30
     Davidson diagonalization with overlap
     ethr =  1.84E-11,  avg # of iterations =  1.0

     total cpu time spent up to now is      238.3 secs

     total energy              =    -854.72613214 Ry
     estimated scf accuracy    <          1.3E-09 Ry

     iteration # 13     ecut=   100.00 Ry     beta= 0.30
     Davidson diagonalization with overlap
     ethr =  4.45E-13,  avg # of iterations =  5.0

     total cpu time spent up to now is      239.5 secs

     total energy              =    -854.72613214 Ry
     estimated scf accuracy    <          1.6E-10 Ry

     iteration # 14     ecut=   100.00 Ry     beta= 0.30
     Davidson diagonalization with overlap
     ethr =  1.00E-13,  avg # of iterations =  2.0

     total cpu time spent up to now is      240.3 secs

     total energy              =    -854.72613214 Ry
     estimated scf accuracy    <          1.3E-10 Ry

     iteration # 15     ecut=   100.00 Ry     beta= 0.30
     Davidson diagonalization with overlap
     ethr =  1.00E-13,  avg # of iterations =  1.0

     total cpu time spent up to now is      241.1 secs

     End of self-consistent calculation

          k = 0.0000 0.0000 0.0000 (171510 PWs)   bands (ev):

   -23.8000 -23.2400 -23.2030 -23.1778 -23.1553 -23.1235 -22.8863 -21.9339
   -21.9044 -21.8956 -21.8675 -21.8136 -21.6475 -21.3161 -21.2579 -21.2450
   -21.2198 -21.1518 -20.7207 -19.4551 -19.4477 -19.4424 -19.4325 -19.4318
   -19.4040 -19.3877 -19.3736 -19.3490 -19.3039 -19.2492 -18.8276 -18.6081
   -18.5347 -18.0193 -17.5085 -17.4431 -17.3680 -16.9896 -16.8431 -16.8011
   -16.4432 -15.7894 -15.7700 -15.7692 -15.7446 -15.7431 -15.7308 -15.7166
   -15.7127 -15.6769 -15.4243 -15.4086 -14.8028 -14.7311 -14.4405 -14.0032
   -13.9994 -13.9315 -13.7645 -13.7265 -13.0021 -12.4516 -12.4288 -12.4001
   -12.3873 -12.3794 -12.3707 -12.3638 -12.3315 -12.3204 -12.2872 -12.2134
   -12.1791 -12.1521 -12.0591 -12.0452 -11.8778 -11.6232 -11.5780 -11.1770
   -11.1566 -11.1381 -11.1171 -11.0905 -10.9051 -10.8296 -10.8226 -10.8144
   -10.7519 -10.7057 -10.6937 -10.6716 -10.4355 -10.4248 -10.2121 -10.1669
   -10.1512 -10.0837 -10.0397  -9.8699  -9.8482  -9.6942  -9.6634  -9.6553
    -9.6366  -9.6328  -9.6323  -9.6051  -9.5669  -9.3875  -8.9741  -8.9541
    -8.9223  -8.9103  -8.9039  -8.8775  -8.8665  -8.5581  -8.5494  -8.5031
    -8.4395  -8.4222  -8.0256  -7.6154  -7.5024  -7.0009  -6.9850  -6.9793
    -6.9757  -6.9566  -6.9449  -6.9287  -6.9176  -6.9015  -6.8919  -6.8642
    -6.7373  -6.6698  -6.5829  -5.4350  -4.3845  -4.2541  -4.2338  -4.1543
    -3.7255  -3.3631  -2.6174  -2.5308  -2.4635  -1.8882  -1.8573  -1.8122
    -1.7910  -1.7712  -1.7573  -1.7422  -1.7247  -1.6841  -1.5339  -1.5133
    -0.9549  -0.3289  -0.1008  -0.0967  -0.0897  -0.0817  -0.0675  -0.0599
     0.0559   0.5544   0.6010   0.6373

     the Fermi energy is    -4.2389 ev

!    total energy              =    -854.72613214 Ry
     estimated scf accuracy    <          1.0E-11 Ry
     smearing contrib. (-TS)   =      -0.00601862 Ry
     internal energy E=F+TS    =    -854.72011352 Ry

     The total energy is F=E-TS. E is the sum of the following terms:
     one-electron contribution =   -9611.45515041 Ry
     hartree contribution      =    4832.01412075 Ry
     xc contribution           =    -303.88376416 Ry
     ewald contribution        =    4228.60468030 Ry

     convergence has been achieved in  15 iterations

     Forces acting on atoms (cartesian axes, Ry/au):

     atom    1 type  1   force =    -0.00040380    0.00036771   -0.00000000
     atom    2 type  1   force =     0.00048906   -0.00084691   -0.00000001
     atom    3 type  1   force =    -0.00011686    0.00053421   -0.00000001
     atom    4 type  1   force =     0.00135293   -0.00081227   -0.00000001
     atom    5 type  1   force =     0.00174762    0.00024600   -0.00000002
     atom    6 type  1   force =     0.00131067   -0.00094552    0.00000005
     atom    7 type  1   force =     0.00069293    0.00012511    0.00000000
     atom    8 type  1   force =     0.00036885   -0.00063895    0.00000002
     atom    9 type  1   force =    -0.00045424   -0.00053804   -0.00000001
     atom   10 type  1   force =     0.00016344   -0.00160776    0.00000001
     atom   11 type  1   force =    -0.00108615   -0.00139068   -0.00000003
     atom   12 type  1   force =     0.00002611   -0.00157715    0.00000002
     atom   13 type  1   force =     0.00049836   -0.00086379    0.00000002
     atom   14 type  1   force =     0.00087124    0.00003548   -0.00000001
     atom   15 type  1   force =     0.00211526    0.00012808    0.00000000
     atom   16 type  1   force =     0.00105458    0.00001384   -0.00000003
     atom   17 type  1   force =     0.00141159   -0.00050710   -0.00000000
     atom   18 type  1   force =     0.00239448   -0.00148580    0.00000001
     atom   19 type  1   force =     0.00021511   -0.00037518   -0.00000005
     atom   20 type  1   force =     0.00009170   -0.00281750    0.00000002
     atom   21 type  1   force =    -0.00026738   -0.00147601    0.00000003
     atom   22 type  1   force =    -0.00053902   -0.00090535   -0.00000002
     atom   23 type  1   force =    -0.00116784   -0.00176862    0.00000000
     atom   24 type  1   force =    -0.00046659   -0.00073617   -0.00000000
     atom   25 type  1   force =     0.00073710    0.00015358   -0.00000001
     atom   26 type  1   force =     0.00107893    0.00056328   -0.00000003
     atom   27 type  1   force =     0.00090181    0.00052410    0.00000003
     atom   28 type  1   force =     0.00182419    0.00009847    0.00000001
     atom   29 type  1   force =     0.00010210   -0.00099839    0.00000000
     atom   30 type  1   force =     0.00081295   -0.00058706   -0.00000002
     atom   31 type  1   force =    -0.00099828   -0.00152953    0.00000001
     atom   32 type  1   force =    -0.00090366   -0.00051963   -0.00000001
     atom   33 type  1   force =    -0.00102805   -0.00065173    0.00000002
     atom   34 type  1   force =    -0.00050232   -0.00056254   -0.00000002
     atom   35 type  1   force =    -0.00012256    0.00021345    0.00000001
     atom   36 type  1   force =     0.00027710    0.00126863    0.00000002
     atom   37 type  1   force =     0.00010098    0.00027099    0.00000001
     atom   38 type  1   force =    -0.00065371    0.00013439   -0.00000001
     atom   39 type  1   force =     0.00008902    0.00269550   -0.00000001
     atom   40 type  1   force =    -0.00108028    0.00187083    0.00000001
     atom   41 type  1   force =    -0.00237907    0.00127143    0.00000004
     atom   42 type  1   force =     0.00021112    0.00063130   -0.00000001
     atom   43 type  1   force =    -0.00028516    0.00004821   -0.00000003
     atom   44 type  1   force =    -0.00123663    0.00039394   -0.00000001
     atom   45 type  1   force =    -0.00058650    0.00031207   -0.00000003
     atom   46 type  1   force =    -0.00029306    0.00050724    0.00000002
     atom   47 type  1   force =     0.00002310    0.00066408   -0.00000000
     atom   48 type  1   force =     0.00051817    0.00122404   -0.00000001
     atom   49 type  1   force =     0.00052872    0.00038174   -0.00000001
     atom   50 type  1   force =    -0.00008830    0.00260928    0.00000005
     atom   51 type  1   force =    -0.00010689    0.00018343   -0.00000003
     atom   52 type  1   force =    -0.00221437    0.00138147   -0.00000003
     atom   53 type  1   force =    -0.00059567   -0.00026744   -0.00000000
     atom   54 type  1   force =    -0.00131865    0.00016363   -0.00000001
     atom   55 type  1   force =    -0.00052392   -0.00011104    0.00000000
     atom   56 type  1   force =    -0.00089685    0.00070886    0.00000003
     atom   57 type  1   force =    -0.00042571    0.00073861   -0.00000001
     atom   58 type  1   force =    -0.00016590    0.00113062    0.00000001
     atom   59 type  1   force =     0.00035798    0.00039784   -0.00000002
     atom   60 type  1   force =    -0.00084995    0.00157003   -0.00000003
     atom   61 type  1   force =     0.00106069   -0.00088936   -0.00000001
     atom   62 type  1   force =    -0.00117716    0.00204030    0.00000003
     atom   63 type  1   force =     0.00023933   -0.00136425    0.00000001
     atom   64 type  1   force =    -0.00093490    0.00152209    0.00000003
     atom   65 type  1   force =     0.00042345   -0.00055455   -0.00000001
     atom   66 type  1   force =    -0.00070997    0.00051768    0.00000001
     atom   67 type  1   force =     0.00054575   -0.00025356   -0.00000001
     atom   68 type  1   force =    -0.00017924    0.00030895   -0.00000001
     atom   69 type  1   force =    -0.00005269   -0.00059821    0.00000000
     atom   70 type  1   force =    -0.00009363    0.00087297   -0.00000000
     atom   71 type  1   force =     0.00026854   -0.00064338    0.00000003

     Total force =     0.011610     Total SCF correction =     0.000006
     Energy error            =      3.9E-04 Ry
     Gradient error          =      2.8E-03 Ry/Bohr

     number of scf cycles    =  15
     number of bfgs steps    =  14

     energy             old  =    -854.7257448499 Ry
     energy             new  =    -854.7261321413 Ry

     CASE: energy            _new < energy            _old

     new trust radius        =       0.0073113388 bohr
     new conv_thr            =            2.8E-11 Ry


ATOMIC_POSITIONS (crystal)
C                0.0565137971        0.0551662913       -0.0000000001
C                0.1121532436        0.1105900356        0.0000000031
C                0.0565137870        0.2216532472        0.0000000006
C                0.1123845755        0.2778436682        0.0000000009
C                0.0559101482        0.3890119289       -0.0000000031
C                0.1108601584        0.4449077975       -0.0000000040
C                0.0530733532        0.5566390196       -0.0000000014
C                0.1083951705        0.6124690863        0.0000000044
C                0.0530733385        0.7236209760        0.0000000047
C                0.1108601713        0.7775653611        0.0000000017
C                0.0559101389        0.8884112691        0.0000000034
C                0.1123845747        0.9431050649        0.0000000008
C                0.2232005355        0.0550663928        0.0000000033
C                0.2785966867        0.1111151621        0.0000000046
C                0.2224491862        0.2231319444        0.0000000033
C                0.2778687884        0.2796244508        0.0000000012
C                0.2213617384        0.3900592235       -0.0000000024
C                0.2768417252        0.4475709464       -0.0000000025
C                0.2171672292        0.5580830426        0.0000000049
C                0.2768417743        0.6089206932        0.0000000022
C                0.2213617256        0.7219123621        0.0000000031
C                0.2778687847        0.7758400947        0.0000000053
C                0.2224492007        0.8877521915        0.0000000019
C                0.2785966651        0.9436214868        0.0000000039
C                0.3886539177        0.0567517986        0.0000000017
C                0.4444760919        0.1142094291       -0.0000000028
C                0.3887629289        0.2268972561       -0.0000000006
C                0.4445453671        0.2855403762       -0.0000000017
C                0.3843911643        0.3983347533       -0.0000000052
C                0.3843911733        0.5506073823        0.0000000132
C                0.4445453168        0.6032476142        0.0000000043
C                0.3887629525        0.7176731309        0.0000000051
C                0.4444760498        0.7746478296        0.0000000023
C                0.3886539364        0.8879275978        0.0000000059
C                0.4441399261        0.9445967182        0.0000000032
C                0.5544098706        0.0575314854       -0.0000000027
C                0.6099545686        0.1135194648        0.0000000011
C                0.5553513138        0.2237220835        0.0000000047
C                0.6139402388        0.2770885849        0.0000000032
C                0.5664079454        0.3834627043        0.0000000114
C                0.6139402143        0.4423045631        0.0000000049
C                0.5553513482        0.5542599069        0.0000000015
C                0.6099545514        0.6098593070        0.0000000027
C                0.5544098899        0.7213919589       -0.0000000035
C                0.6104670360        0.7776265285       -0.0000000058
C                0.5549671092        0.8891831096       -0.0000000064
C                0.6104670329        0.9452397536       -0.0000000075
C                0.7221202894        0.0563624637       -0.0000000024
C                0.7795527867        0.1098277948       -0.0000000044
C                0.7249485612        0.2213120991       -0.0000000052
C                0.7802100096        0.2765616550       -0.0000000004
C                0.7249485679        0.3870727154        0.0000000081
C                0.7795528028        0.4439527375       -0.0000000015
C                0.7221202950        0.5548505842       -0.0000000033
C                0.7770897028        0.6106850485       -0.0000000042
C                0.7207337877        0.7228151419       -0.0000000079
C                0.7763779288        0.7784777047       -0.0000000050
C                0.7207337936        0.8897844044       -0.0000000069
C                0.7770896984        0.9455585764       -0.0000000053
C                0.8896594656        0.0548851202       -0.0000000005
C                0.9463979899        0.1102484706       -0.0000000025
C                0.8913544334        0.2209894677       -0.0000000045
C                0.9463980137        0.2766868366       -0.0000000063
C                0.8896594599        0.3887887626       -0.0000000077
C                0.9445637923        0.4446881483       -0.0000000071
C                0.8875838745        0.5556107077       -0.0000000049
C                0.9433572708        0.6117470317       -0.0000000006
C                0.8875416915        0.7228958090       -0.0000000008
C                0.9433572519        0.7782290597        0.0000000031
C                0.8875838722        0.8901387464       -0.0000000010
C                0.9445637754        0.9440813962        0.0000000019



     Writing config-only to output data dir /home/gregb26/links/scratch/qe_tmp/vacancy_relaxed/series/6x6/nspin1/vac_6x6_relax_nspin1.save/ :
     XML data file
     NEW-OLD atomic charge density approx. for the potential

     negative rho (up, down):  1.157E-06 0.000E+00

     total cpu time spent up to now is      241.9 secs

     per-process dynamical memory:   205.7 Mb

     Self-consistent Calculation

     iteration #  1     ecut=   100.00 Ry     beta= 0.30
     Davidson diagonalization with overlap
     ethr =  1.00E-06,  avg # of iterations =  5.0

     negative rho (up, down):  7.558E-07 0.000E+00

     total cpu time spent up to now is      243.3 secs

     total energy              =    -854.72604927 Ry
     estimated scf accuracy    <       0.00055003 Ry

     iteration #  2     ecut=   100.00 Ry     beta= 0.30
     Davidson diagonalization with overlap
     ethr =  1.94E-07,  avg # of iterations =  4.0

     negative rho (up, down):  7.339E-07 0.000E+00

     total cpu time spent up to now is      244.3 secs

     total energy              =    -854.72501544 Ry
     estimated scf accuracy    <       0.06460216 Ry

     iteration #  3     ecut=   100.00 Ry     beta= 0.30
     Davidson diagonalization with overlap
     ethr =  1.94E-07,  avg # of iterations =  3.0

     negative rho (up, down):  4.258E-07 0.000E+00

     total cpu time spent up to now is      245.2 secs

     total energy              =    -854.72629929 Ry
     estimated scf accuracy    <       0.00003376 Ry

     iteration #  4     ecut=   100.00 Ry     beta= 0.30
     Davidson diagonalization with overlap
     ethr =  1.19E-08,  avg # of iterations =  4.0

     negative rho (up, down):  1.462E-07 0.000E+00

     total cpu time spent up to now is      246.1 secs

     total energy              =    -854.72630314 Ry
     estimated scf accuracy    <       0.00001094 Ry

     iteration #  5     ecut=   100.00 Ry     beta= 0.30
     Davidson diagonalization with overlap
     ethr =  3.85E-09,  avg # of iterations =  2.0

     negative rho (up, down):  4.172E-08 0.000E+00

     total cpu time spent up to now is      247.0 secs

     total energy              =    -854.72630401 Ry
     estimated scf accuracy    <       0.00000165 Ry

     iteration #  6     ecut=   100.00 Ry     beta= 0.30
     Davidson diagonalization with overlap
     ethr =  5.83E-10,  avg # of iterations =  2.0

     negative rho (up, down):  2.128E-08 0.000E+00

     total cpu time spent up to now is      248.0 secs

     total energy              =    -854.72630425 Ry
     estimated scf accuracy    <       0.00000073 Ry

     iteration #  7     ecut=   100.00 Ry     beta= 0.30
     Davidson diagonalization with overlap
     ethr =  2.57E-10,  avg # of iterations =  2.0

     total cpu time spent up to now is      248.8 secs

     total energy              =    -854.72630430 Ry
     estimated scf accuracy    <       0.00000024 Ry

     iteration #  8     ecut=   100.00 Ry     beta= 0.30
     Davidson diagonalization with overlap
     ethr =  8.60E-11,  avg # of iterations =  2.0

     total cpu time spent up to now is      249.6 secs

     total energy              =    -854.72630431 Ry
     estimated scf accuracy    <       0.00000004 Ry

     iteration #  9     ecut=   100.00 Ry     beta= 0.30
     Davidson diagonalization with overlap
     ethr =  1.50E-11,  avg # of iterations =  5.0

     total cpu time spent up to now is      250.7 secs

     total energy              =    -854.72630432 Ry
     estimated scf accuracy    <          3.4E-09 Ry

     iteration # 10     ecut=   100.00 Ry     beta= 0.30
     Davidson diagonalization with overlap
     ethr =  1.19E-12,  avg # of iterations =  4.0

     total cpu time spent up to now is      251.9 secs

     total energy              =    -854.72630432 Ry
     estimated scf accuracy    <          1.3E-09 Ry

     iteration # 11     ecut=   100.00 Ry     beta= 0.30
     Davidson diagonalization with overlap
     ethr =  4.41E-13,  avg # of iterations =  2.0

     total cpu time spent up to now is      252.7 secs

     total energy              =    -854.72630432 Ry
     estimated scf accuracy    <          1.7E-10 Ry

     iteration # 12     ecut=   100.00 Ry     beta= 0.30
     Davidson diagonalization with overlap
     ethr =  1.00E-13,  avg # of iterations =  2.0

     total cpu time spent up to now is      253.5 secs

     total energy              =    -854.72630432 Ry
     estimated scf accuracy    <          1.8E-10 Ry

     iteration # 13     ecut=   100.00 Ry     beta= 0.30
     Davidson diagonalization with overlap
     ethr =  1.00E-13,  avg # of iterations =  1.0

     total cpu time spent up to now is      254.2 secs

     total energy              =    -854.72630432 Ry
     estimated scf accuracy    <          2.1E-10 Ry

     iteration # 14     ecut=   100.00 Ry     beta= 0.30
     Davidson diagonalization with overlap
     ethr =  1.00E-13,  avg # of iterations =  1.0

     total cpu time spent up to now is      255.0 secs

     total energy              =    -854.72630432 Ry
     estimated scf accuracy    <          5.6E-11 Ry

     iteration # 15     ecut=   100.00 Ry     beta= 0.30
     Davidson diagonalization with overlap
     ethr =  1.00E-13,  avg # of iterations =  1.0

     total cpu time spent up to now is      255.7 secs

     End of self-consistent calculation

          k = 0.0000 0.0000 0.0000 (171510 PWs)   bands (ev):

   -23.7974 -23.2389 -23.1972 -23.1752 -23.1521 -23.1263 -22.8898 -21.9318
   -21.9036 -21.8956 -21.8644 -21.8128 -21.6454 -21.3168 -21.2573 -21.2433
   -21.2197 -21.1518 -20.7259 -19.4554 -19.4428 -19.4415 -19.4336 -19.4283
   -19.4006 -19.3858 -19.3712 -19.3471 -19.3078 -19.2544 -18.8286 -18.6084
   -18.5333 -18.0238 -17.5093 -17.4413 -17.3693 -16.9903 -16.8424 -16.7984
   -16.4423 -15.7911 -15.7715 -15.7671 -15.7441 -15.7438 -15.7282 -15.7149
   -15.7110 -15.6735 -15.4232 -15.4089 -14.8034 -14.7320 -14.4420 -14.0041
   -13.9985 -13.9321 -13.7626 -13.7266 -13.0082 -12.4485 -12.4318 -12.4003
   -12.3860 -12.3776 -12.3698 -12.3554 -12.3321 -12.3182 -12.2876 -12.2116
   -12.1791 -12.1513 -12.0581 -12.0408 -11.8759 -11.6269 -11.5820 -11.1761
   -11.1521 -11.1362 -11.1143 -11.0929 -10.9099 -10.8331 -10.8265 -10.8129
   -10.7545 -10.7046 -10.6868 -10.6690 -10.4320 -10.4247 -10.2181 -10.1674
   -10.1491 -10.0872 -10.0362  -9.8726  -9.8449  -9.6905  -9.6642  -9.6541
    -9.6359  -9.6323  -9.6276  -9.6030  -9.5664  -9.3864  -8.9751  -8.9555
    -8.9217  -8.9118  -8.9029  -8.8769  -8.8668  -8.5576  -8.5556  -8.5012
    -8.4434  -8.4188  -8.0404  -7.6208  -7.4942  -7.0018  -6.9835  -6.9803
    -6.9751  -6.9569  -6.9444  -6.9281  -6.9168  -6.9016  -6.8921  -6.8623
    -6.7383  -6.6710  -6.5799  -5.4400  -4.3874  -4.2540  -4.2331  -4.1509
    -3.7275  -3.3551  -2.6211  -2.5291  -2.4619  -1.8900  -1.8594  -1.8134
    -1.7929  -1.7742  -1.7583  -1.7401  -1.7236  -1.6826  -1.5328  -1.5112
    -0.9547  -0.3303  -0.0999  -0.0957  -0.0890  -0.0818  -0.0676  -0.0606
     0.0542   0.5536   0.6003   0.6369

     the Fermi energy is    -4.2384 ev

!    total energy              =    -854.72630432 Ry
     estimated scf accuracy    <          3.1E-12 Ry
     smearing contrib. (-TS)   =      -0.00581862 Ry
     internal energy E=F+TS    =    -854.72048570 Ry

     The total energy is F=E-TS. E is the sum of the following terms:
     one-electron contribution =   -9611.16252093 Ry
     hartree contribution      =    4831.86568335 Ry
     xc contribution           =    -303.87644769 Ry
     ewald contribution        =    4228.45279957 Ry

     convergence has been achieved in  15 iterations

     Forces acting on atoms (cartesian axes, Ry/au):

     atom    1 type  1   force =    -0.00070422   -0.00075298    0.00000000
     atom    2 type  1   force =    -0.00005168    0.00009003   -0.00000001
     atom    3 type  1   force =     0.00100397    0.00023255   -0.00000001
     atom    4 type  1   force =     0.00054856    0.00133205    0.00000000
     atom    5 type  1   force =     0.00050098   -0.00141538   -0.00000001
     atom    6 type  1   force =     0.00030751    0.00127937    0.00000001
     atom    7 type  1   force =     0.00084718   -0.00113015    0.00000001
     atom    8 type  1   force =     0.00014564   -0.00025237   -0.00000001
     atom    9 type  1   force =     0.00055515   -0.00129891   -0.00000001
     atom   10 type  1   force =    -0.00126182    0.00037423    0.00000002
     atom   11 type  1   force =     0.00097462   -0.00114204   -0.00000001
     atom   12 type  1   force =    -0.00142708    0.00019120    0.00000001
     atom   13 type  1   force =     0.00085667   -0.00148370    0.00000001
     atom   14 type  1   force =    -0.00009340   -0.00095450   -0.00000001
     atom   15 type  1   force =     0.00193681   -0.00023158   -0.00000000
     atom   16 type  1   force =     0.00108605    0.00013855   -0.00000002
     atom   17 type  1   force =     0.00070797   -0.00028021    0.00000001
     atom   18 type  1   force =    -0.00050152    0.00056559    0.00000001
     atom   19 type  1   force =     0.00103213   -0.00178514   -0.00000003
     atom   20 type  1   force =    -0.00024189    0.00071733    0.00000005
     atom   21 type  1   force =    -0.00011013   -0.00075339   -0.00000001
     atom   22 type  1   force =    -0.00066306   -0.00087160   -0.00000000
     atom   23 type  1   force =    -0.00076841   -0.00179280    0.00000001
     atom   24 type  1   force =     0.00087393   -0.00039713    0.00000001
     atom   25 type  1   force =    -0.00003188    0.00066825    0.00000000
     atom   26 type  1   force =    -0.00000737   -0.00055809    0.00000002
     atom   27 type  1   force =     0.00129501   -0.00034826   -0.00000001
     atom   28 type  1   force =    -0.00050708   -0.00093526    0.00000001
     atom   29 type  1   force =     0.00133928   -0.00061532    0.00000002
     atom   30 type  1   force =    -0.00013612   -0.00146758   -0.00000005
     atom   31 type  1   force =     0.00106445   -0.00003039    0.00000001
     atom   32 type  1   force =    -0.00034670   -0.00129461    0.00000000
     atom   33 type  1   force =     0.00048806   -0.00027426    0.00000000
     atom   34 type  1   force =    -0.00056270    0.00036283   -0.00000002
     atom   35 type  1   force =    -0.00013035    0.00022446   -0.00000002
     atom   36 type  1   force =     0.00049062    0.00068859   -0.00000001
     atom   37 type  1   force =     0.00016567    0.00069082   -0.00000001
     atom   38 type  1   force =     0.00041374    0.00060625   -0.00000001
     atom   39 type  1   force =    -0.00023946   -0.00040867   -0.00000001
     atom   40 type  1   force =    -0.00107412    0.00186061   -0.00000000
     atom   41 type  1   force =     0.00047348    0.00000156    0.00000003
     atom   42 type  1   force =    -0.00073232   -0.00005285    0.00000001
     atom   43 type  1   force =    -0.00068068    0.00020112   -0.00000005
     atom   44 type  1   force =    -0.00084227   -0.00007936    0.00000003
     atom   45 type  1   force =    -0.00007249    0.00112606   -0.00000002
     atom   46 type  1   force =    -0.00023104    0.00040011    0.00000002
     atom   47 type  1   force =    -0.00093860    0.00062583    0.00000001
     atom   48 type  1   force =     0.00068864   -0.00001965   -0.00000000
     atom   49 type  1   force =    -0.00067918    0.00094104    0.00000000
     atom   50 type  1   force =    -0.00044336    0.00102032    0.00000001
     atom   51 type  1   force =    -0.00136545    0.00236698    0.00000000
     atom   52 type  1   force =    -0.00066353    0.00089370   -0.00000003
     atom   53 type  1   force =    -0.00047474    0.00105942    0.00000001
     atom   54 type  1   force =    -0.00032773   -0.00060614    0.00000002
     atom   55 type  1   force =    -0.00034632   -0.00014294   -0.00000002
     atom   56 type  1   force =    -0.00060457    0.00019452    0.00000002
     atom   57 type  1   force =    -0.00036035    0.00062375   -0.00000001
     atom   58 type  1   force =     0.00013352    0.00062102    0.00000000
     atom   59 type  1   force =     0.00029731    0.00022866    0.00000001
     atom   60 type  1   force =     0.00080090   -0.00031890   -0.00000002
     atom   61 type  1   force =    -0.00082510    0.00066113   -0.00000000
     atom   62 type  1   force =    -0.00002122    0.00003487    0.00000000
     atom   63 type  1   force =    -0.00015919    0.00104652    0.00000002
     atom   64 type  1   force =    -0.00012446   -0.00085416    0.00000000
     atom   65 type  1   force =    -0.00027724    0.00084725    0.00000001
     atom   66 type  1   force =    -0.00030010   -0.00090552    0.00000000
     atom   67 type  1   force =    -0.00015125    0.00022608   -0.00000001
     atom   68 type  1   force =     0.00023342   -0.00040314    0.00000001
     atom   69 type  1   force =    -0.00012078    0.00024325   -0.00000001
     atom   70 type  1   force =     0.00093437   -0.00019240    0.00000001
     atom   71 type  1   force =    -0.00059472    0.00066346   -0.00000000

     Total force =     0.009247     Total SCF correction =     0.000003
     Energy error            =      1.7E-04 Ry
     Gradient error          =      2.4E-03 Ry/Bohr

     number of scf cycles    =  16
     number of bfgs steps    =  15

     energy             old  =    -854.7261321413 Ry
     energy             new  =    -854.7263043209 Ry

     CASE: energy            _new < energy            _old

     new trust radius        =       0.0101948810 bohr
     new conv_thr            =            1.7E-11 Ry


ATOMIC_POSITIONS (crystal)
C                0.0565441674        0.0551233192       -0.0000000001
C                0.1121703421        0.1105814972        0.0000000022
C                0.0565441732        0.2216658111        0.0000000001
C                0.1123795891        0.2778800197       -0.0000000001
C                0.0559794545        0.3890205924       -0.0000000039
C                0.1109258690        0.4449399682       -0.0000000022
C                0.0531607218        0.5566192697       -0.0000000004
C                0.1085143666        0.6124094861        0.0000000038
C                0.0531607279        0.7235533489        0.0000000039
C                0.1109258300        0.7774675245        0.0000000021
C                0.0559794703        0.8883332588        0.0000000023
C                0.1123795774        0.9430737332        0.0000000016
C                0.2232493544        0.0550419804        0.0000000049
C                0.2786175296        0.1111168264        0.0000000045
C                0.2225035044        0.2231608041        0.0000000028
C                0.2779138675        0.2796286918       -0.0000000001
C                0.2214984796        0.3900425736       -0.0000000010
C                0.2770076298        0.4475149901       -0.0000000019
C                0.2173607380        0.5579863352        0.0000000031
C                0.2770076090        0.6088107005        0.0000000039
C                0.2214985193        0.7217922854        0.0000000037
C                0.2779138613        0.7757907701        0.0000000050
C                0.2225035207        0.8876689994        0.0000000023
C                0.2786175442        0.9435989708        0.0000000041
C                0.3886635592        0.0567690652        0.0000000014
C                0.4444670990        0.1141951644       -0.0000000026
C                0.3887725108        0.2268772294       -0.0000000006
C                0.4445933758        0.2854285222       -0.0000000005
C                0.3845895842        0.3980811533       -0.0000000053
C                0.3845896068        0.5506625656        0.0000000113
C                0.4445934137        0.6033114091        0.0000000048
C                0.3887724835        0.7176835924        0.0000000051
C                0.4444671432        0.7746710513        0.0000000025
C                0.3886635392        0.8879007157        0.0000000042
C                0.4441199265        0.9446066997        0.0000000019
C                0.5544129471        0.0575310579       -0.0000000031
C                0.6099407185        0.1135199055        0.0000000012
C                0.5553379859        0.2236931035        0.0000000038
C                0.6136939858        0.2772361029        0.0000000031
C                0.5659868946        0.3836732342        0.0000000113
C                0.6136940079        0.4424032283        0.0000000058
C                0.5553379290        0.5543022985        0.0000000016
C                0.6099407436        0.6098726855        0.0000000006
C                0.5544129013        0.7213893461       -0.0000000022
C                0.6103879139        0.7776593213       -0.0000000064
C                0.5549760938        0.8891786093       -0.0000000056
C                0.6103879199        0.9452861019       -0.0000000069
C                0.7221138631        0.0563752579       -0.0000000030
C                0.7794188416        0.1099627157       -0.0000000041
C                0.7247607050        0.2214536718       -0.0000000033
C                0.7800331777        0.2766501029       -0.0000000008
C                0.7247606891        0.3871189624        0.0000000062
C                0.7794188411        0.4439517960       -0.0000000013
C                0.7221138461        0.5548442150       -0.0000000025
C                0.7770596065        0.6106659322       -0.0000000040
C                0.7207341469        0.7228025007       -0.0000000065
C                0.7763391163        0.7784971157       -0.0000000052
C                0.7207341441        0.8897966676       -0.0000000063
C                0.7770596046        0.9456078099       -0.0000000057
C                0.8896416320        0.0549165797       -0.0000000013
C                0.9463293350        0.1102894282       -0.0000000033
C                0.8912915736        0.2210208648       -0.0000000037
C                0.9463293310        0.2767146003       -0.0000000052
C                0.8896416487        0.3887751007       -0.0000000070
C                0.9445482299        0.4446901100       -0.0000000068
C                0.8876031338        0.5556175898       -0.0000000054
C                0.9433895701        0.6117271956       -0.0000000008
C                0.8875348886        0.7228992247       -0.0000000009
C                0.9433895531        0.7782165745        0.0000000025
C                0.8876031274        0.8901126126       -0.0000000002
C                0.9445482200        0.9440950068        0.0000000023



     Writing config-only to output data dir /home/gregb26/links/scratch/qe_tmp/vacancy_relaxed/series/6x6/nspin1/vac_6x6_relax_nspin1.save/ :
     XML data file
     NEW-OLD atomic charge density approx. for the potential

     negative rho (up, down):  9.063E-07 0.000E+00

     total cpu time spent up to now is      256.6 secs

     per-process dynamical memory:   205.7 Mb

     Self-consistent Calculation

     iteration #  1     ecut=   100.00 Ry     beta= 0.30
     Davidson diagonalization with overlap
     ethr =  1.00E-06,  avg # of iterations =  5.0

     negative rho (up, down):  5.902E-07 0.000E+00

     total cpu time spent up to now is      257.9 secs

     total energy              =    -854.72615014 Ry
     estimated scf accuracy    <       0.00046371 Ry

     iteration #  2     ecut=   100.00 Ry     beta= 0.30
     Davidson diagonalization with overlap
     ethr =  1.63E-07,  avg # of iterations =  4.0

     negative rho (up, down):  5.755E-07 0.000E+00

     total cpu time spent up to now is      258.9 secs

     total energy              =    -854.72496108 Ry
     estimated scf accuracy    <       0.07598191 Ry

     iteration #  3     ecut=   100.00 Ry     beta= 0.30
     Davidson diagonalization with overlap
     ethr =  1.63E-07,  avg # of iterations =  4.0

     negative rho (up, down):  3.561E-07 0.000E+00

     total cpu time spent up to now is      259.8 secs

     total energy              =    -854.72634843 Ry
     estimated scf accuracy    <       0.00002867 Ry

     iteration #  4     ecut=   100.00 Ry     beta= 0.30
     Davidson diagonalization with overlap
     ethr =  1.01E-08,  avg # of iterations =  4.0

     negative rho (up, down):  1.464E-07 0.000E+00

     total cpu time spent up to now is      260.7 secs

     total energy              =    -854.72635016 Ry
     estimated scf accuracy    <       0.00003188 Ry

     iteration #  5     ecut=   100.00 Ry     beta= 0.30
     Davidson diagonalization with overlap
     ethr =  1.01E-08,  avg # of iterations =  2.0

     negative rho (up, down):  6.362E-08 0.000E+00

     total cpu time spent up to now is      261.6 secs

     total energy              =    -854.72635100 Ry
     estimated scf accuracy    <       0.00000574 Ry

     iteration #  6     ecut=   100.00 Ry     beta= 0.30
     Davidson diagonalization with overlap
     ethr =  2.02E-09,  avg # of iterations =  2.0

     negative rho (up, down):  2.190E-08 0.000E+00

     total cpu time spent up to now is      262.4 secs

     total energy              =    -854.72635131 Ry
     estimated scf accuracy    <       0.00000037 Ry

     iteration #  7     ecut=   100.00 Ry     beta= 0.30
     Davidson diagonalization with overlap
     ethr =  1.29E-10,  avg # of iterations =  5.0

     total cpu time spent up to now is      263.6 secs

     total energy              =    -854.72635140 Ry
     estimated scf accuracy    <       0.00000008 Ry

     iteration #  8     ecut=   100.00 Ry     beta= 0.30
     Davidson diagonalization with overlap
     ethr =  2.88E-11,  avg # of iterations =  2.0

     total cpu time spent up to now is      264.5 secs

     total energy              =    -854.72635141 Ry
     estimated scf accuracy    <       0.00000003 Ry

     iteration #  9     ecut=   100.00 Ry     beta= 0.30
     Davidson diagonalization with overlap
     ethr =  1.07E-11,  avg # of iterations =  4.0

     total cpu time spent up to now is      265.4 secs

     total energy              =    -854.72635141 Ry
     estimated scf accuracy    <          2.9E-09 Ry

     iteration # 10     ecut=   100.00 Ry     beta= 0.30
     Davidson diagonalization with overlap
     ethr =  1.04E-12,  avg # of iterations =  5.0

     total cpu time spent up to now is      266.5 secs

     total energy              =    -854.72635141 Ry
     estimated scf accuracy    <          5.7E-10 Ry

     iteration # 11     ecut=   100.00 Ry     beta= 0.30
     Davidson diagonalization with overlap
     ethr =  1.99E-13,  avg # of iterations =  3.0

     total cpu time spent up to now is      267.4 secs

     total energy              =    -854.72635141 Ry
     estimated scf accuracy    <          1.1E-10 Ry

     iteration # 12     ecut=   100.00 Ry     beta= 0.30
     Davidson diagonalization with overlap
     ethr =  1.00E-13,  avg # of iterations =  2.0

     total cpu time spent up to now is      268.2 secs

     total energy              =    -854.72635141 Ry
     estimated scf accuracy    <          2.0E-11 Ry

     iteration # 13     ecut=   100.00 Ry     beta= 0.30
     Davidson diagonalization with overlap
     ethr =  1.00E-13,  avg # of iterations =  1.0

     total cpu time spent up to now is      269.0 secs

     End of self-consistent calculation

          k = 0.0000 0.0000 0.0000 (171510 PWs)   bands (ev):

   -23.7959 -23.2381 -23.1939 -23.1717 -23.1514 -23.1303 -22.8933 -21.9312
   -21.9036 -21.8949 -21.8640 -21.8144 -21.6431 -21.3161 -21.2572 -21.2422
   -21.2203 -21.1553 -20.7291 -19.4570 -19.4411 -19.4397 -19.4359 -19.4245
   -19.4003 -19.3844 -19.3723 -19.3460 -19.3091 -19.2582 -18.8265 -18.6079
   -18.5360 -18.0271 -17.5082 -17.4436 -17.3702 -16.9867 -16.8430 -16.8021
   -16.4415 -15.7918 -15.7703 -15.7662 -15.7445 -15.7437 -15.7303 -15.7161
   -15.7084 -15.6735 -15.4252 -15.4096 -14.8033 -14.7340 -14.4419 -14.0062
   -13.9995 -13.9338 -13.7636 -13.7261 -13.0114 -12.4494 -12.4321 -12.4001
   -12.3815 -12.3768 -12.3689 -12.3556 -12.3335 -12.3174 -12.2881 -12.2119
   -12.1797 -12.1492 -12.0583 -12.0442 -11.8748 -11.6301 -11.5839 -11.1753
   -11.1492 -11.1335 -11.1136 -11.0962 -10.9113 -10.8366 -10.8248 -10.8135
   -10.7541 -10.7049 -10.6887 -10.6717 -10.4316 -10.4222 -10.2206 -10.1682
   -10.1510 -10.0888 -10.0355  -9.8735  -9.8472  -9.6910  -9.6606  -9.6535
    -9.6359  -9.6321  -9.6293  -9.6024  -9.5680  -9.3848  -8.9746  -8.9544
    -8.9225  -8.9125  -8.9016  -8.8774  -8.8690  -8.5590  -8.5548  -8.5035
    -8.4462  -8.4205  -8.0480  -7.6158  -7.5003  -7.0010  -6.9817  -6.9799
    -6.9713  -6.9564  -6.9454  -6.9293  -6.9185  -6.9013  -6.8936  -6.8644
    -6.7354  -6.6706  -6.5835  -5.4440  -4.3833  -4.2546  -4.2322  -4.1557
    -3.7291  -3.3822  -2.6185  -2.5323  -2.4629  -1.8886  -1.8582  -1.8126
    -1.7896  -1.7717  -1.7602  -1.7437  -1.7258  -1.6857  -1.5336  -1.5154
    -0.9546  -0.3316  -0.0988  -0.0949  -0.0886  -0.0817  -0.0678  -0.0613
     0.0526   0.5539   0.5987   0.6369

     the Fermi energy is    -4.2385 ev

!    total energy              =    -854.72635141 Ry
     estimated scf accuracy    <          1.3E-11 Ry
     smearing contrib. (-TS)   =      -0.00608093 Ry
     internal energy E=F+TS    =    -854.72027048 Ry

     The total energy is F=E-TS. E is the sum of the following terms:
     one-electron contribution =   -9610.98761724 Ry
     hartree contribution      =    4831.77164044 Ry
     xc contribution           =    -303.87131429 Ry
     ewald contribution        =    4228.36702061 Ry

     convergence has been achieved in  13 iterations

     Forces acting on atoms (cartesian axes, Ry/au):

     atom    1 type  1   force =    -0.00083329    0.00066015   -0.00000000
     atom    2 type  1   force =     0.00003768   -0.00006643   -0.00000000
     atom    3 type  1   force =    -0.00015409    0.00105257   -0.00000001
     atom    4 type  1   force =     0.00098698    0.00027001    0.00000000
     atom    5 type  1   force =    -0.00031147   -0.00010376    0.00000000
     atom    6 type  1   force =    -0.00000959    0.00015643    0.00000001
     atom    7 type  1   force =     0.00066259   -0.00056213    0.00000001
     atom    8 type  1   force =     0.00040954   -0.00070881   -0.00000001
     atom    9 type  1   force =     0.00015486   -0.00085439   -0.00000000
     atom   10 type  1   force =    -0.00012991    0.00008475    0.00000001
     atom   11 type  1   force =     0.00024577    0.00021908    0.00000001
     atom   12 type  1   force =    -0.00072737   -0.00072084   -0.00000001
     atom   13 type  1   force =     0.00046591   -0.00080652   -0.00000000
     atom   14 type  1   force =     0.00018756   -0.00017394   -0.00000000
     atom   15 type  1   force =     0.00027132   -0.00010166   -0.00000001
     atom   16 type  1   force =     0.00109236    0.00016867    0.00000000
     atom   17 type  1   force =    -0.00003766    0.00095056    0.00000000
     atom   18 type  1   force =    -0.00084634    0.00005790   -0.00000000
     atom   19 type  1   force =     0.00027659   -0.00048242   -0.00000001
     atom   20 type  1   force =     0.00037539    0.00076153    0.00000003
     atom   21 type  1   force =    -0.00080623    0.00050878   -0.00000000
     atom   22 type  1   force =    -0.00069176   -0.00086197   -0.00000001
     atom   23 type  1   force =    -0.00004745   -0.00028476    0.00000001
     atom   24 type  1   force =     0.00005614   -0.00024910    0.00000001
     atom   25 type  1   force =    -0.00058962    0.00007394   -0.00000000
     atom   26 type  1   force =     0.00049875   -0.00041613    0.00000001
     atom   27 type  1   force =     0.00080672   -0.00115824   -0.00000001
     atom   28 type  1   force =    -0.00094086   -0.00073253    0.00000000
     atom   29 type  1   force =     0.00094123    0.00057829    0.00000001
     atom   30 type  1   force =    -0.00097157   -0.00052565   -0.00000003
     atom   31 type  1   force =     0.00110398    0.00045038    0.00000000
     atom   32 type  1   force =     0.00060055   -0.00127872   -0.00000000
     atom   33 type  1   force =     0.00010949   -0.00063825   -0.00000000
     atom   34 type  1   force =     0.00023130    0.00054666   -0.00000000
     atom   35 type  1   force =     0.00012953   -0.00022441   -0.00000002
     atom   36 type  1   force =     0.00003909    0.00106917   -0.00000000
     atom   37 type  1   force =     0.00027084    0.00009066   -0.00000002
     atom   38 type  1   force =     0.00033626    0.00011504   -0.00000001
     atom   39 type  1   force =     0.00054384   -0.00090742    0.00000000
     atom   40 type  1   force =    -0.00027545    0.00047627   -0.00000000
     atom   41 type  1   force =     0.00051432   -0.00092322    0.00000000
     atom   42 type  1   force =    -0.00026725   -0.00023646    0.00000001
     atom   43 type  1   force =    -0.00021423   -0.00018764   -0.00000001
     atom   44 type  1   force =    -0.00094442    0.00049888    0.00000000
     atom   45 type  1   force =     0.00102832   -0.00084150    0.00000000
     atom   46 type  1   force =    -0.00100795    0.00174647    0.00000001
     atom   47 type  1   force =     0.00021410   -0.00131162    0.00000001
     atom   48 type  1   force =     0.00089001    0.00093291    0.00000000
     atom   49 type  1   force =    -0.00042950   -0.00083251    0.00000001
     atom   50 type  1   force =    -0.00101980    0.00078879    0.00000000
     atom   51 type  1   force =    -0.00044723    0.00077266    0.00000001
     atom   52 type  1   force =    -0.00017201    0.00127755   -0.00000002
     atom   53 type  1   force =     0.00093520   -0.00004460    0.00000001
     atom   54 type  1   force =    -0.00125226   -0.00030484    0.00000001
     atom   55 type  1   force =     0.00120645   -0.00029821   -0.00000001
     atom   56 type  1   force =    -0.00144357    0.00105763    0.00000001
     atom   57 type  1   force =     0.00003763   -0.00006610    0.00000000
     atom   58 type  1   force =    -0.00019332    0.00177934   -0.00000000
     atom   59 type  1   force =    -0.00034552   -0.00119417    0.00000002
     atom   60 type  1   force =    -0.00002054    0.00108109   -0.00000000
     atom   61 type  1   force =    -0.00011088   -0.00075357    0.00000001
     atom   62 type  1   force =    -0.00073134    0.00126869   -0.00000000
     atom   63 type  1   force =     0.00070684   -0.00028183    0.00000001
     atom   64 type  1   force =    -0.00092550    0.00055925    0.00000001
     atom   65 type  1   force =     0.00044296    0.00015844    0.00000000
     atom   66 type  1   force =    -0.00099725   -0.00091566    0.00000001
     atom   67 type  1   force =     0.00028516    0.00057436   -0.00000001
     atom   68 type  1   force =     0.00050650   -0.00087759    0.00000001
     atom   69 type  1   force =    -0.00063945    0.00003986   -0.00000001
     atom   70 type  1   force =     0.00129180    0.00040575   -0.00000001
     atom   71 type  1   force =    -0.00035893   -0.00030488   -0.00000001

     Total force =     0.008246     Total SCF correction =     0.000007
     Energy error            =      4.7E-05 Ry
     Gradient error          =      1.8E-03 Ry/Bohr

     number of scf cycles    =  17
     number of bfgs steps    =  16

     energy             old  =    -854.7263043209 Ry
     energy             new  =    -854.7263514097 Ry

     CASE: energy            _new < energy            _old

     new trust radius        =       0.0016646391 bohr
     new conv_thr            =            4.7E-12 Ry


ATOMIC_POSITIONS (crystal)
C                0.0565278412        0.0551227575       -0.0000000000
C                0.1121776565        0.1105778243        0.0000000019
C                0.0565278455        0.2216827295       -0.0000000003
C                0.1124158772        0.2779003075       -0.0000000001
C                0.0559811443        0.3890325471       -0.0000000040
C                0.1109455755        0.4449443594       -0.0000000017
C                0.0531874815        0.5566233246        0.0000000001
C                0.1085647077        0.6123843236        0.0000000033
C                0.0531874650        0.7235225329        0.0000000035
C                0.1109455823        0.7774434042        0.0000000025
C                0.0559811370        0.8883196387        0.0000000021
C                0.1124158942        0.9430171354        0.0000000017
C                0.2232718790        0.0550307261        0.0000000051
C                0.2786314397        0.1111318402        0.0000000042
C                0.2225218978        0.2231801946        0.0000000025
C                0.2779518488        0.2796593203       -0.0000000005
C                0.2214869127        0.3900649684       -0.0000000006
C                0.2770300432        0.4475006727       -0.0000000018
C                0.2173947197        0.5579693153        0.0000000023
C                0.2770300311        0.6088026200        0.0000000054
C                0.2214869198        0.7217814570        0.0000000035
C                0.2779518601        0.7757221524        0.0000000048
C                0.2225218835        0.8876312480        0.0000000028
C                0.2786314449        0.9435700398        0.0000000043
C                0.3886652022        0.0567696123        0.0000000013
C                0.4444790577        0.1142089336       -0.0000000017
C                0.3888168941        0.2268735475       -0.0000000007
C                0.4446106488        0.2854104445        0.0000000000
C                0.3845978893        0.3980811579       -0.0000000047
C                0.3845979103        0.5506542628        0.0000000094
C                0.4446106552        0.6033122377        0.0000000050
C                0.3888168865        0.7176428816        0.0000000049
C                0.4444790583        0.7746453382        0.0000000025
C                0.3886652052        0.8878985183        0.0000000036
C                0.4441042716        0.9446145187        0.0000000011
C                0.5543880936        0.0575652086       -0.0000000034
C                0.6099370011        0.1135326827        0.0000000006
C                0.5553373772        0.2237017346        0.0000000032
C                0.6136757642        0.2772563630        0.0000000031
C                0.5659560039        0.3836886718        0.0000000111
C                0.6136757704        0.4424012072        0.0000000064
C                0.5553373745        0.5542942405        0.0000000020
C                0.6099369865        0.6098636566       -0.0000000007
C                0.5543880981        0.7213800228       -0.0000000017
C                0.6103970428        0.7776553140       -0.0000000065
C                0.5549193073        0.8892070093       -0.0000000051
C                0.6103970511        0.9452809728       -0.0000000064
C                0.7220971020        0.0564120667       -0.0000000030
C                0.7794114071        0.1099662094       -0.0000000040
C                0.7247028702        0.2214804604       -0.0000000029
C                0.7799644690        0.2766844405       -0.0000000007
C                0.7247028671        0.3871500150        0.0000000049
C                0.7794114033        0.4439557285       -0.0000000010
C                0.7220971044        0.5548241599       -0.0000000019
C                0.7770755313        0.6106576941       -0.0000000045
C                0.7206837120        0.7228142530       -0.0000000060
C                0.7763315805        0.7785008706       -0.0000000051
C                0.7206837103        0.8898353679       -0.0000000060
C                0.7770755250        0.9456001191       -0.0000000051
C                0.8896021290        0.0549469055       -0.0000000018
C                0.9463179835        0.1102964382       -0.0000000032
C                0.8912259609        0.2210536875       -0.0000000034
C                0.9463179802        0.2767189133       -0.0000000047
C                0.8896021339        0.3887843020       -0.0000000066
C                0.9445560578        0.4446828342       -0.0000000065
C                0.8876113696        0.5555902572       -0.0000000050
C                0.9434042408        0.6117296816       -0.0000000012
C                0.8875501073        0.7228916175       -0.0000000006
C                0.9434042482        0.7781994030        0.0000000019
C                0.8876113671        0.8901317156       -0.0000000001
C                0.9445560570        0.9440944382        0.0000000020



     Writing config-only to output data dir /home/gregb26/links/scratch/qe_tmp/vacancy_relaxed/series/6x6/nspin1/vac_6x6_relax_nspin1.save/ :
     XML data file
     NEW-OLD atomic charge density approx. for the potential

     negative rho (up, down):  2.074E-07 0.000E+00

     total cpu time spent up to now is      269.8 secs

     per-process dynamical memory:   206.6 Mb

     Self-consistent Calculation

     iteration #  1     ecut=   100.00 Ry     beta= 0.30
     Davidson diagonalization with overlap
     ethr =  1.00E-06,  avg # of iterations =  2.0

     Threshold (ethr) on eigenvalues was too large:
     Diagonalizing with lowered threshold

     Davidson diagonalization with overlap
     ethr =  1.29E-08,  avg # of iterations =  4.0

     negative rho (up, down):  1.329E-07 0.000E+00

     total cpu time spent up to now is      271.8 secs

     total energy              =    -854.72635632 Ry
     estimated scf accuracy    <       0.00005123 Ry

     iteration #  2     ecut=   100.00 Ry     beta= 0.30
     Davidson diagonalization with overlap
     ethr =  1.80E-08,  avg # of iterations =  4.0

     negative rho (up, down):  1.292E-07 0.000E+00

     total cpu time spent up to now is      272.7 secs

     total energy              =    -854.72624510 Ry
     estimated scf accuracy    <       0.00678038 Ry

     iteration #  3     ecut=   100.00 Ry     beta= 0.30
     Davidson diagonalization with overlap
     ethr =  1.80E-08,  avg # of iterations =  4.0

     negative rho (up, down):  6.523E-08 0.000E+00

     total cpu time spent up to now is      273.6 secs

     total energy              =    -854.72637535 Ry
     estimated scf accuracy    <       0.00000207 Ry

     iteration #  4     ecut=   100.00 Ry     beta= 0.30
     Davidson diagonalization with overlap
     ethr =  7.30E-10,  avg # of iterations =  4.0

     negative rho (up, down):  2.702E-08 0.000E+00

     total cpu time spent up to now is      274.7 secs

     total energy              =    -854.72637556 Ry
     estimated scf accuracy    <       0.00000130 Ry

     iteration #  5     ecut=   100.00 Ry     beta= 0.30
     Davidson diagonalization with overlap
     ethr =  4.57E-10,  avg # of iterations =  1.0

     negative rho (up, down):  1.018E-08 0.000E+00

     total cpu time spent up to now is      275.5 secs

     total energy              =    -854.72637563 Ry
     estimated scf accuracy    <       0.00000013 Ry

     iteration #  6     ecut=   100.00 Ry     beta= 0.30
     Davidson diagonalization with overlap
     ethr =  4.51E-11,  avg # of iterations =  4.0

     total cpu time spent up to now is      276.5 secs

     total energy              =    -854.72637565 Ry
     estimated scf accuracy    <       0.00000008 Ry

     iteration #  7     ecut=   100.00 Ry     beta= 0.30
     Davidson diagonalization with overlap
     ethr =  2.73E-11,  avg # of iterations =  1.0

     total cpu time spent up to now is      277.2 secs

     total energy              =    -854.72637566 Ry
     estimated scf accuracy    <       0.00000001 Ry

     iteration #  8     ecut=   100.00 Ry     beta= 0.30
     Davidson diagonalization with overlap
     ethr =  3.57E-12,  avg # of iterations =  4.0

     total cpu time spent up to now is      278.1 secs

     total energy              =    -854.72637566 Ry
     estimated scf accuracy    <          1.4E-09 Ry

     iteration #  9     ecut=   100.00 Ry     beta= 0.30
     Davidson diagonalization with overlap
     ethr =  4.98E-13,  avg # of iterations =  4.0

     total cpu time spent up to now is      279.2 secs

     total energy              =    -854.72637566 Ry
     estimated scf accuracy    <          3.1E-10 Ry

     iteration # 10     ecut=   100.00 Ry     beta= 0.30
     Davidson diagonalization with overlap
     ethr =  1.08E-13,  avg # of iterations =  4.0

     total cpu time spent up to now is      280.2 secs

     total energy              =    -854.72637566 Ry
     estimated scf accuracy    <          5.8E-11 Ry

     iteration # 11     ecut=   100.00 Ry     beta= 0.30
     Davidson diagonalization with overlap
     ethr =  1.00E-13,  avg # of iterations =  1.0

     total cpu time spent up to now is      281.0 secs

     total energy              =    -854.72637566 Ry
     estimated scf accuracy    <          1.9E-11 Ry

     iteration # 12     ecut=   100.00 Ry     beta= 0.30
     Davidson diagonalization with overlap
     ethr =  1.00E-13,  avg # of iterations =  1.0

     total cpu time spent up to now is      281.8 secs

     total energy              =    -854.72637566 Ry
     estimated scf accuracy    <          8.7E-12 Ry

     iteration # 13     ecut=   100.00 Ry     beta= 0.30
     Davidson diagonalization with overlap
     ethr =  1.00E-13,  avg # of iterations =  1.0

     total cpu time spent up to now is      282.5 secs

     End of self-consistent calculation

          k = 0.0000 0.0000 0.0000 (171510 PWs)   bands (ev):

   -23.7955 -23.2387 -23.1934 -23.1696 -23.1516 -23.1314 -22.8938 -21.9319
   -21.9042 -21.8945 -21.8645 -21.8135 -21.6419 -21.3163 -21.2573 -21.2422
   -21.2202 -21.1548 -20.7294 -19.4583 -19.4401 -19.4396 -19.4358 -19.4239
   -19.4001 -19.3850 -19.3724 -19.3462 -19.3085 -19.2582 -18.8254 -18.6080
   -18.5357 -18.0275 -17.5086 -17.4428 -17.3709 -16.9882 -16.8427 -16.8005
   -16.4403 -15.7924 -15.7700 -15.7657 -15.7443 -15.7442 -15.7306 -15.7150
   -15.7096 -15.6727 -15.4251 -15.4101 -14.8031 -14.7333 -14.4425 -14.0053
   -13.9986 -13.9329 -13.7647 -13.7276 -13.0131 -12.4490 -12.4329 -12.4003
   -12.3818 -12.3764 -12.3681 -12.3533 -12.3335 -12.3178 -12.2875 -12.2111
   -12.1801 -12.1501 -12.0588 -12.0427 -11.8745 -11.6308 -11.5847 -11.1757
   -11.1488 -11.1318 -11.1137 -11.0971 -10.9100 -10.8370 -10.8267 -10.8141
   -10.7565 -10.7056 -10.6868 -10.6706 -10.4291 -10.4214 -10.2191 -10.1678
   -10.1498 -10.0888 -10.0363  -9.8740  -9.8463  -9.6908  -9.6639  -9.6541
    -9.6362  -9.6317  -9.6285  -9.6028  -9.5676  -9.3838  -8.9747  -8.9551
    -8.9220  -8.9126  -8.9019  -8.8775  -8.8687  -8.5575  -8.5551  -8.5020
    -8.4465  -8.4201  -8.0495  -7.6192  -7.4967  -7.0015  -6.9817  -6.9809
    -6.9714  -6.9572  -6.9455  -6.9280  -6.9183  -6.9012  -6.8921  -6.8648
    -6.7351  -6.6713  -6.5822  -5.4444  -4.3855  -4.2544  -4.2321  -4.1535
    -3.7291  -3.3823  -2.6200  -2.5311  -2.4629  -1.8892  -1.8583  -1.8131
    -1.7901  -1.7736  -1.7594  -1.7421  -1.7252  -1.6844  -1.5341  -1.5150
    -0.9545  -0.3314  -0.0984  -0.0947  -0.0886  -0.0817  -0.0679  -0.0615
     0.0525   0.5541   0.5994   0.6365

     the Fermi energy is    -4.2384 ev

!    total energy              =    -854.72637566 Ry
     estimated scf accuracy    <          1.7E-12 Ry
     smearing contrib. (-TS)   =      -0.00593871 Ry
     internal energy E=F+TS    =    -854.72043695 Ry

     The total energy is F=E-TS. E is the sum of the following terms:
     one-electron contribution =   -9610.96032450 Ry
     hartree contribution      =    4831.75842952 Ry
     xc contribution           =    -303.87123590 Ry
     ewald contribution        =    4228.35269393 Ry

     convergence has been achieved in  13 iterations

     Forces acting on atoms (cartesian axes, Ry/au):

     atom    1 type  1   force =    -0.00061222    0.00009204   -0.00000000
     atom    2 type  1   force =    -0.00007827    0.00013639    0.00000000
     atom    3 type  1   force =     0.00022600    0.00057624   -0.00000001
     atom    4 type  1   force =    -0.00008473    0.00052763   -0.00000000
     atom    5 type  1   force =    -0.00007083   -0.00030887    0.00000000
     atom    6 type  1   force =    -0.00039768    0.00052383    0.00000000
     atom    7 type  1   force =     0.00028607   -0.00028160   -0.00000000
     atom    8 type  1   force =     0.00015886   -0.00027587   -0.00000001
     atom    9 type  1   force =     0.00010152   -0.00038883   -0.00000000
     atom   10 type  1   force =    -0.00025526    0.00060647    0.00000000
     atom   11 type  1   force =     0.00030325   -0.00009327    0.00000001
     atom   12 type  1   force =    -0.00041496    0.00033788   -0.00000000
     atom   13 type  1   force =     0.00030251   -0.00052443   -0.00000001
     atom   14 type  1   force =    -0.00023706   -0.00038483   -0.00000000
     atom   15 type  1   force =     0.00070632   -0.00014173   -0.00000001
     atom   16 type  1   force =     0.00009527    0.00007329    0.00000001
     atom   17 type  1   force =     0.00021466    0.00026888   -0.00000000
     atom   18 type  1   force =    -0.00057219    0.00028680    0.00000000
     atom   19 type  1   force =     0.00032620   -0.00056552    0.00000000
     atom   20 type  1   force =     0.00003836    0.00063840    0.00000001
     atom   21 type  1   force =    -0.00034050   -0.00005154    0.00000000
     atom   22 type  1   force =    -0.00011110   -0.00004541   -0.00000001
     atom   23 type  1   force =    -0.00023022   -0.00068328    0.00000001
     atom   24 type  1   force =     0.00045202    0.00001328    0.00000000
     atom   25 type  1   force =    -0.00031940    0.00034447    0.00000000
     atom   26 type  1   force =     0.00002877   -0.00040871    0.00000001
     atom   27 type  1   force =     0.00041934   -0.00046637   -0.00000000
     atom   28 type  1   force =    -0.00043664   -0.00060594   -0.00000001
     atom   29 type  1   force =     0.00088071    0.00046232    0.00000002
     atom   30 type  1   force =    -0.00084088   -0.00053112   -0.00000002
     atom   31 type  1   force =     0.00074282    0.00007524    0.00000000
     atom   32 type  1   force =     0.00019469   -0.00059649    0.00000000
     atom   33 type  1   force =     0.00033950   -0.00022935   -0.00000000
     atom   34 type  1   force =    -0.00013909    0.00044866   -0.00000000
     atom   35 type  1   force =    -0.00000236    0.00000493   -0.00000001
     atom   36 type  1   force =     0.00010861    0.00013283    0.00000001
     atom   37 type  1   force =     0.00027498    0.00024846   -0.00000001
     atom   38 type  1   force =     0.00015855    0.00013380   -0.00000000
     atom   39 type  1   force =     0.00028842   -0.00083303   -0.00000000
     atom   40 type  1   force =    -0.00033685    0.00058324    0.00000000
     atom   41 type  1   force =     0.00057744   -0.00066596    0.00000001
     atom   42 type  1   force =    -0.00019555   -0.00007085    0.00000001
     atom   43 type  1   force =    -0.00035229   -0.00011436   -0.00000000
     atom   44 type  1   force =    -0.00016929   -0.00002721   -0.00000000
     atom   45 type  1   force =     0.00013543    0.00039150    0.00000001
     atom   46 type  1   force =    -0.00017235    0.00029861    0.00000000
     atom   47 type  1   force =    -0.00040702    0.00007865    0.00000001
     atom   48 type  1   force =     0.00016943   -0.00012378    0.00000000
     atom   49 type  1   force =    -0.00029945   -0.00016680    0.00000001
     atom   50 type  1   force =    -0.00058144    0.00024346    0.00000000
     atom   51 type  1   force =    -0.00023305    0.00040336    0.00000000
     atom   52 type  1   force =     0.00007991    0.00062516   -0.00000002
     atom   53 type  1   force =     0.00029418    0.00017574   -0.00000000
     atom   54 type  1   force =     0.00002269   -0.00020835   -0.00000000
     atom   55 type  1   force =     0.00021995   -0.00004027   -0.00000000
     atom   56 type  1   force =    -0.00014692   -0.00007094   -0.00000000
     atom   57 type  1   force =    -0.00013879    0.00024081    0.00000000
     atom   58 type  1   force =     0.00013494    0.00009166   -0.00000000
     atom   59 type  1   force =    -0.00007528   -0.00021090    0.00000001
     atom   60 type  1   force =     0.00005720    0.00005874    0.00000000
     atom   61 type  1   force =    -0.00009448   -0.00027833    0.00000001
     atom   62 type  1   force =    -0.00027678    0.00047933   -0.00000000
     atom   63 type  1   force =     0.00028847   -0.00005750    0.00000001
     atom   64 type  1   force =    -0.00007965   -0.00002010    0.00000001
     atom   65 type  1   force =    -0.00013897    0.00023288    0.00000000
     atom   66 type  1   force =    -0.00025969   -0.00041197    0.00000000
     atom   67 type  1   force =     0.00006616    0.00010345   -0.00000001
     atom   68 type  1   force =     0.00017622   -0.00030570   -0.00000000
     atom   69 type  1   force =    -0.00012259   -0.00000493   -0.00000000
     atom   70 type  1   force =     0.00048640    0.00001872   -0.00000000
     atom   71 type  1   force =    -0.00013207    0.00023702   -0.00000001

     Total force =     0.004069     Total SCF correction =     0.000003
     Energy error            =      2.4E-05 Ry
     Gradient error          =      8.8E-04 Ry/Bohr

     number of scf cycles    =  18
     number of bfgs steps    =  17

     energy             old  =    -854.7263514097 Ry
     energy             new  =    -854.7263756584 Ry

     CASE: energy            _new < energy            _old

     new trust radius        =       0.0036622059 bohr
     new conv_thr            =            2.4E-12 Ry


ATOMIC_POSITIONS (crystal)
C                0.0565334253        0.0551060618       -0.0000000002
C                0.1121871244        0.1105731024        0.0000000019
C                0.0565334208        0.2216938403       -0.0000000006
C                0.1124289732        0.2779141185       -0.0000000001
C                0.0559789885        0.3890381368       -0.0000000040
C                0.1109190811        0.4449624740       -0.0000000015
C                0.0531788142        0.5566354611        0.0000000003
C                0.1085617024        0.6123858123        0.0000000030
C                0.0531788146        0.7235190716        0.0000000033
C                0.1109190878        0.7774517695        0.0000000029
C                0.0559789852        0.8883162191        0.0000000021
C                0.1124289658        0.9429902375        0.0000000019
C                0.2232941124        0.0550196033        0.0000000050
C                0.2786474695        0.1111353509        0.0000000040
C                0.2225501939        0.2231983409        0.0000000022
C                0.2779672833        0.2796874676       -0.0000000004
C                0.2214663765        0.3900966319       -0.0000000005
C                0.2770010185        0.4475194267       -0.0000000016
C                0.2173805656        0.5579763731        0.0000000020
C                0.2770010376        0.6088128928        0.0000000062
C                0.2214663724        0.7217703180        0.0000000036
C                0.2779672811        0.7756785862        0.0000000044
C                0.2225502022        0.8875847938        0.0000000034
C                0.2786474594        0.9435505175        0.0000000045
C                0.3886564185        0.0567845503        0.0000000014
C                0.4444891006        0.1142323511       -0.0000000013
C                0.3888466956        0.2269089851       -0.0000000010
C                0.4446135989        0.2854697966        0.0000000000
C                0.3845796640        0.3982203024       -0.0000000039
C                0.3845796653        0.5505333575        0.0000000082
C                0.4446135902        0.6032499426        0.0000000052
C                0.3888467091        0.7175776436        0.0000000049
C                0.4444890921        0.7746118789        0.0000000026
C                0.3886564262        0.8878923414        0.0000000032
C                0.4440922603        0.9446205387        0.0000000006
C                0.5543774530        0.0575922243       -0.0000000033
C                0.6099281830        0.1135679707       -0.0000000002
C                0.5553330621        0.2237378967        0.0000000030
C                0.6137305313        0.2772329325        0.0000000030
C                0.5660075520        0.3836628908        0.0000000111
C                0.6137305244        0.4423698948        0.0000000070
C                0.5553330843        0.5542623526        0.0000000025
C                0.6099281863        0.6098371879       -0.0000000013
C                0.5543774542        0.7213636591       -0.0000000017
C                0.6103740918        0.7776630426       -0.0000000062
C                0.5548851313        0.8892241034       -0.0000000048
C                0.6103740849        0.9452961941       -0.0000000061
C                0.7220935024        0.0564246483       -0.0000000031
C                0.7794270396        0.1099499735       -0.0000000039
C                0.7247159692        0.2214589476       -0.0000000028
C                0.7799663726        0.2766834786       -0.0000000006
C                0.7247159753        0.3871584253        0.0000000039
C                0.7794270427        0.4439563226       -0.0000000011
C                0.7220935030        0.5548151905       -0.0000000018
C                0.7770677956        0.6106588667       -0.0000000047
C                0.7206625018        0.7228172278       -0.0000000061
C                0.7763037173        0.7785148046       -0.0000000050
C                0.7206625063        0.8898536088       -0.0000000060
C                0.7770677958        0.9456066641       -0.0000000045
C                0.8896065091        0.0549437766       -0.0000000020
C                0.9463293577        0.1102886219       -0.0000000028
C                0.8912118116        0.2210607644       -0.0000000034
C                0.9463293660        0.2767153461       -0.0000000042
C                0.8896065029        0.3887830575       -0.0000000061
C                0.9445536731        0.4446800686       -0.0000000062
C                0.8876119280        0.5555744294       -0.0000000049
C                0.9433942269        0.6117395122       -0.0000000016
C                0.8875393258        0.7228970000       -0.0000000006
C                0.9433942198        0.7781996067        0.0000000014
C                0.8876119279        0.8901469754       -0.0000000002
C                0.9445536702        0.9440995930        0.0000000016



     Writing config-only to output data dir /home/gregb26/links/scratch/qe_tmp/vacancy_relaxed/series/6x6/nspin1/vac_6x6_relax_nspin1.save/ :
     XML data file
     NEW-OLD atomic charge density approx. for the potential

     negative rho (up, down):  2.528E-07 0.000E+00

     total cpu time spent up to now is      283.2 secs

     per-process dynamical memory:   206.6 Mb

     Self-consistent Calculation

     iteration #  1     ecut=   100.00 Ry     beta= 0.30
     Davidson diagonalization with overlap
     ethr =  1.00E-06,  avg # of iterations =  3.0

     negative rho (up, down):  1.617E-07 0.000E+00

     total cpu time spent up to now is      284.3 secs

     total energy              =    -854.72623885 Ry
     estimated scf accuracy    <       0.00032475 Ry

     iteration #  2     ecut=   100.00 Ry     beta= 0.30
     Davidson diagonalization with overlap
     ethr =  1.14E-07,  avg # of iterations =  5.0

     negative rho (up, down):  1.568E-07 0.000E+00

     total cpu time spent up to now is      285.2 secs

     total energy              =    -854.72551825 Ry
     estimated scf accuracy    <       0.04367422 Ry

     iteration #  3     ecut=   100.00 Ry     beta= 0.30
     Davidson diagonalization with overlap
     ethr =  1.14E-07,  avg # of iterations =  4.0

     negative rho (up, down):  1.156E-07 0.000E+00

     total cpu time spent up to now is      286.1 secs

     total energy              =    -854.72638339 Ry
     estimated scf accuracy    <       0.00000425 Ry

     iteration #  4     ecut=   100.00 Ry     beta= 0.30
     Davidson diagonalization with overlap
     ethr =  1.50E-09,  avg # of iterations =  5.0

     negative rho (up, down):  5.960E-08 0.000E+00

     total cpu time spent up to now is      287.3 secs

     total energy              =    -854.72638524 Ry
     estimated scf accuracy    <       0.00000305 Ry

     iteration #  5     ecut=   100.00 Ry     beta= 0.30
     Davidson diagonalization with overlap
     ethr =  1.07E-09,  avg # of iterations =  2.0

     negative rho (up, down):  2.257E-08 0.000E+00

     total cpu time spent up to now is      288.1 secs

     total energy              =    -854.72638528 Ry
     estimated scf accuracy    <       0.00000042 Ry

     iteration #  6     ecut=   100.00 Ry     beta= 0.30
     Davidson diagonalization with overlap
     ethr =  1.49E-10,  avg # of iterations =  4.0

     total cpu time spent up to now is      289.0 secs

     total energy              =    -854.72638531 Ry
     estimated scf accuracy    <       0.00000013 Ry

     iteration #  7     ecut=   100.00 Ry     beta= 0.30
     Davidson diagonalization with overlap
     ethr =  4.55E-11,  avg # of iterations =  2.0

     total cpu time spent up to now is      289.8 secs

     total energy              =    -854.72638532 Ry
     estimated scf accuracy    <       0.00000002 Ry

     iteration #  8     ecut=   100.00 Ry     beta= 0.30
     Davidson diagonalization with overlap
     ethr =  6.69E-12,  avg # of iterations =  4.0

     total cpu time spent up to now is      290.8 secs

     total energy              =    -854.72638532 Ry
     estimated scf accuracy    <          3.5E-09 Ry

     iteration #  9     ecut=   100.00 Ry     beta= 0.30
     Davidson diagonalization with overlap
     ethr =  1.22E-12,  avg # of iterations =  4.0

     total cpu time spent up to now is      291.9 secs

     total energy              =    -854.72638532 Ry
     estimated scf accuracy    <          6.1E-10 Ry

     iteration # 10     ecut=   100.00 Ry     beta= 0.30
     Davidson diagonalization with overlap
     ethr =  2.14E-13,  avg # of iterations =  5.0

     total cpu time spent up to now is      292.9 secs

     total energy              =    -854.72638532 Ry
     estimated scf accuracy    <          1.4E-10 Ry

     iteration # 11     ecut=   100.00 Ry     beta= 0.30
     Davidson diagonalization with overlap
     ethr =  1.00E-13,  avg # of iterations =  2.0

     total cpu time spent up to now is      293.7 secs

     total energy              =    -854.72638532 Ry
     estimated scf accuracy    <          5.8E-11 Ry

     iteration # 12     ecut=   100.00 Ry     beta= 0.30
     Davidson diagonalization with overlap
     ethr =  1.00E-13,  avg # of iterations =  1.0

     total cpu time spent up to now is      294.4 secs

     total energy              =    -854.72638532 Ry
     estimated scf accuracy    <          6.6E-12 Ry

     iteration # 13     ecut=   100.00 Ry     beta= 0.30
     Davidson diagonalization with overlap
     ethr =  1.00E-13,  avg # of iterations =  1.0

     total cpu time spent up to now is      295.2 secs

     total energy              =    -854.72638532 Ry
     estimated scf accuracy    <          7.3E-12 Ry

     iteration # 14     ecut=   100.00 Ry     beta= 0.30
     Davidson diagonalization with overlap
     ethr =  1.00E-13,  avg # of iterations =  1.0

     total cpu time spent up to now is      295.9 secs

     End of self-consistent calculation

          k = 0.0000 0.0000 0.0000 (171510 PWs)   bands (ev):

   -23.7954 -23.2390 -23.1939 -23.1689 -23.1519 -23.1305 -22.8929 -21.9320
   -21.9041 -21.8944 -21.8648 -21.8122 -21.6414 -21.3160 -21.2577 -21.2419
   -21.2191 -21.1537 -20.7289 -19.4581 -19.4400 -19.4400 -19.4349 -19.4239
   -19.4008 -19.3847 -19.3723 -19.3454 -19.3073 -19.2563 -18.8248 -18.6077
   -18.5347 -18.0266 -17.5086 -17.4422 -17.3708 -16.9884 -16.8422 -16.7992
   -16.4405 -15.7921 -15.7690 -15.7654 -15.7438 -15.7436 -15.7307 -15.7146
   -15.7093 -15.6721 -15.4247 -15.4101 -14.8031 -14.7326 -14.4428 -14.0047
   -13.9981 -13.9313 -13.7650 -13.7281 -13.0138 -12.4475 -12.4331 -12.4000
   -12.3816 -12.3765 -12.3674 -12.3533 -12.3328 -12.3178 -12.2871 -12.2106
   -12.1790 -12.1495 -12.0583 -12.0415 -11.8744 -11.6308 -11.5843 -11.1758
   -11.1493 -11.1314 -11.1140 -11.0963 -10.9095 -10.8361 -10.8253 -10.8141
   -10.7561 -10.7054 -10.6865 -10.6700 -10.4289 -10.4210 -10.2199 -10.1673
   -10.1488 -10.0872 -10.0363  -9.8724  -9.8442  -9.6914  -9.6632  -9.6542
    -9.6363  -9.6315  -9.6283  -9.6031  -9.5666  -9.3834  -8.9745  -8.9550
    -8.9222  -8.9133  -8.9019  -8.8768  -8.8677  -8.5565  -8.5544  -8.5013
    -8.4460  -8.4199  -8.0553  -7.6193  -7.4963  -7.0016  -6.9821  -6.9808
    -6.9717  -6.9577  -6.9454  -6.9277  -6.9184  -6.9001  -6.8905  -6.8643
    -6.7348  -6.6709  -6.5814  -5.4442  -4.3861  -4.2542  -4.2326  -4.1524
    -3.7292  -3.3681  -2.6203  -2.5307  -2.4638  -1.8893  -1.8589  -1.8129
    -1.7906  -1.7741  -1.7584  -1.7418  -1.7250  -1.6843  -1.5345  -1.5146
    -0.9546  -0.3320  -0.0985  -0.0949  -0.0888  -0.0817  -0.0679  -0.0614
     0.0527   0.5536   0.5995   0.6368

     the Fermi energy is    -4.2384 ev

!    total energy              =    -854.72638532 Ry
     estimated scf accuracy    <          1.4E-12 Ry
     smearing contrib. (-TS)   =      -0.00589362 Ry
     internal energy E=F+TS    =    -854.72049171 Ry

     The total energy is F=E-TS. E is the sum of the following terms:
     one-electron contribution =   -9610.92555726 Ry
     hartree contribution      =    4831.74336370 Ry
     xc contribution           =    -303.86979282 Ry
     ewald contribution        =    4228.33149467 Ry

     convergence has been achieved in  14 iterations

     Forces acting on atoms (cartesian axes, Ry/au):

     atom    1 type  1   force =    -0.00023139    0.00004766    0.00000000
     atom    2 type  1   force =    -0.00004804    0.00008306   -0.00000000
     atom    3 type  1   force =     0.00007466    0.00022405   -0.00000000
     atom    4 type  1   force =    -0.00012602    0.00024398   -0.00000000
     atom    5 type  1   force =    -0.00008767   -0.00022169    0.00000001
     atom    6 type  1   force =    -0.00013098    0.00019097    0.00000000
     atom    7 type  1   force =     0.00010916   -0.00008645   -0.00000000
     atom    8 type  1   force =     0.00005838   -0.00010062   -0.00000001
     atom    9 type  1   force =     0.00001982   -0.00013796   -0.00000000
     atom   10 type  1   force =    -0.00009970    0.00020933    0.00000000
     atom   11 type  1   force =     0.00023536   -0.00003525    0.00000001
     atom   12 type  1   force =    -0.00014787    0.00023095   -0.00000000
     atom   13 type  1   force =     0.00012881   -0.00022260   -0.00000001
     atom   14 type  1   force =    -0.00035444   -0.00008594   -0.00000000
     atom   15 type  1   force =     0.00027298    0.00006381   -0.00000001
     atom   16 type  1   force =    -0.00000121    0.00003263    0.00000001
     atom   17 type  1   force =     0.00003973    0.00003269   -0.00000000
     atom   18 type  1   force =    -0.00012933    0.00012536   -0.00000000
     atom   19 type  1   force =     0.00014531   -0.00025044    0.00000001
     atom   20 type  1   force =    -0.00004495    0.00017482   -0.00000001
     atom   21 type  1   force =    -0.00004769   -0.00001812    0.00000000
     atom   22 type  1   force =    -0.00002773    0.00001709   -0.00000000
     atom   23 type  1   force =    -0.00019203   -0.00020423    0.00000001
     atom   24 type  1   force =     0.00025168    0.00026344   -0.00000000
     atom   25 type  1   force =     0.00004133   -0.00000041    0.00000000
     atom   26 type  1   force =    -0.00018874   -0.00011006    0.00000000
     atom   27 type  1   force =     0.00021759   -0.00009468   -0.00000000
     atom   28 type  1   force =    -0.00014742   -0.00022295   -0.00000000
     atom   29 type  1   force =     0.00058287    0.00024883    0.00000002
     atom   30 type  1   force =    -0.00050672   -0.00038044   -0.00000001
     atom   31 type  1   force =     0.00026700    0.00001562   -0.00000001
     atom   32 type  1   force =    -0.00002719   -0.00023546   -0.00000000
     atom   33 type  1   force =     0.00019001    0.00010809   -0.00000000
     atom   34 type  1   force =    -0.00001997   -0.00003543   -0.00000000
     atom   35 type  1   force =    -0.00016077    0.00027780   -0.00000001
     atom   36 type  1   force =     0.00021617   -0.00012430    0.00000000
     atom   37 type  1   force =     0.00000438    0.00009848   -0.00000001
     atom   38 type  1   force =     0.00019113   -0.00003907   -0.00000001
     atom   39 type  1   force =     0.00004434   -0.00029858    0.00000000
     atom   40 type  1   force =    -0.00027150    0.00047077    0.00000000
     atom   41 type  1   force =     0.00023599   -0.00018850   -0.00000000
     atom   42 type  1   force =    -0.00006151   -0.00018395   -0.00000000
     atom   43 type  1   force =    -0.00008772    0.00004530    0.00000001
     atom   44 type  1   force =    -0.00000062   -0.00024933   -0.00000000
     atom   45 type  1   force =     0.00007876    0.00026821    0.00000001
     atom   46 type  1   force =     0.00011106   -0.00019271    0.00000000
     atom   47 type  1   force =    -0.00027114    0.00006582    0.00000000
     atom   48 type  1   force =    -0.00002261   -0.00020211    0.00000000
     atom   49 type  1   force =    -0.00019106   -0.00005443    0.00000001
     atom   50 type  1   force =    -0.00003770    0.00002860   -0.00000000
     atom   51 type  1   force =    -0.00022385    0.00038820   -0.00000000
     atom   52 type  1   force =    -0.00000630    0.00004704   -0.00000000
     atom   53 type  1   force =     0.00014273    0.00013838   -0.00000000
     atom   54 type  1   force =     0.00018611   -0.00008155   -0.00000000
     atom   55 type  1   force =     0.00007157   -0.00017693    0.00000000
     atom   56 type  1   force =     0.00003913    0.00005238   -0.00000000
     atom   57 type  1   force =    -0.00000141    0.00000277   -0.00000000
     atom   58 type  1   force =    -0.00006542   -0.00000773    0.00000000
     atom   59 type  1   force =     0.00011780   -0.00015015    0.00000001
     atom   60 type  1   force =     0.00011200   -0.00001141    0.00000000
     atom   61 type  1   force =    -0.00013576   -0.00002756    0.00000000
     atom   62 type  1   force =     0.00005266   -0.00009155    0.00000000
     atom   63 type  1   force =     0.00009182    0.00010422    0.00000000
     atom   64 type  1   force =    -0.00004615   -0.00010312    0.00000001
     atom   65 type  1   force =    -0.00010554    0.00011375    0.00000000
     atom   66 type  1   force =     0.00002612    0.00006941    0.00000000
     atom   67 type  1   force =    -0.00008168   -0.00006343    0.00000000
     atom   68 type  1   force =    -0.00000354    0.00000649   -0.00000001
     atom   69 type  1   force =     0.00009565    0.00003868    0.00000000
     atom   70 type  1   force =    -0.00007314    0.00001221   -0.00000000
     atom   71 type  1   force =    -0.00004560    0.00014825   -0.00000001

     Total force =     0.001989     Total SCF correction =     0.000002
     Energy error            =      9.7E-06 Ry
     Gradient error          =      5.8E-04 Ry/Bohr

     number of scf cycles    =  19
     number of bfgs steps    =  18

     energy             old  =    -854.7263756584 Ry
     energy             new  =    -854.7263853232 Ry

     CASE: energy            _new < energy            _old

     new trust radius        =       0.0052227880 bohr
     new conv_thr            =            1.0E-12 Ry


ATOMIC_POSITIONS (crystal)
C                0.0565480410        0.0550869308       -0.0000000001
C                0.1122051786        0.1105640698        0.0000000018
C                0.0565480495        0.2216983638       -0.0000000009
C                0.1124423825        0.2779254059       -0.0000000004
C                0.0559794948        0.3890386754       -0.0000000037
C                0.1108955114        0.4449840663       -0.0000000014
C                0.0531571858        0.5566529313        0.0000000004
C                0.1085413522        0.6123959982        0.0000000026
C                0.0531571783        0.7235232095        0.0000000032
C                0.1108955192        0.7774537611        0.0000000031
C                0.0559794857        0.8883151584        0.0000000024
C                0.1124424020        0.9429655357        0.0000000020
C                0.2233221542        0.0550055967        0.0000000047
C                0.2786516340        0.1111383436        0.0000000039
C                0.2225712761        0.2232203816        0.0000000018
C                0.2779783516        0.2797215671       -0.0000000002
C                0.2214487748        0.3901297480       -0.0000000006
C                0.2769714462        0.4475505632       -0.0000000015
C                0.2173481730        0.5579925860        0.0000000020
C                0.2769714389        0.6088113143        0.0000000065
C                0.2214487748        0.7217548108        0.0000000040
C                0.2779783615        0.7756334053        0.0000000042
C                0.2225712583        0.8875416841        0.0000000039
C                0.2786516445        0.9435433352        0.0000000047
C                0.3886646527        0.0567997992        0.0000000015
C                0.4444852872        0.1142668747       -0.0000000010
C                0.3888688494        0.2269696213       -0.0000000012
C                0.4446070995        0.2855642831       -0.0000000000
C                0.3845673716        0.3984129486       -0.0000000028
C                0.3845673767        0.5503530096        0.0000000072
C                0.4446071105        0.6031619445        0.0000000051
C                0.3888688480        0.7174948542        0.0000000049
C                0.4444852876        0.7745811680        0.0000000027
C                0.3886646512        0.8878688875        0.0000000029
C                0.4440637969        0.9446347553        0.0000000000
C                0.5543766439        0.0576230082       -0.0000000031
C                0.6099132648        0.1136063626       -0.0000000011
C                0.5553363041        0.2237832361        0.0000000025
C                0.6137908712        0.2772070500        0.0000000032
C                0.5660557160        0.3836388177        0.0000000115
C                0.6137908830        0.4423353974        0.0000000074
C                0.5553363020        0.5542138088        0.0000000028
C                0.6099132618        0.6098137094       -0.0000000015
C                0.5543766540        0.7213336743       -0.0000000019
C                0.6103480875        0.7776727873       -0.0000000057
C                0.5548687130        0.8892323079       -0.0000000046
C                0.6103480955        0.9453124616       -0.0000000059
C                0.7220900109        0.0564361242       -0.0000000032
C                0.7794493885        0.1099276747       -0.0000000037
C                0.7247538518        0.2214350484       -0.0000000028
C                0.7799755521        0.2766788925       -0.0000000007
C                0.7247538489        0.3871444378        0.0000000034
C                0.7794493875        0.4439562755       -0.0000000012
C                0.7220900130        0.5548071966       -0.0000000020
C                0.7770626806        0.6106559687       -0.0000000048
C                0.7206294038        0.7228291990       -0.0000000063
C                0.7762763993        0.7785284691       -0.0000000051
C                0.7206293975        0.8898747274       -0.0000000060
C                0.7770626777        0.9456146953       -0.0000000039
C                0.8896218550        0.0549395468       -0.0000000020
C                0.9463489447        0.1102715315       -0.0000000026
C                0.8912356288        0.2210488535       -0.0000000032
C                0.9463489376        0.2767128608       -0.0000000038
C                0.8896218628        0.3887719286       -0.0000000056
C                0.9445519496        0.4446814925       -0.0000000060
C                0.8875954891        0.5555789889       -0.0000000049
C                0.9433708858        0.6117488227       -0.0000000017
C                0.8875088583        0.7229122408       -0.0000000010
C                0.9433708958        0.7782136181        0.0000000013
C                0.8875954843        0.8901588616       -0.0000000004
C                0.9445519554        0.9440998914        0.0000000010



     Writing config-only to output data dir /home/gregb26/links/scratch/qe_tmp/vacancy_relaxed/series/6x6/nspin1/vac_6x6_relax_nspin1.save/ :
     XML data file
     NEW-OLD atomic charge density approx. for the potential

     negative rho (up, down):  3.539E-07 0.000E+00

     total cpu time spent up to now is      296.6 secs

     per-process dynamical memory:   206.6 Mb

     Self-consistent Calculation

     iteration #  1     ecut=   100.00 Ry     beta= 0.30
     Davidson diagonalization with overlap
     ethr =  1.00E-06,  avg # of iterations =  4.0

     negative rho (up, down):  2.256E-07 0.000E+00

     total cpu time spent up to now is      297.7 secs

     total energy              =    -854.72616901 Ry
     estimated scf accuracy    <       0.00048742 Ry

     iteration #  2     ecut=   100.00 Ry     beta= 0.30
     Davidson diagonalization with overlap
     ethr =  1.72E-07,  avg # of iterations =  5.0

     negative rho (up, down):  2.188E-07 0.000E+00

     total cpu time spent up to now is      298.7 secs

     total energy              =    -854.72514248 Ry
     estimated scf accuracy    <       0.06242454 Ry

     iteration #  3     ecut=   100.00 Ry     beta= 0.30
     Davidson diagonalization with overlap
     ethr =  1.72E-07,  avg # of iterations =  4.0

     negative rho (up, down):  1.457E-07 0.000E+00

     total cpu time spent up to now is      299.5 secs

     total energy              =    -854.72638542 Ry
     estimated scf accuracy    <       0.00000732 Ry

     iteration #  4     ecut=   100.00 Ry     beta= 0.30
     Davidson diagonalization with overlap
     ethr =  2.58E-09,  avg # of iterations =  5.0

     negative rho (up, down):  7.664E-08 0.000E+00

     total cpu time spent up to now is      300.8 secs

     total energy              =    -854.72638859 Ry
     estimated scf accuracy    <       0.00000579 Ry

     iteration #  5     ecut=   100.00 Ry     beta= 0.30
     Davidson diagonalization with overlap
     ethr =  2.04E-09,  avg # of iterations =  1.0

     negative rho (up, down):  2.625E-08 0.000E+00

     total cpu time spent up to now is      301.5 secs

     total energy              =    -854.72638865 Ry
     estimated scf accuracy    <       0.00000067 Ry

     iteration #  6     ecut=   100.00 Ry     beta= 0.30
     Davidson diagonalization with overlap
     ethr =  2.37E-10,  avg # of iterations =  2.0

     total cpu time spent up to now is      302.3 secs

     total energy              =    -854.72638869 Ry
     estimated scf accuracy    <       0.00000024 Ry

     iteration #  7     ecut=   100.00 Ry     beta= 0.30
     Davidson diagonalization with overlap
     ethr =  8.48E-11,  avg # of iterations =  4.0

     total cpu time spent up to now is      303.2 secs

     total energy              =    -854.72638871 Ry
     estimated scf accuracy    <       0.00000005 Ry

     iteration #  8     ecut=   100.00 Ry     beta= 0.30
     Davidson diagonalization with overlap
     ethr =  1.63E-11,  avg # of iterations =  5.0

     total cpu time spent up to now is      304.1 secs

     total energy              =    -854.72638872 Ry
     estimated scf accuracy    <          3.9E-09 Ry

     iteration #  9     ecut=   100.00 Ry     beta= 0.30
     Davidson diagonalization with overlap
     ethr =  1.36E-12,  avg # of iterations =  5.0

     total cpu time spent up to now is      305.3 secs

     total energy              =    -854.72638872 Ry
     estimated scf accuracy    <          1.3E-09 Ry

     iteration # 10     ecut=   100.00 Ry     beta= 0.30
     Davidson diagonalization with overlap
     ethr =  4.59E-13,  avg # of iterations =  4.0

     total cpu time spent up to now is      306.1 secs

     total energy              =    -854.72638872 Ry
     estimated scf accuracy    <          2.6E-10 Ry

     iteration # 11     ecut=   100.00 Ry     beta= 0.30
     Davidson diagonalization with overlap
     ethr =  1.00E-13,  avg # of iterations =  4.0

     total cpu time spent up to now is      307.0 secs

     total energy              =    -854.72638872 Ry
     estimated scf accuracy    <          6.2E-11 Ry

     iteration # 12     ecut=   100.00 Ry     beta= 0.30
     Davidson diagonalization with overlap
     ethr =  1.00E-13,  avg # of iterations =  1.0

     total cpu time spent up to now is      307.8 secs

     total energy              =    -854.72638872 Ry
     estimated scf accuracy    <          1.6E-11 Ry

     iteration # 13     ecut=   100.00 Ry     beta= 0.30
     Davidson diagonalization with overlap
     ethr =  1.00E-13,  avg # of iterations =  1.0

     total cpu time spent up to now is      308.5 secs

     total energy              =    -854.72638872 Ry
     estimated scf accuracy    <          3.5E-12 Ry

     iteration # 14     ecut=   100.00 Ry     beta= 0.30
     Davidson diagonalization with overlap
     ethr =  1.00E-13,  avg # of iterations =  1.0

     total cpu time spent up to now is      309.2 secs

     total energy              =    -854.72638872 Ry
     estimated scf accuracy    <          1.2E-12 Ry

     iteration # 15     ecut=   100.00 Ry     beta= 0.30
     Davidson diagonalization with overlap
     ethr =  1.00E-13,  avg # of iterations =  1.0

     total cpu time spent up to now is      309.9 secs

     End of self-consistent calculation

          k = 0.0000 0.0000 0.0000 (171510 PWs)   bands (ev):

   -23.7953 -23.2390 -23.1944 -23.1688 -23.1518 -23.1289 -22.8917 -21.9318
   -21.9038 -21.8944 -21.8646 -21.8108 -21.6410 -21.3158 -21.2580 -21.2414
   -21.2179 -21.1523 -20.7281 -19.4576 -19.4400 -19.4399 -19.4338 -19.4237
   -19.4010 -19.3847 -19.3717 -19.3445 -19.3064 -19.2544 -18.8244 -18.6070
   -18.5336 -18.0253 -17.5084 -17.4418 -17.3710 -16.9881 -16.8415 -16.7979
   -16.4408 -15.7911 -15.7679 -15.7651 -15.7429 -15.7428 -15.7307 -15.7144
   -15.7086 -15.6713 -15.4241 -15.4098 -14.8032 -14.7320 -14.4433 -14.0039
   -13.9975 -13.9300 -13.7652 -13.7277 -13.0143 -12.4454 -12.4330 -12.3992
   -12.3815 -12.3765 -12.3665 -12.3535 -12.3318 -12.3177 -12.2867 -12.2095
   -12.1768 -12.1488 -12.0579 -12.0405 -11.8744 -11.6314 -11.5839 -11.1758
   -11.1499 -11.1314 -11.1141 -11.0951 -10.9091 -10.8350 -10.8231 -10.8139
   -10.7543 -10.7043 -10.6867 -10.6694 -10.4290 -10.4206 -10.2217 -10.1665
   -10.1479 -10.0856 -10.0357  -9.8697  -9.8427  -9.6909  -9.6626  -9.6542
    -9.6363  -9.6314  -9.6274  -9.6030  -9.5654  -9.3832  -8.9745  -8.9555
    -8.9223  -8.9124  -8.9017  -8.8760  -8.8665  -8.5549  -8.5541  -8.5010
    -8.4454  -8.4203  -8.0645  -7.6184  -7.4964  -7.0018  -6.9822  -6.9804
    -6.9716  -6.9576  -6.9454  -6.9270  -6.9186  -6.8993  -6.8895  -6.8634
    -6.7347  -6.6699  -6.5808  -5.4441  -4.3862  -4.2540  -4.2332  -4.1516
    -3.7298  -3.3486  -2.6201  -2.5308  -2.4649  -1.8889  -1.8591  -1.8132
    -1.7909  -1.7747  -1.7580  -1.7420  -1.7252  -1.6842  -1.5349  -1.5140
    -0.9546  -0.3333  -0.0988  -0.0952  -0.0890  -0.0818  -0.0678  -0.0612
     0.0530   0.5530   0.5993   0.6369

     the Fermi energy is    -4.2384 ev

!    total energy              =    -854.72638872 Ry
     estimated scf accuracy    <          4.3E-13 Ry
     smearing contrib. (-TS)   =      -0.00587675 Ry
     internal energy E=F+TS    =    -854.72051196 Ry

     The total energy is F=E-TS. E is the sum of the following terms:
     one-electron contribution =   -9610.86564034 Ry
     hartree contribution      =    4831.71604739 Ry
     xc contribution           =    -303.86703890 Ry
     ewald contribution        =    4228.29611989 Ry

     convergence has been achieved in  15 iterations

     Forces acting on atoms (cartesian axes, Ry/au):

     atom    1 type  1   force =     0.00008499   -0.00003287   -0.00000000
     atom    2 type  1   force =    -0.00009152    0.00015927    0.00000000
     atom    3 type  1   force =    -0.00001463   -0.00008990   -0.00000000
     atom    4 type  1   force =    -0.00017753    0.00002768   -0.00000000
     atom    5 type  1   force =     0.00008811    0.00005367    0.00000000
     atom    6 type  1   force =    -0.00005546   -0.00007999   -0.00000000
     atom    7 type  1   force =    -0.00006844    0.00000674   -0.00000001
     atom    8 type  1   force =    -0.00005000    0.00008587   -0.00000000
     atom    9 type  1   force =     0.00002913    0.00006263   -0.00000000
     atom   10 type  1   force =     0.00009637    0.00000809   -0.00000000
     atom   11 type  1   force =    -0.00008985   -0.00004967    0.00000000
     atom   12 type  1   force =     0.00006420    0.00016842    0.00000000
     atom   13 type  1   force =    -0.00011363    0.00019575   -0.00000000
     atom   14 type  1   force =     0.00014105   -0.00007415   -0.00000000
     atom   15 type  1   force =    -0.00010718    0.00001991   -0.00000000
     atom   16 type  1   force =    -0.00010816   -0.00001182    0.00000000
     atom   17 type  1   force =     0.00006477   -0.00010011   -0.00000000
     atom   18 type  1   force =     0.00011134   -0.00003369    0.00000000
     atom   19 type  1   force =     0.00000698   -0.00001278    0.00000000
     atom   20 type  1   force =    -0.00002587   -0.00011332   -0.00000001
     atom   21 type  1   force =     0.00005435   -0.00010630    0.00000001
     atom   22 type  1   force =     0.00006416    0.00008809    0.00000000
     atom   23 type  1   force =     0.00003665    0.00010193   -0.00000000
     atom   24 type  1   force =    -0.00000596   -0.00015846   -0.00000000
     atom   25 type  1   force =    -0.00020263    0.00026925    0.00000000
     atom   26 type  1   force =     0.00017170   -0.00014004    0.00000000
     atom   27 type  1   force =    -0.00005396    0.00010399    0.00000001
     atom   28 type  1   force =     0.00021516   -0.00008691   -0.00000000
     atom   29 type  1   force =     0.00015393    0.00010172    0.00000001
     atom   30 type  1   force =    -0.00016513   -0.00008238   -0.00000001
     atom   31 type  1   force =    -0.00003251   -0.00022962   -0.00000001
     atom   32 type  1   force =    -0.00006274    0.00009872   -0.00000000
     atom   33 type  1   force =     0.00003545   -0.00021884   -0.00000000
     atom   34 type  1   force =    -0.00013242    0.00030973   -0.00000000
     atom   35 type  1   force =     0.00014561   -0.00025114   -0.00000000
     atom   36 type  1   force =    -0.00015640    0.00002343    0.00000000
     atom   37 type  1   force =     0.00004146   -0.00012367   -0.00000000
     atom   38 type  1   force =    -0.00010125    0.00000004   -0.00000000
     atom   39 type  1   force =     0.00014295    0.00008632   -0.00000000
     atom   40 type  1   force =    -0.00009413    0.00016237    0.00000001
     atom   41 type  1   force =    -0.00014574   -0.00008000   -0.00000001
     atom   42 type  1   force =     0.00005023    0.00008717    0.00000000
     atom   43 type  1   force =     0.00008655   -0.00009794    0.00000001
     atom   44 type  1   force =     0.00005786    0.00014762   -0.00000000
     atom   45 type  1   force =    -0.00005891    0.00004356    0.00000001
     atom   46 type  1   force =    -0.00003376    0.00005866    0.00000000
     atom   47 type  1   force =    -0.00000875    0.00007304    0.00000000
     atom   48 type  1   force =    -0.00008234   -0.00020720    0.00000000
     atom   49 type  1   force =     0.00005847    0.00012169    0.00000000
     atom   50 type  1   force =    -0.00008274    0.00005202   -0.00000000
     atom   51 type  1   force =     0.00014857   -0.00025735   -0.00000000
     atom   52 type  1   force =    -0.00000356    0.00009738   -0.00000000
     atom   53 type  1   force =    -0.00013465    0.00001005   -0.00000000
     atom   54 type  1   force =     0.00022079   -0.00003220   -0.00000001
     atom   55 type  1   force =    -0.00007608    0.00022515   -0.00000000
     atom   56 type  1   force =     0.00024937   -0.00024108    0.00000000
     atom   57 type  1   force =    -0.00008609    0.00014890    0.00000000
     atom   58 type  1   force =     0.00008458   -0.00033652    0.00000001
     atom   59 type  1   force =    -0.00015730    0.00017822    0.00000000
     atom   60 type  1   force =    -0.00018830   -0.00013218    0.00000000
     atom   61 type  1   force =     0.00007908    0.00014306    0.00000000
     atom   62 type  1   force =    -0.00002760    0.00004776    0.00000000
     atom   63 type  1   force =    -0.00016322    0.00000273    0.00000000
     atom   64 type  1   force =     0.00020850    0.00009731    0.00000001
     atom   65 type  1   force =    -0.00011570    0.00003070    0.00000001
     atom   66 type  1   force =     0.00009846   -0.00008785    0.00000000
     atom   67 type  1   force =     0.00009491   -0.00001725    0.00000000
     atom   68 type  1   force =     0.00006314   -0.00010952   -0.00000001
     atom   69 type  1   force =    -0.00003263   -0.00009034   -0.00000000
     atom   70 type  1   force =     0.00002692   -0.00012940   -0.00000000
     atom   71 type  1   force =     0.00003099    0.00011582   -0.00000001

     Total force =     0.001446     Total SCF correction =     0.000001
     Energy error            =      3.4E-06 Ry
     Gradient error          =      3.4E-04 Ry/Bohr

     number of scf cycles    =  20
     number of bfgs steps    =  19

     energy             old  =    -854.7263853232 Ry
     energy             new  =    -854.7263887174 Ry

     CASE: energy            _new < energy            _old

     new trust radius        =       0.0014435079 bohr
     new conv_thr            =            1.0E-12 Ry


ATOMIC_POSITIONS (crystal)
C                0.0565554847        0.0550829135       -0.0000000001
C                0.1122049884        0.1105641736        0.0000000018
C                0.0565554807        0.2216949346       -0.0000000010
C                0.1124414676        0.2779249214       -0.0000000005
C                0.0559800564        0.3890425291       -0.0000000035
C                0.1108936003        0.4449854583       -0.0000000013
C                0.0531494233        0.5566557781        0.0000000002
C                0.1085295710        0.6124018815        0.0000000024
C                0.0531494257        0.7235281338        0.0000000031
C                0.1108935977        0.7774542730        0.0000000031
C                0.0559800637        0.8883107465        0.0000000025
C                0.1124414583        0.9429669475        0.0000000022
C                0.2233212647        0.0550060281        0.0000000046
C                0.2786569320        0.1111395668        0.0000000038
C                0.2225720722        0.2232225517        0.0000000016
C                0.2779779260        0.2797275586       -0.0000000002
C                0.2214508666        0.3901357185       -0.0000000007
C                0.2769691151        0.4475591656       -0.0000000014
C                0.2173385916        0.5579973689        0.0000000021
C                0.2769691145        0.6088050514        0.0000000063
C                0.2214508717        0.7217467468        0.0000000043
C                0.2779779271        0.7756278424        0.0000000044
C                0.2225720786        0.8875387016        0.0000000040
C                0.2786569291        0.9435368380        0.0000000047
C                0.3886555545        0.0568079994        0.0000000015
C                0.4444907133        0.1142753893       -0.0000000009
C                0.3888675652        0.2269881369       -0.0000000011
C                0.4446101630        0.2855898417       -0.0000000000
C                0.3845669835        0.3984647716       -0.0000000025
C                0.3845669872        0.5503015757        0.0000000068
C                0.4446101670        0.6031333230        0.0000000049
C                0.3888675668        0.7174776281        0.0000000049
C                0.4444907170        0.7745672245        0.0000000025
C                0.3886555538        0.8878697706        0.0000000028
C                0.4440699709        0.9446316809       -0.0000000001
C                0.5543711591        0.0576292451       -0.0000000031
C                0.6099143230        0.1136115193       -0.0000000013
C                0.5553348694        0.2237922877        0.0000000023
C                0.6138034642        0.2772076714        0.0000000032
C                0.5660572022        0.3836380657        0.0000000118
C                0.6138034678        0.4423222041        0.0000000071
C                0.5553348746        0.5542061771        0.0000000029
C                0.6099143233        0.6098074922       -0.0000000013
C                0.5543711590        0.7213329308       -0.0000000020
C                0.6103418581        0.7776738872       -0.0000000055
C                0.5548621831        0.8892355743       -0.0000000046
C                0.6103418543        0.9453175910       -0.0000000058
C                0.7220929076        0.0564335602       -0.0000000032
C                0.7794531808        0.1099273390       -0.0000000035
C                0.7247603655        0.2214307269       -0.0000000028
C                0.7799935512        0.2766698929       -0.0000000009
C                0.7247603720        0.3871422400        0.0000000033
C                0.7794531829        0.4439528138       -0.0000000013
C                0.7220929119        0.5548068669       -0.0000000022
C                0.7770521799        0.6106625359       -0.0000000048
C                0.7206320222        0.7228289895       -0.0000000062
C                0.7762634085        0.7785349616       -0.0000000050
C                0.7206320231        0.8898723254       -0.0000000058
C                0.7770521768        0.9456186195       -0.0000000037
C                0.8896263788        0.0549312978       -0.0000000020
C                0.9463545513        0.1102705321       -0.0000000026
C                0.8912429212        0.2210452073       -0.0000000031
C                0.9463545547        0.2767082479       -0.0000000038
C                0.8896263767        0.3887756607       -0.0000000053
C                0.9445495932        0.4446820046       -0.0000000058
C                0.8875943719        0.5555802456       -0.0000000048
C                0.9433641918        0.6117540662       -0.0000000017
C                0.8875051948        0.7229140720       -0.0000000013
C                0.9433641904        0.7782150759        0.0000000013
C                0.8875943742        0.8901587191       -0.0000000004
C                0.9445495872        0.9441017379        0.0000000006



     Writing config-only to output data dir /home/gregb26/links/scratch/qe_tmp/vacancy_relaxed/series/6x6/nspin1/vac_6x6_relax_nspin1.save/ :
     XML data file
     NEW-OLD atomic charge density approx. for the potential

     negative rho (up, down):  6.915E-08 0.000E+00

     total cpu time spent up to now is      310.7 secs

     per-process dynamical memory:   206.6 Mb

     Self-consistent Calculation

     iteration #  1     ecut=   100.00 Ry     beta= 0.30
     Davidson diagonalization with overlap
     ethr =  1.00E-06,  avg # of iterations =  2.0

     Threshold (ethr) on eigenvalues was too large:
     Diagonalizing with lowered threshold

     Davidson diagonalization with overlap
     ethr =  1.81E-08,  avg # of iterations =  3.0

     negative rho (up, down):  4.314E-08 0.000E+00

     total cpu time spent up to now is      312.4 secs

     total energy              =    -854.72636591 Ry
     estimated scf accuracy    <       0.00005452 Ry

     iteration #  2     ecut=   100.00 Ry     beta= 0.30
     Davidson diagonalization with overlap
     ethr =  1.92E-08,  avg # of iterations =  4.0

     negative rho (up, down):  4.183E-08 0.000E+00

     total cpu time spent up to now is      313.4 secs

     total energy              =    -854.72622814 Ry
     estimated scf accuracy    <       0.00839749 Ry

     iteration #  3     ecut=   100.00 Ry     beta= 0.30
     Davidson diagonalization with overlap
     ethr =  1.92E-08,  avg # of iterations =  4.0

     negative rho (up, down):  2.442E-08 0.000E+00

     total cpu time spent up to now is      314.2 secs

     total energy              =    -854.72638916 Ry
     estimated scf accuracy    <       0.00000037 Ry

     iteration #  4     ecut=   100.00 Ry     beta= 0.30
     Davidson diagonalization with overlap
     ethr =  1.30E-10,  avg # of iterations =  6.0

     negative rho (up, down):  1.014E-08 0.000E+00

     total cpu time spent up to now is      315.6 secs

     total energy              =    -854.72638946 Ry
     estimated scf accuracy    <       0.00000069 Ry

     iteration #  5     ecut=   100.00 Ry     beta= 0.30
     Davidson diagonalization with overlap
     ethr =  1.30E-10,  avg # of iterations =  1.0

     total cpu time spent up to now is      316.3 secs

     total energy              =    -854.72638948 Ry
     estimated scf accuracy    <       0.00000004 Ry

     iteration #  6     ecut=   100.00 Ry     beta= 0.30
     Davidson diagonalization with overlap
     ethr =  1.40E-11,  avg # of iterations =  4.0

     total cpu time spent up to now is      317.2 secs

     total energy              =    -854.72638948 Ry
     estimated scf accuracy    <       0.00000001 Ry

     iteration #  7     ecut=   100.00 Ry     beta= 0.30
     Davidson diagonalization with overlap
     ethr =  4.52E-12,  avg # of iterations =  4.0

     total cpu time spent up to now is      318.2 secs

     total energy              =    -854.72638948 Ry
     estimated scf accuracy    <          1.8E-09 Ry

     iteration #  8     ecut=   100.00 Ry     beta= 0.30
     Davidson diagonalization with overlap
     ethr =  6.21E-13,  avg # of iterations =  4.0

     total cpu time spent up to now is      319.2 secs

     total energy              =    -854.72638948 Ry
     estimated scf accuracy    <          3.5E-10 Ry

     iteration #  9     ecut=   100.00 Ry     beta= 0.30
     Davidson diagonalization with overlap
     ethr =  1.23E-13,  avg # of iterations =  4.0

     total cpu time spent up to now is      320.1 secs

     total energy              =    -854.72638948 Ry
     estimated scf accuracy    <          7.5E-11 Ry

     iteration # 10     ecut=   100.00 Ry     beta= 0.30
     Davidson diagonalization with overlap
     ethr =  1.00E-13,  avg # of iterations =  2.0

     total cpu time spent up to now is      320.8 secs

     total energy              =    -854.72638948 Ry
     estimated scf accuracy    <          2.4E-11 Ry

     iteration # 11     ecut=   100.00 Ry     beta= 0.30
     Davidson diagonalization with overlap
     ethr =  1.00E-13,  avg # of iterations =  1.0

     total cpu time spent up to now is      321.6 secs

     total energy              =    -854.72638948 Ry
     estimated scf accuracy    <          3.6E-12 Ry

     iteration # 12     ecut=   100.00 Ry     beta= 0.30
     Davidson diagonalization with overlap
     ethr =  1.00E-13,  avg # of iterations =  1.0

     total cpu time spent up to now is      322.3 secs

     End of self-consistent calculation

          k = 0.0000 0.0000 0.0000 (171510 PWs)   bands (ev):

   -23.7953 -23.2388 -23.1945 -23.1690 -23.1517 -23.1283 -22.8913 -21.9316
   -21.9036 -21.8945 -21.8644 -21.8105 -21.6412 -21.3157 -21.2581 -21.2413
   -21.2174 -21.1518 -20.7280 -19.4573 -19.4402 -19.4401 -19.4334 -19.4237
   -19.4012 -19.3844 -19.3714 -19.3439 -19.3062 -19.2539 -18.8247 -18.6068
   -18.5332 -18.0250 -17.5084 -17.4416 -17.3709 -16.9880 -16.8414 -16.7975
   -16.4410 -15.7912 -15.7676 -15.7649 -15.7430 -15.7424 -15.7306 -15.7146
   -15.7082 -15.6709 -15.4238 -15.4099 -14.8032 -14.7317 -14.4435 -14.0037
   -13.9974 -13.9295 -13.7650 -13.7278 -13.0145 -12.4447 -12.4330 -12.3990
   -12.3813 -12.3765 -12.3666 -12.3538 -12.3317 -12.3174 -12.2867 -12.2094
   -12.1764 -12.1484 -12.0575 -12.0399 -11.8744 -11.6310 -11.5839 -11.1757
   -11.1500 -11.1317 -11.1141 -11.0946 -10.9093 -10.8347 -10.8225 -10.8133
   -10.7540 -10.7042 -10.6864 -10.6692 -10.4296 -10.4206 -10.2223 -10.1664
   -10.1474 -10.0850 -10.0356  -9.8692  -9.8416  -9.6914  -9.6618  -9.6540
    -9.6361  -9.6314  -9.6278  -9.6029  -9.5651  -9.3833  -8.9744  -8.9549
    -8.9224  -8.9133  -8.9017  -8.8757  -8.8662  -8.5553  -8.5537  -8.5008
    -8.4454  -8.4197  -8.0670  -7.6184  -7.4966  -7.0020  -6.9823  -6.9802
    -6.9717  -6.9579  -6.9453  -6.9270  -6.9188  -6.8989  -6.8890  -6.8628
    -6.7348  -6.6697  -6.5805  -5.4442  -4.3863  -4.2539  -4.2334  -4.1513
    -3.7300  -3.3430  -2.6203  -2.5308  -2.4652  -1.8894  -1.8596  -1.8130
    -1.7910  -1.7745  -1.7577  -1.7421  -1.7252  -1.6841  -1.5350  -1.5137
    -0.9547  -0.3337  -0.0990  -0.0953  -0.0890  -0.0818  -0.0678  -0.0611
     0.0530   0.5527   0.5992   0.6371

     the Fermi energy is    -4.2384 ev

!    total energy              =    -854.72638948 Ry
     estimated scf accuracy    <          8.5E-13 Ry
     smearing contrib. (-TS)   =      -0.00586775 Ry
     internal energy E=F+TS    =    -854.72052173 Ry

     The total energy is F=E-TS. E is the sum of the following terms:
     one-electron contribution =   -9610.84601400 Ry
     hartree contribution      =    4831.70692226 Ry
     xc contribution           =    -303.86618369 Ry
     ewald contribution        =    4228.28475370 Ry

     convergence has been achieved in  12 iterations

     Forces acting on atoms (cartesian axes, Ry/au):

     atom    1 type  1   force =     0.00000524    0.00014925    0.00000001
     atom    2 type  1   force =    -0.00000704    0.00001197    0.00000001
     atom    3 type  1   force =    -0.00013163    0.00006995    0.00000000
     atom    4 type  1   force =    -0.00000115   -0.00001186   -0.00000001
     atom    5 type  1   force =    -0.00005343    0.00001389    0.00000000
     atom    6 type  1   force =     0.00003906   -0.00008936    0.00000000
     atom    7 type  1   force =    -0.00002195   -0.00000544   -0.00000000
     atom    8 type  1   force =    -0.00000354    0.00000616   -0.00000000
     atom    9 type  1   force =     0.00001553    0.00001631   -0.00000000
     atom   10 type  1   force =     0.00005810   -0.00007860    0.00000000
     atom   11 type  1   force =     0.00001436    0.00005347   -0.00000000
     atom   12 type  1   force =     0.00001110   -0.00000534    0.00000000
     atom   13 type  1   force =    -0.00005608    0.00009768   -0.00000001
     atom   14 type  1   force =    -0.00008218    0.00011127   -0.00000000
     atom   15 type  1   force =    -0.00007179    0.00005873   -0.00000000
     atom   16 type  1   force =    -0.00008621    0.00000493   -0.00000000
     atom   17 type  1   force =     0.00000107   -0.00006552    0.00000000
     atom   18 type  1   force =     0.00006374   -0.00002600    0.00000000
     atom   19 type  1   force =    -0.00004354    0.00007554    0.00000001
     atom   20 type  1   force =    -0.00000929   -0.00006831   -0.00000001
     atom   21 type  1   force =     0.00005592   -0.00003361    0.00000000
     atom   22 type  1   force =     0.00003903    0.00007713    0.00000000
     atom   23 type  1   force =    -0.00001505    0.00009182   -0.00000000
     atom   24 type  1   force =    -0.00005552    0.00012650   -0.00000000
     atom   25 type  1   force =     0.00005272   -0.00010632   -0.00000000
     atom   26 type  1   force =    -0.00003286    0.00014354   -0.00000000
     atom   27 type  1   force =     0.00002252   -0.00002379    0.00000000
     atom   28 type  1   force =     0.00010515    0.00006969   -0.00000000
     atom   29 type  1   force =     0.00008135    0.00000774    0.00000001
     atom   30 type  1   force =    -0.00004743   -0.00006656   -0.00000000
     atom   31 type  1   force =    -0.00011290   -0.00005611   -0.00000000
     atom   32 type  1   force =     0.00000931   -0.00003150   -0.00000000
     atom   33 type  1   force =    -0.00010792    0.00010035   -0.00000001
     atom   34 type  1   force =     0.00006597   -0.00009873   -0.00000000
     atom   35 type  1   force =    -0.00007981    0.00013796   -0.00000000
     atom   36 type  1   force =     0.00000480   -0.00012027   -0.00000000
     atom   37 type  1   force =    -0.00002762   -0.00007023    0.00000000
     atom   38 type  1   force =     0.00001524   -0.00009385   -0.00000000
     atom   39 type  1   force =    -0.00001371    0.00008738   -0.00000000
     atom   40 type  1   force =    -0.00003301    0.00005753    0.00000001
     atom   41 type  1   force =    -0.00006903    0.00005543    0.00000000
     atom   42 type  1   force =     0.00007357   -0.00006007    0.00000000
     atom   43 type  1   force =     0.00007476   -0.00001123    0.00000000
     atom   44 type  1   force =     0.00010179   -0.00006441    0.00000000
     atom   45 type  1   force =     0.00003849   -0.00005623    0.00000000
     atom   46 type  1   force =     0.00006690   -0.00011581    0.00000000
     atom   47 type  1   force =     0.00002948   -0.00006156    0.00000000
     atom   48 type  1   force =    -0.00004998   -0.00001631    0.00000000
     atom   49 type  1   force =    -0.00002876    0.00000981   -0.00000000
     atom   50 type  1   force =     0.00009147    0.00001823    0.00000000
     atom   51 type  1   force =    -0.00001618    0.00002791    0.00000000
     atom   52 type  1   force =    -0.00006157   -0.00006993   -0.00000000
     atom   53 type  1   force =     0.00000594    0.00002984   -0.00000000
     atom   54 type  1   force =     0.00003901    0.00003517   -0.00000000
     atom   55 type  1   force =     0.00009098   -0.00009612   -0.00000000
     atom   56 type  1   force =     0.00001645    0.00008465    0.00000000
     atom   57 type  1   force =     0.00010421   -0.00018030    0.00000000
     atom   58 type  1   force =    -0.00008170    0.00002808    0.00000000
     atom   59 type  1   force =     0.00003789   -0.00012687    0.00000000
     atom   60 type  1   force =     0.00002199    0.00006637   -0.00000000
     atom   61 type  1   force =    -0.00004284    0.00002257    0.00000000
     atom   62 type  1   force =     0.00001293   -0.00002247   -0.00000001
     atom   63 type  1   force =     0.00000186    0.00004857    0.00000000
     atom   64 type  1   force =    -0.00006846    0.00001398    0.00000000
     atom   65 type  1   force =     0.00009712    0.00002084    0.00000000
     atom   66 type  1   force =    -0.00001330    0.00006529    0.00000000
     atom   67 type  1   force =     0.00005294   -0.00008768   -0.00000000
     atom   68 type  1   force =    -0.00002563    0.00004422   -0.00000000
     atom   69 type  1   force =     0.00004961   -0.00008970   -0.00000000
     atom   70 type  1   force =    -0.00005009    0.00004424    0.00000000
     atom   71 type  1   force =    -0.00006636   -0.00007388   -0.00000000

     Total force =     0.000785     Total SCF correction =     0.000002
     Energy error            =      7.6E-07 Ry
     Gradient error          =      1.8E-04 Ry/Bohr

     number of scf cycles    =  21
     number of bfgs steps    =  20

     energy             old  =    -854.7263887174 Ry
     energy             new  =    -854.7263894802 Ry

     CASE: energy            _new < energy            _old

     new trust radius        =       0.0003194750 bohr
     new conv_thr            =            1.0E-12 Ry


ATOMIC_POSITIONS (crystal)
C                0.0565508515        0.0550874425        0.0000000001
C                0.1122023874        0.1105654743        0.0000000023
C                0.0565508515        0.2216950367       -0.0000000009
C                0.1124378068        0.2779245605       -0.0000000007
C                0.0559793112        0.3890418292       -0.0000000034
C                0.1108964022        0.4449831040       -0.0000000013
C                0.0531510881        0.5566532979        0.0000000000
C                0.1085293773        0.6124019751        0.0000000024
C                0.0531510916        0.7235289512        0.0000000031
C                0.1108964035        0.7774538236        0.0000000031
C                0.0559793099        0.8883121958        0.0000000024
C                0.1124378038        0.9429709655        0.0000000022
C                0.2233157278        0.0550088001        0.0000000044
C                0.2786528473        0.1111404294        0.0000000038
C                0.2225684064        0.2232213030        0.0000000015
C                0.2779746273        0.2797241778       -0.0000000002
C                0.2214560592        0.3901325013       -0.0000000007
C                0.2769727582        0.4475580849       -0.0000000012
C                0.2173390692        0.5579971283        0.0000000023
C                0.2769727686        0.6088024900        0.0000000058
C                0.2214560571        0.7217447670        0.0000000044
C                0.2779746275        0.7756345287        0.0000000045
C                0.2225684124        0.8875436171        0.0000000039
C                0.2786528439        0.9435400549        0.0000000046
C                0.3886558727        0.0568063472        0.0000000014
C                0.4444880399        0.1142762428       -0.0000000010
C                0.3888675721        0.2269856426       -0.0000000009
C                0.4446114841        0.2855895898       -0.0000000002
C                0.3845722967        0.3984631587       -0.0000000021
C                0.3845722968        0.5502978754        0.0000000066
C                0.4446114813        0.6031322583        0.0000000048
C                0.3888675792        0.7174801133        0.0000000048
C                0.4444880393        0.7745690463        0.0000000023
C                0.3886558747        0.8878711045        0.0000000028
C                0.4440687871        0.9446322740       -0.0000000002
C                0.5543741774        0.0576237180       -0.0000000031
C                0.6099178748        0.1136068747       -0.0000000013
C                0.5553376397        0.2237880016        0.0000000021
C                0.6137982268        0.2772122966        0.0000000032
C                0.5660440078        0.3836446652        0.0000000120
C                0.6137982262        0.4423228183        0.0000000071
C                0.5553376454        0.5542076844        0.0000000030
C                0.6099178819        0.6098085853       -0.0000000010
C                0.5543741771        0.7213354407       -0.0000000019
C                0.6103444018        0.7776733489       -0.0000000054
C                0.5548661775        0.8892335793       -0.0000000045
C                0.6103443972        0.9453155820       -0.0000000056
C                0.7220942353        0.0564301148       -0.0000000031
C                0.7794504463        0.1099288253       -0.0000000035
C                0.7247582046        0.2214339638       -0.0000000027
C                0.7799949404        0.2766691960       -0.0000000008
C                0.7247582083        0.3871411668        0.0000000032
C                0.7794504500        0.4439540622       -0.0000000014
C                0.7220942362        0.5548089864       -0.0000000023
C                0.7770547949        0.6106641696       -0.0000000049
C                0.7206338290        0.7228300684       -0.0000000061
C                0.7762697549        0.7785317907       -0.0000000050
C                0.7206338299        0.8898694391       -0.0000000057
C                0.7770547957        0.9456143674       -0.0000000037
C                0.8896250930        0.0549323531       -0.0000000021
C                0.9463528317        0.1102706814       -0.0000000025
C                0.8912426600        0.2210453366       -0.0000000035
C                0.9463528334        0.2767098214       -0.0000000037
C                0.8896250926        0.3887758887       -0.0000000052
C                0.9445492551        0.4446853884       -0.0000000057
C                0.8875944092        0.5555808264       -0.0000000047
C                0.9433674981        0.6117533662       -0.0000000017
C                0.8875059522        0.7229136893       -0.0000000013
C                0.9433674937        0.7782124773        0.0000000011
C                0.8875944076        0.8901580975       -0.0000000004
C                0.9445492562        0.9440986918        0.0000000004



     Writing config-only to output data dir /home/gregb26/links/scratch/qe_tmp/vacancy_relaxed/series/6x6/nspin1/vac_6x6_relax_nspin1.save/ :
     XML data file
     NEW-OLD atomic charge density approx. for the potential

     negative rho (up, down):  1.229E-08 0.000E+00

     total cpu time spent up to now is      323.1 secs

     per-process dynamical memory:   206.6 Mb

     Self-consistent Calculation

     iteration #  1     ecut=   100.00 Ry     beta= 0.30
     Davidson diagonalization with overlap
     ethr =  1.00E-06,  avg # of iterations =  1.0

     Threshold (ethr) on eigenvalues was too large:
     Diagonalizing with lowered threshold

     Davidson diagonalization with overlap
     ethr =  1.51E-11,  avg # of iterations =  8.0

     total cpu time spent up to now is      325.8 secs

     total energy              =    -854.72638977 Ry
     estimated scf accuracy    <       0.00000012 Ry

     iteration #  2     ecut=   100.00 Ry     beta= 0.30
     Davidson diagonalization with overlap
     ethr =  4.07E-11,  avg # of iterations =  3.0

     total cpu time spent up to now is      326.7 secs

     total energy              =    -854.72638971 Ry
     estimated scf accuracy    <       0.00000270 Ry

     iteration #  3     ecut=   100.00 Ry     beta= 0.30
     Davidson diagonalization with overlap
     ethr =  4.07E-11,  avg # of iterations =  2.0

     total cpu time spent up to now is      327.5 secs

     total energy              =    -854.72638977 Ry
     estimated scf accuracy    <       0.00000021 Ry

     iteration #  4     ecut=   100.00 Ry     beta= 0.30
     Davidson diagonalization with overlap
     ethr =  4.07E-11,  avg # of iterations =  1.0

     total cpu time spent up to now is      328.2 secs

     total energy              =    -854.72638978 Ry
     estimated scf accuracy    <       0.00000001 Ry

     iteration #  5     ecut=   100.00 Ry     beta= 0.30
     Davidson diagonalization with overlap
     ethr =  4.89E-12,  avg # of iterations =  2.0

     total cpu time spent up to now is      329.0 secs

     total energy              =    -854.72638978 Ry
     estimated scf accuracy    <          2.0E-09 Ry

     iteration #  6     ecut=   100.00 Ry     beta= 0.30
     Davidson diagonalization with overlap
     ethr =  7.20E-13,  avg # of iterations =  3.0

     total cpu time spent up to now is      329.9 secs

     total energy              =    -854.72638978 Ry
     estimated scf accuracy    <          3.7E-10 Ry

     iteration #  7     ecut=   100.00 Ry     beta= 0.30
     Davidson diagonalization with overlap
     ethr =  1.30E-13,  avg # of iterations =  4.0

     total cpu time spent up to now is      330.9 secs

     total energy              =    -854.72638978 Ry
     estimated scf accuracy    <          8.3E-11 Ry

     iteration #  8     ecut=   100.00 Ry     beta= 0.30
     Davidson diagonalization with overlap
     ethr =  1.00E-13,  avg # of iterations =  1.0

     total cpu time spent up to now is      331.7 secs

     total energy              =    -854.72638978 Ry
     estimated scf accuracy    <          1.3E-11 Ry

     iteration #  9     ecut=   100.00 Ry     beta= 0.30
     Davidson diagonalization with overlap
     ethr =  1.00E-13,  avg # of iterations =  1.0

     total cpu time spent up to now is      332.5 secs

     total energy              =    -854.72638978 Ry
     estimated scf accuracy    <          3.4E-12 Ry

     iteration # 10     ecut=   100.00 Ry     beta= 0.30
     Davidson diagonalization with overlap
     ethr =  1.00E-13,  avg # of iterations =  1.0

     total cpu time spent up to now is      333.2 secs

     End of self-consistent calculation

          k = 0.0000 0.0000 0.0000 (171510 PWs)   bands (ev):

   -23.7953 -23.2387 -23.1945 -23.1692 -23.1516 -23.1282 -22.8913 -21.9315
   -21.9035 -21.8946 -21.8643 -21.8105 -21.6412 -21.3156 -21.2581 -21.2413
   -21.2174 -21.1518 -20.7281 -19.4571 -19.4402 -19.4400 -19.4333 -19.4237
   -19.4011 -19.3845 -19.3713 -19.3440 -19.3064 -19.2540 -18.8248 -18.6068
   -18.5332 -18.0250 -17.5084 -17.4416 -17.3708 -16.9879 -16.8414 -16.7976
   -16.4412 -15.7910 -15.7678 -15.7648 -15.7429 -15.7424 -15.7305 -15.7145
   -15.7081 -15.6708 -15.4239 -15.4099 -14.8032 -14.7318 -14.4436 -14.0037
   -13.9973 -13.9295 -13.7649 -13.7277 -13.0145 -12.4446 -12.4330 -12.3990
   -12.3814 -12.3764 -12.3666 -12.3538 -12.3317 -12.3173 -12.2868 -12.2094
   -12.1764 -12.1482 -12.0574 -12.0399 -11.8744 -11.6311 -11.5839 -11.1757
   -11.1500 -11.1318 -11.1140 -11.0945 -10.9095 -10.8347 -10.8225 -10.8132
   -10.7538 -10.7041 -10.6864 -10.6693 -10.4295 -10.4209 -10.2225 -10.1664
   -10.1473 -10.0851 -10.0355  -9.8690  -9.8415  -9.6914  -9.6619  -9.6540
    -9.6361  -9.6315  -9.6276  -9.6029  -9.5651  -9.3834  -8.9744  -8.9552
    -8.9224  -8.9132  -8.9017  -8.8757  -8.8662  -8.5551  -8.5539  -8.5008
    -8.4454  -8.4196  -8.0676  -7.6184  -7.4966  -7.0020  -6.9823  -6.9803
    -6.9716  -6.9577  -6.9453  -6.9270  -6.9187  -6.8989  -6.8891  -6.8628
    -6.7348  -6.6697  -6.5805  -5.4443  -4.3862  -4.2539  -4.2334  -4.1514
    -3.7300  -3.3432  -2.6203  -2.5308  -2.4652  -1.8892  -1.8596  -1.8131
    -1.7910  -1.7746  -1.7578  -1.7421  -1.7251  -1.6842  -1.5350  -1.5139
    -0.9547  -0.3337  -0.0990  -0.0953  -0.0890  -0.0818  -0.0678  -0.0611
     0.0530   0.5527   0.5992   0.6371

     the Fermi energy is    -4.2384 ev

!    total energy              =    -854.72638978 Ry
     estimated scf accuracy    <          5.3E-13 Ry
     smearing contrib. (-TS)   =      -0.00587259 Ry
     internal energy E=F+TS    =    -854.72051719 Ry

     The total energy is F=E-TS. E is the sum of the following terms:
     one-electron contribution =   -9610.84134625 Ry
     hartree contribution      =    4831.70447903 Ry
     xc contribution           =    -303.86592720 Ry
     ewald contribution        =    4228.28227724 Ry

     convergence has been achieved in  10 iterations

     Forces acting on atoms (cartesian axes, Ry/au):

     atom    1 type  1   force =    -0.00001462    0.00005874    0.00000001
     atom    2 type  1   force =    -0.00003577    0.00006177   -0.00000001
     atom    3 type  1   force =    -0.00004345    0.00004209    0.00000000
     atom    4 type  1   force =    -0.00000723   -0.00000499   -0.00000000
     atom    5 type  1   force =    -0.00000768    0.00000969    0.00000000
     atom    6 type  1   force =     0.00003534   -0.00009663   -0.00000000
     atom    7 type  1   force =     0.00002253   -0.00001125   -0.00000000
     atom    8 type  1   force =     0.00001613   -0.00002764    0.00000000
     atom    9 type  1   force =    -0.00000183   -0.00002512   -0.00000000
     atom   10 type  1   force =     0.00006612   -0.00007884    0.00000000
     atom   11 type  1   force =    -0.00000463    0.00001140   -0.00000000
     atom   12 type  1   force =     0.00000805    0.00000364    0.00000000
     atom   13 type  1   force =    -0.00002128    0.00003699   -0.00000000
     atom   14 type  1   force =    -0.00005942    0.00004241   -0.00000001
     atom   15 type  1   force =    -0.00006153    0.00006434   -0.00000000
     atom   16 type  1   force =     0.00003561   -0.00004020    0.00000000
     atom   17 type  1   force =    -0.00005205   -0.00000470   -0.00000000
     atom   18 type  1   force =     0.00005398   -0.00003172    0.00000000
     atom   19 type  1   force =    -0.00002775    0.00004843    0.00000000
     atom   20 type  1   force =    -0.00000003   -0.00006246   -0.00000000
     atom   21 type  1   force =     0.00003042    0.00004271   -0.00000000
     atom   22 type  1   force =     0.00001688   -0.00005109    0.00000000
     atom   23 type  1   force =    -0.00002505    0.00008568   -0.00000000
     atom   24 type  1   force =    -0.00000697    0.00007249   -0.00000000
     atom   25 type  1   force =     0.00003130   -0.00000531   -0.00000000
     atom   26 type  1   force =    -0.00001140    0.00000607   -0.00000000
     atom   27 type  1   force =     0.00002969    0.00003663    0.00000000
     atom   28 type  1   force =     0.00005012    0.00001749    0.00000000
     atom   29 type  1   force =     0.00004932    0.00004035    0.00000001
     atom   30 type  1   force =    -0.00005949   -0.00002261   -0.00000001
     atom   31 type  1   force =    -0.00004002   -0.00003487   -0.00000000
     atom   32 type  1   force =    -0.00004675   -0.00000723   -0.00000000
     atom   33 type  1   force =     0.00000058    0.00001285   -0.00000000
     atom   34 type  1   force =    -0.00001092   -0.00002959   -0.00000000
     atom   35 type  1   force =    -0.00002529    0.00004352    0.00000000
     atom   36 type  1   force =     0.00003746    0.00000190   -0.00000000
     atom   37 type  1   force =    -0.00006809   -0.00003594   -0.00000000
     atom   38 type  1   force =     0.00003031   -0.00003438   -0.00000001
     atom   39 type  1   force =    -0.00001853    0.00002761   -0.00000000
     atom   40 type  1   force =     0.00000393   -0.00000678    0.00000000
     atom   41 type  1   force =    -0.00001474    0.00002959   -0.00000000
     atom   42 type  1   force =     0.00001484   -0.00004313    0.00000000
     atom   43 type  1   force =     0.00006492    0.00004110    0.00000000
     atom   44 type  1   force =    -0.00002044   -0.00003161    0.00000000
     atom   45 type  1   force =     0.00006596   -0.00003398    0.00000001
     atom   46 type  1   force =     0.00001152   -0.00002011    0.00000000
     atom   47 type  1   force =    -0.00000332   -0.00007416    0.00000000
     atom   48 type  1   force =    -0.00001797   -0.00002073   -0.00000000
     atom   49 type  1   force =    -0.00001115   -0.00000909    0.00000000
     atom   50 type  1   force =     0.00003867    0.00002178    0.00000001
     atom   51 type  1   force =    -0.00004683    0.00008122   -0.00000000
     atom   52 type  1   force =    -0.00003828   -0.00002255   -0.00000000
     atom   53 type  1   force =     0.00001341    0.00000517   -0.00000000
     atom   54 type  1   force =     0.00002690    0.00000512   -0.00000000
     atom   55 type  1   force =     0.00003237   -0.00006160   -0.00000000
     atom   56 type  1   force =     0.00002283    0.00002401    0.00000000
     atom   57 type  1   force =     0.00003376   -0.00005849   -0.00000000
     atom   58 type  1   force =    -0.00003235   -0.00000775    0.00000001
     atom   59 type  1   force =     0.00003725   -0.00005869    0.00000000
     atom   60 type  1   force =    -0.00003730    0.00003988    0.00000000
     atom   61 type  1   force =    -0.00003463    0.00006951    0.00000000
     atom   62 type  1   force =     0.00000717   -0.00001236    0.00000001
     atom   63 type  1   force =    -0.00004297    0.00006477   -0.00000000
     atom   64 type  1   force =    -0.00001583    0.00005219    0.00000000
     atom   65 type  1   force =    -0.00001625   -0.00001992    0.00000001
     atom   66 type  1   force =     0.00007370    0.00004689   -0.00000000
     atom   67 type  1   force =    -0.00001878   -0.00005337   -0.00000000
     atom   68 type  1   force =     0.00003606   -0.00006222   -0.00000000
     atom   69 type  1   force =     0.00005553   -0.00001069   -0.00000000
     atom   70 type  1   force =    -0.00007734   -0.00004034   -0.00000000
     atom   71 type  1   force =     0.00002530    0.00000414   -0.00000000

     Total force =     0.000469     Total SCF correction =     0.000001
     Energy error            =      3.0E-07 Ry
     Gradient error          =      9.7E-05 Ry/Bohr

     bfgs converged in  22 scf cycles and  21 bfgs steps
     (criteria: energy <  1.0E-05 Ry, force <  1.0E-04 Ry/Bohr)

     End of BFGS Geometry Optimization

     Final energy             =    -854.7263897779 Ry

     File /home/gregb26/links/scratch/qe_tmp/vacancy_relaxed/series/6x6/nspin1/vac_6x6_relax_nspin1.bfgs deleted, as requested
Begin final coordinates

ATOMIC_POSITIONS (crystal)
C                0.0565508515        0.0550874425        0.0000000001
C                0.1122023874        0.1105654743        0.0000000023
C                0.0565508515        0.2216950367       -0.0000000009
C                0.1124378068        0.2779245605       -0.0000000007
C                0.0559793112        0.3890418292       -0.0000000034
C                0.1108964022        0.4449831040       -0.0000000013
C                0.0531510881        0.5566532979        0.0000000000
C                0.1085293773        0.6124019751        0.0000000024
C                0.0531510916        0.7235289512        0.0000000031
C                0.1108964035        0.7774538236        0.0000000031
C                0.0559793099        0.8883121958        0.0000000024
C                0.1124378038        0.9429709655        0.0000000022
C                0.2233157278        0.0550088001        0.0000000044
C                0.2786528473        0.1111404294        0.0000000038
C                0.2225684064        0.2232213030        0.0000000015
C                0.2779746273        0.2797241778       -0.0000000002
C                0.2214560592        0.3901325013       -0.0000000007
C                0.2769727582        0.4475580849       -0.0000000012
C                0.2173390692        0.5579971283        0.0000000023
C                0.2769727686        0.6088024900        0.0000000058
C                0.2214560571        0.7217447670        0.0000000044
C                0.2779746275        0.7756345287        0.0000000045
C                0.2225684124        0.8875436171        0.0000000039
C                0.2786528439        0.9435400549        0.0000000046
C                0.3886558727        0.0568063472        0.0000000014
C                0.4444880399        0.1142762428       -0.0000000010
C                0.3888675721        0.2269856426       -0.0000000009
C                0.4446114841        0.2855895898       -0.0000000002
C                0.3845722967        0.3984631587       -0.0000000021
C                0.3845722968        0.5502978754        0.0000000066
C                0.4446114813        0.6031322583        0.0000000048
C                0.3888675792        0.7174801133        0.0000000048
C                0.4444880393        0.7745690463        0.0000000023
C                0.3886558747        0.8878711045        0.0000000028
C                0.4440687871        0.9446322740       -0.0000000002
C                0.5543741774        0.0576237180       -0.0000000031
C                0.6099178748        0.1136068747       -0.0000000013
C                0.5553376397        0.2237880016        0.0000000021
C                0.6137982268        0.2772122966        0.0000000032
C                0.5660440078        0.3836446652        0.0000000120
C                0.6137982262        0.4423228183        0.0000000071
C                0.5553376454        0.5542076844        0.0000000030
C                0.6099178819        0.6098085853       -0.0000000010
C                0.5543741771        0.7213354407       -0.0000000019
C                0.6103444018        0.7776733489       -0.0000000054
C                0.5548661775        0.8892335793       -0.0000000045
C                0.6103443972        0.9453155820       -0.0000000056
C                0.7220942353        0.0564301148       -0.0000000031
C                0.7794504463        0.1099288253       -0.0000000035
C                0.7247582046        0.2214339638       -0.0000000027
C                0.7799949404        0.2766691960       -0.0000000008
C                0.7247582083        0.3871411668        0.0000000032
C                0.7794504500        0.4439540622       -0.0000000014
C                0.7220942362        0.5548089864       -0.0000000023
C                0.7770547949        0.6106641696       -0.0000000049
C                0.7206338290        0.7228300684       -0.0000000061
C                0.7762697549        0.7785317907       -0.0000000050
C                0.7206338299        0.8898694391       -0.0000000057
C                0.7770547957        0.9456143674       -0.0000000037
C                0.8896250930        0.0549323531       -0.0000000021
C                0.9463528317        0.1102706814       -0.0000000025
C                0.8912426600        0.2210453366       -0.0000000035
C                0.9463528334        0.2767098214       -0.0000000037
C                0.8896250926        0.3887758887       -0.0000000052
C                0.9445492551        0.4446853884       -0.0000000057
C                0.8875944092        0.5555808264       -0.0000000047
C                0.9433674981        0.6117533662       -0.0000000017
C                0.8875059522        0.7229136893       -0.0000000013
C                0.9433674937        0.7782124773        0.0000000011
C                0.8875944076        0.8901580975       -0.0000000004
C                0.9445492562        0.9440986918        0.0000000004
End final coordinates



     Writing all to output data dir /home/gregb26/links/scratch/qe_tmp/vacancy_relaxed/series/6x6/nspin1/vac_6x6_relax_nspin1.save/ :
     XML data file, charge density, pseudopotentials, collected wavefunctions

     init_run     :      2.13s CPU      2.19s WALL (       1 calls)
     electrons    :    309.63s CPU    316.56s WALL (      22 calls)
     update_pot   :      2.65s CPU      2.73s WALL (      21 calls)
     forces       :     10.65s CPU     10.81s WALL (      22 calls)

     Called by init_run:
     wfcinit      :      0.48s CPU      0.51s WALL (       1 calls)
     potinit      :      0.20s CPU      0.21s WALL (       1 calls)
     hinit0       :      0.94s CPU      0.96s WALL (       1 calls)

     Called by electrons:
     c_bands      :    257.10s CPU    261.27s WALL (     333 calls)
     sum_band     :     30.07s CPU     30.63s WALL (     333 calls)
     v_of_rho     :     19.38s CPU     19.99s WALL (     352 calls)
     mix_rho      :      3.62s CPU      3.72s WALL (     333 calls)

     Called by c_bands:
     init_us_2    :      8.84s CPU      9.06s WALL (     689 calls)
     regterg      :    248.61s CPU    252.17s WALL (     333 calls)

     Called by *egterg:
     rdiaghg      :      9.93s CPU     10.11s WALL (    1368 calls)
     h_psi        :    171.82s CPU    174.20s WALL (    1393 calls)
     g_psi        :      0.68s CPU      0.69s WALL (    1059 calls)

     Called by h_psi:
     h_psi:calbec :     24.01s CPU     24.56s WALL (    1393 calls)
     vloc_psi     :    127.10s CPU    128.75s WALL (    1393 calls)
                                        0.00s GPU  (    1393 calls)
     add_vuspsi   :     18.27s CPU     18.42s WALL (    1393 calls)

     General routines
     calbec       :     27.34s CPU     27.95s WALL (    1481 calls)
     fft          :     15.90s CPU     16.41s WALL (    3016 calls)
     ffts         :      0.67s CPU      0.72s WALL (     333 calls)
     fftw         :    130.43s CPU    132.13s WALL (  162188 calls)

     Parallel routines

     PWSCF        :    326.68s CPU    334.67s WALL


   This run was terminated on:   9:32:36  23Sep2026            

=------------------------------------------------------------------------------=
   JOB DONE.
=------------------------------------------------------------------------------=
