
     Program PWSCF v.7.5 starts on 22Sep2026 at 12:52:34 

     This program is part of the open-source Quantum ESPRESSO suite
     for quantum simulation of materials; please cite
         "P. Giannozzi et al., J. Phys.:Condens. Matter 21 395502 (2009);
         "P. Giannozzi et al., J. Phys.:Condens. Matter 29 465901 (2017);
         "P. Giannozzi et al., J. Chem. Phys. 152 154105 (2020);
          URL http://www.quantum-espresso.org", 
     in publications or presentations arising from this work. More details at
     http://www.quantum-espresso.org/quote

     Parallel version (MPI & OpenMP), running on      64 processor cores
     Number of MPI processes:                64
     Threads/MPI process:                     1

     MPI processes distributed on     3 nodes
     532575 MiB available memory on the printing compute node when the environment starts

     Waiting for input...
     Reading input from standard input

     Current dimensions of program PWSCF are:
     Max number of different atomic species (ntypx) = 10
     Max number of k-points (npk) =  40000
     Max angular momentum in pseudopotentials (lmaxx) =  4

     R & G space division:  proc/nbgrp/npool/nimage =      64
     Subspace diagonalization in iterative solution of the eigenvalue problem:
     one sub-group per band group will be used
     ELPA distributed-memory algorithm (size of sub-group:  4*  4 procs)


     Parallelization info
     --------------------
     sticks:   dense  smooth     PW     G-vecs:    dense   smooth      PW
     Min         757     757    193                96449    96449   12421
     Max         758     758    194                96454    96454   12426
     Sum       48511   48511  12355              6173045  6173045  795019

     Using Slab Decomposition



     bravais-lattice index     =            0
     lattice parameter (alat)  =      41.9381  a.u.
     unit-cell volume          =   45694.9917 (a.u.)^3
     number of atoms/cell      =          161
     number of atomic types    =            1
     number of electrons       =       644.00
     number of Kohn-Sham states=          352
     kinetic-energy cutoff     =     100.0000  Ry
     charge density cutoff     =     400.0000  Ry
     scf convergence threshold =      1.0E-10
     mixing beta               =       0.3000
     number of iterations used =            8  plain     mixing
     Exchange-correlation= PBE
                           (   1   4   3   4   0   0   0)

     celldm(1)=  41.938062  celldm(2)=   0.000000  celldm(3)=   0.000000
     celldm(4)=   0.000000  celldm(5)=   0.000000  celldm(6)=   0.000000

     crystal axes: (cart. coord. in units of alat)
               a(1) = (   0.866025  -0.500000   0.000000 )  
               a(2) = (   0.866025   0.500000   0.000000 )  
               a(3) = (   0.000000   0.000000   0.715341 )  

     reciprocal axes: (cart. coord. in units 2 pi/alat)
               b(1) = (  0.577350 -1.000000  0.000000 )  
               b(2) = (  0.577350  1.000000 -0.000000 )  
               b(3) = ( -0.000000  0.000000  1.397935 )  


     PseudoPot. # 1 for C  read from file:
     /home/gregb26/links/projects/rrg-cotemich-ac/gregb26/abinit_processing/pseudo/C.upf
     MD5 check sum: 34a24e64c0a39f27c6c36b90a16ac686
     Pseudo is Norm-conserving + core correction, Zval =  4.0
     Generated using ONCVPSP code by D. R. Hamann
     Using radial grid of 1248 points,  4 beta functions with: 
                l(1) =   0
                l(2) =   0
                l(3) =   1
                l(4) =   1

     atomic species   valence    mass     pseudopotential
     C                 4.00    12.01100     C ( 1.00)

     No symmetry found



   Cartesian axes

     site n.     atom                  positions (alat units)
         1        C      tau(   1) = (   0.0637655   0.0000000  -0.0000000  )
         2        C      tau(   2) = (   0.1278547  -0.0000000  -0.0000000  )
         3        C      tau(   3) = (   0.1598700   0.0557470  -0.0000000  )
         4        C      tau(   4) = (   0.2239506   0.0556766  -0.0000000  )
         5        C      tau(   5) = (   0.2560885   0.1113439  -0.0000000  )
         6        C      tau(   6) = (   0.3202164   0.1112748  -0.0000000  )
         7        C      tau(   7) = (   0.3524329   0.1667536  -0.0000000  )
         8        C      tau(   8) = (   0.4166180   0.1667471  -0.0000000  )
         9        C      tau(   9) = (   0.4490562   0.2221306  -0.0000000  )
        10        C      tau(  10) = (   0.5131346   0.2220956  -0.0000000  )
        11        C      tau(  11) = (   0.5455412   0.2775147  -0.0000000  )
        12        C      tau(  12) = (   0.6096804   0.2773055  -0.0000000  )
        13        C      tau(  13) = (   0.6418186   0.3328082   0.0000000  )
        14        C      tau(  14) = (   0.7059321   0.3325183   0.0000000  )
        15        C      tau(  15) = (   0.7379028   0.3882607   0.0000000  )
        16        C      tau(  16) = (   0.8018772   0.3880094   0.0000000  )
        17        C      tau(  17) = (   0.8338253   0.4440165  -0.0000000  )
        18        C      tau(  18) = (   0.8978335   0.4441327  -0.0000000  )
        19        C      tau(  19) = (   0.1598700  -0.0557470  -0.0000000  )
        20        C      tau(  20) = (   0.2239506  -0.0556766  -0.0000000  )
        21        C      tau(  21) = (   0.2559959  -0.0000000  -0.0000000  )
        22        C      tau(  22) = (   0.3201610  -0.0000000  -0.0000000  )
        23        C      tau(  23) = (   0.3522551   0.0555874  -0.0000000  )
        24        C      tau(  24) = (   0.4162676   0.0556332   0.0000000  )
        25        C      tau(  25) = (   0.4484403   0.1111909  -0.0000000  )
        26        C      tau(  26) = (   0.5124893   0.1112077  -0.0000000  )
        27        C      tau(  27) = (   0.5450392   0.1664491  -0.0000000  )
        28        C      tau(  28) = (   0.6092232   0.1662280  -0.0000000  )
        29        C      tau(  29) = (   0.6417191   0.2215184   0.0000000  )
        30        C      tau(  30) = (   0.7057854   0.2210173   0.0000000  )
        31        C      tau(  31) = (   0.7378304   0.2765446   0.0000000  )
        32        C      tau(  32) = (   0.8018801   0.2757504   0.0000000  )
        33        C      tau(  33) = (   0.8337631   0.3318698   0.0000000  )
        34        C      tau(  34) = (   0.8978394   0.3323689   0.0000000  )
        35        C      tau(  35) = (   0.9298095   0.3882944   0.0000000  )
        36        C      tau(  36) = (   0.9938382   0.3884869   0.0000000  )
        37        C      tau(  37) = (   0.2560885  -0.1113439  -0.0000000  )
        38        C      tau(  38) = (   0.3202164  -0.1112748  -0.0000000  )
        39        C      tau(  39) = (   0.3522551  -0.0555874  -0.0000000  )
        40        C      tau(  40) = (   0.4162676  -0.0556332   0.0000000  )
        41        C      tau(  41) = (   0.4483559  -0.0000000   0.0000000  )
        42        C      tau(  42) = (   0.5122241   0.0000000   0.0000000  )
        43        C      tau(  43) = (   0.5443081   0.0556187   0.0000000  )
        44        C      tau(  44) = (   0.6080180   0.0556945   0.0000000  )
        45        C      tau(  45) = (   0.6409725   0.1105194   0.0000000  )
        46        C      tau(  46) = (   0.7052504   0.1099999   0.0000000  )
        47        C      tau(  47) = (   0.7377840   0.1647890  -0.0000000  )
        48        C      tau(  48) = (   0.8018013   0.1625850  -0.0000000  )
        49        C      tau(  49) = (   0.8338151   0.2192907  -0.0000000  )
        50        C      tau(  50) = (   0.8977282   0.2207851  -0.0000000  )
        51        C      tau(  51) = (   0.9297538   0.2766388   0.0000000  )
        52        C      tau(  52) = (   0.9939701   0.2771401   0.0000000  )
        53        C      tau(  53) = (   1.0258940   0.3327456   0.0000000  )
        54        C      tau(  54) = (   1.0901858   0.3330087  -0.0000000  )
        55        C      tau(  55) = (   0.3524329  -0.1667536  -0.0000000  )
        56        C      tau(  56) = (   0.4166180  -0.1667471  -0.0000000  )
        57        C      tau(  57) = (   0.4484403  -0.1111909   0.0000000  )
        58        C      tau(  58) = (   0.5124893  -0.1112077   0.0000000  )
        59        C      tau(  59) = (   0.5443081  -0.0556187   0.0000000  )
        60        C      tau(  60) = (   0.6080180  -0.0556945   0.0000000  )
        61        C      tau(  61) = (   0.6397292  -0.0000000   0.0000000  )
        62        C      tau(  62) = (   0.7024795  -0.0000000  -0.0000000  )
        63        C      tau(  63) = (   0.7368823   0.0536256  -0.0000000  )
        64        C      tau(  64) = (   0.7995855   0.0493842  -0.0000000  )
        65        C      tau(  65) = (   0.8338059   0.1047582  -0.0000000  )
        66        C      tau(  66) = (   0.8982052   0.1096473  -0.0000000  )
        67        C      tau(  67) = (   0.9297218   0.1650169  -0.0000000  )
        68        C      tau(  68) = (   0.9944624   0.1659148  -0.0000000  )
        69        C      tau(  69) = (   1.0262494   0.2215198  -0.0000000  )
        70        C      tau(  70) = (   1.0904822   0.2218505  -0.0000000  )
        71        C      tau(  71) = (   1.1224382   0.2775576  -0.0000000  )
        72        C      tau(  72) = (   1.1865606   0.2776367  -0.0000000  )
        73        C      tau(  73) = (   0.4490562  -0.2221306  -0.0000000  )
        74        C      tau(  74) = (   0.5131346  -0.2220956  -0.0000000  )
        75        C      tau(  75) = (   0.5450392  -0.1664491   0.0000000  )
        76        C      tau(  76) = (   0.6092232  -0.1662280  -0.0000000  )
        77        C      tau(  77) = (   0.6409725  -0.1105194  -0.0000000  )
        78        C      tau(  78) = (   0.7052504  -0.1099999  -0.0000000  )
        79        C      tau(  79) = (   0.7368823  -0.0536256  -0.0000000  )
        80        C      tau(  80) = (   0.7995855  -0.0493842  -0.0000000  )
        81        C      tau(  81) = (   0.9044906   0.0000000   0.0000000  )
        82        C      tau(  82) = (   0.9317555   0.0550765   0.0000000  )
        83        C      tau(  83) = (   0.9962232   0.0553356  -0.0000000  )
        84        C      tau(  84) = (   1.0274141   0.1110681  -0.0000000  )
        85        C      tau(  85) = (   1.0914424   0.1110795  -0.0000000  )
        86        C      tau(  86) = (   1.1230809   0.1666197  -0.0000000  )
        87        C      tau(  87) = (   1.1872877   0.1666549  -0.0000000  )
        88        C      tau(  88) = (   1.2190543   0.2222047  -0.0000000  )
        89        C      tau(  89) = (   1.2831676   0.2222284  -0.0000000  )
        90        C      tau(  90) = (   0.5455412  -0.2775147  -0.0000000  )
        91        C      tau(  91) = (   0.6096804  -0.2773055  -0.0000000  )
        92        C      tau(  92) = (   0.6417191  -0.2215184  -0.0000000  )
        93        C      tau(  93) = (   0.7057854  -0.2210173  -0.0000000  )
        94        C      tau(  94) = (   0.7377840  -0.1647890  -0.0000000  )
        95        C      tau(  95) = (   0.8018013  -0.1625850  -0.0000000  )
        96        C      tau(  96) = (   0.8338059  -0.1047582  -0.0000000  )
        97        C      tau(  97) = (   0.8982052  -0.1096473   0.0000000  )
        98        C      tau(  98) = (   0.9317555  -0.0550765   0.0000000  )
        99        C      tau(  99) = (   0.9962232  -0.0553356   0.0000000  )
       100        C      tau( 100) = (   1.0279257  -0.0000000   0.0000000  )
       101        C      tau( 101) = (   1.0920373  -0.0000000   0.0000000  )
       102        C      tau( 102) = (   1.1237031   0.0555276   0.0000000  )
       103        C      tau( 103) = (   1.1876785   0.0555433   0.0000000  )
       104        C      tau( 104) = (   1.2195517   0.1112079  -0.0000000  )
       105        C      tau( 105) = (   1.2835766   0.1111899  -0.0000000  )
       106        C      tau( 106) = (   1.3154767   0.1668035  -0.0000000  )
       107        C      tau( 107) = (   1.3796523   0.1668587  -0.0000000  )
       108        C      tau( 108) = (   0.6418186  -0.3328082  -0.0000000  )
       109        C      tau( 109) = (   0.7059321  -0.3325183  -0.0000000  )
       110        C      tau( 110) = (   0.7378304  -0.2765446  -0.0000000  )
       111        C      tau( 111) = (   0.8018801  -0.2757504  -0.0000000  )
       112        C      tau( 112) = (   0.8338151  -0.2192907  -0.0000000  )
       113        C      tau( 113) = (   0.8977282  -0.2207851  -0.0000000  )
       114        C      tau( 114) = (   0.9297218  -0.1650169   0.0000000  )
       115        C      tau( 115) = (   0.9944624  -0.1659148   0.0000000  )
       116        C      tau( 116) = (   1.0274141  -0.1110681   0.0000000  )
       117        C      tau( 117) = (   1.0914424  -0.1110795   0.0000000  )
       118        C      tau( 118) = (   1.1237031  -0.0555276   0.0000000  )
       119        C      tau( 119) = (   1.1876785  -0.0555433   0.0000000  )
       120        C      tau( 120) = (   1.2196773   0.0000000   0.0000000  )
       121        C      tau( 121) = (   1.2838019   0.0000000   0.0000000  )
       122        C      tau( 122) = (   1.3157503   0.0555868   0.0000000  )
       123        C      tau( 123) = (   1.3797939   0.0556170   0.0000000  )
       124        C      tau( 124) = (   1.4118138   0.1113187  -0.0000000  )
       125        C      tau( 125) = (   1.4758508   0.1114037  -0.0000000  )
       126        C      tau( 126) = (   0.7379028  -0.3882607  -0.0000000  )
       127        C      tau( 127) = (   0.8018772  -0.3880094  -0.0000000  )
       128        C      tau( 128) = (   0.8337631  -0.3318698  -0.0000000  )
       129        C      tau( 129) = (   0.8978394  -0.3323689  -0.0000000  )
       130        C      tau( 130) = (   0.9297538  -0.2766388  -0.0000000  )
       131        C      tau( 131) = (   0.9939701  -0.2771401  -0.0000000  )
       132        C      tau( 132) = (   1.0262494  -0.2215198   0.0000000  )
       133        C      tau( 133) = (   1.0904822  -0.2218505   0.0000000  )
       134        C      tau( 134) = (   1.1230809  -0.1666197   0.0000000  )
       135        C      tau( 135) = (   1.1872877  -0.1666549   0.0000000  )
       136        C      tau( 136) = (   1.2195517  -0.1112079   0.0000000  )
       137        C      tau( 137) = (   1.2835766  -0.1111899   0.0000000  )
       138        C      tau( 138) = (   1.3157503  -0.0555868   0.0000000  )
       139        C      tau( 139) = (   1.3797939  -0.0556170   0.0000000  )
       140        C      tau( 140) = (   1.4118403   0.0000000   0.0000000  )
       141        C      tau( 141) = (   1.4759592   0.0000000   0.0000000  )
       142        C      tau( 142) = (   1.5079328   0.0557240   0.0000000  )
       143        C      tau( 143) = (   1.5719616   0.0558219  -0.0000000  )
       144        C      tau( 144) = (   0.8338253  -0.4440165  -0.0000000  )
       145        C      tau( 145) = (   0.8978335  -0.4441327  -0.0000000  )
       146        C      tau( 146) = (   0.9298095  -0.3882944  -0.0000000  )
       147        C      tau( 147) = (   0.9938382  -0.3884869  -0.0000000  )
       148        C      tau( 148) = (   1.0258940  -0.3327456  -0.0000000  )
       149        C      tau( 149) = (   1.0901858  -0.3330087  -0.0000000  )
       150        C      tau( 150) = (   1.1224382  -0.2775576   0.0000000  )
       151        C      tau( 151) = (   1.1865606  -0.2776367   0.0000000  )
       152        C      tau( 152) = (   1.2190543  -0.2222047   0.0000000  )
       153        C      tau( 153) = (   1.2831676  -0.2222284   0.0000000  )
       154        C      tau( 154) = (   1.3154767  -0.1668035   0.0000000  )
       155        C      tau( 155) = (   1.3796523  -0.1668587   0.0000000  )
       156        C      tau( 156) = (   1.4118138  -0.1113187   0.0000000  )
       157        C      tau( 157) = (   1.4758508  -0.1114037   0.0000000  )
       158        C      tau( 158) = (   1.5079328  -0.0557240   0.0000000  )
       159        C      tau( 159) = (   1.5719616  -0.0558219  -0.0000000  )
       160        C      tau( 160) = (   1.6039066   0.0000000  -0.0000000  )
       161        C      tau( 161) = (   1.6679591   0.0000000  -0.0000000  )

     number of k points=     9  Marzari-Vanderbilt smearing, width (Ry)=  0.0100
                       cart. coord. in units 2pi/alat
        k(    1) = (   0.0000000   0.0000000   0.0000000), wk =   0.2222222
        k(    2) = (   0.1924501   0.3333333   0.0000000), wk =   0.2222222
        k(    3) = (  -0.1924501  -0.3333333   0.0000000), wk =   0.2222222
        k(    4) = (   0.1924501  -0.3333333   0.0000000), wk =   0.2222222
        k(    5) = (   0.3849002  -0.0000000   0.0000000), wk =   0.2222222
        k(    6) = (  -0.0000000  -0.6666667   0.0000000), wk =   0.2222222
        k(    7) = (  -0.1924501   0.3333333   0.0000000), wk =   0.2222222
        k(    8) = (  -0.0000000   0.6666667   0.0000000), wk =   0.2222222
        k(    9) = (  -0.3849002   0.0000000   0.0000000), wk =   0.2222222

     Dense  grid:  6173045 G-vectors     FFT dimensions: ( 270, 270, 192)

     Estimated max dynamical RAM per process >       1.18 GB

     Estimated total dynamical RAM >      75.46 GB
 ----2D----2D----2D----2D----2D----2D----2D----2D----2D----2D----2D----2D
  The code is running with the 2D cutoff
  Please refer to:
  Sohier, T., Calandra, M., & Mauri, F. (2017), 
  Density functional perturbation theory for gated two-dimensional heterostructures:
  Theoretical developments and application to flexural phonons in graphene.
  Physical Review B, 96(7), 75448. https://doi.org/10.1103/PhysRevB.96.075448
 ----2D----2D----2D----2D----2D----2D----2D----2D----2D----2D----2D----2D

     Initial potential from superposition of free atoms

     starting charge     643.9928, renormalised to     644.0000

     negative rho (up, down):  1.232E-04 0.000E+00
     Starting wfcs are  644 randomized atomic wfcs

     total cpu time spent up to now is       80.6 secs

     per-process dynamical memory:  1077.5 Mb

     Self-consistent Calculation

     iteration #  1     ecut=   100.00 Ry     beta= 0.30
     Davidson diagonalization with overlap
     ethr =  1.00E-02,  avg # of iterations =  2.0

     negative rho (up, down):  2.926E-07 0.000E+00

     total cpu time spent up to now is      236.1 secs

     total energy              =   -1940.86145671 Ry
     estimated scf accuracy    <      13.70784447 Ry

     iteration #  2     ecut=   100.00 Ry     beta= 0.30
     Davidson diagonalization with overlap
     ethr =  2.13E-03,  avg # of iterations =  1.0

     negative rho (up, down):  9.745E-08 0.000E+00

     total cpu time spent up to now is      336.7 secs

     total energy              =   -1938.44000707 Ry
     estimated scf accuracy    <       6.94074807 Ry

     iteration #  3     ecut=   100.00 Ry     beta= 0.30
     Davidson diagonalization with overlap
     ethr =  1.08E-03,  avg # of iterations =  5.0

     total cpu time spent up to now is      456.9 secs

     total energy              =   -1938.60424929 Ry
     estimated scf accuracy    <       6.25361563 Ry

     iteration #  4     ecut=   100.00 Ry     beta= 0.30
     Davidson diagonalization with overlap
     ethr =  9.71E-04,  avg # of iterations =  2.0

     total cpu time spent up to now is      561.4 secs

     total energy              =   -1939.08611008 Ry
     estimated scf accuracy    <       0.95807253 Ry

     iteration #  5     ecut=   100.00 Ry     beta= 0.30
     Davidson diagonalization with overlap
     ethr =  1.49E-04,  avg # of iterations =  5.8

     total cpu time spent up to now is      676.6 secs

     total energy              =   -1939.08641393 Ry
     estimated scf accuracy    <       0.36258625 Ry

     iteration #  6     ecut=   100.00 Ry     beta= 0.30
     Davidson diagonalization with overlap
     ethr =  5.63E-05,  avg # of iterations =  4.2

     total cpu time spent up to now is      786.4 secs

     total energy              =   -1939.09292768 Ry
     estimated scf accuracy    <       0.17914490 Ry

     iteration #  7     ecut=   100.00 Ry     beta= 0.30
     Davidson diagonalization with overlap
     ethr =  2.78E-05,  avg # of iterations =  2.9

     total cpu time spent up to now is      892.5 secs

     total energy              =   -1939.11889252 Ry
     estimated scf accuracy    <       0.20639143 Ry

     iteration #  8     ecut=   100.00 Ry     beta= 0.30
     Davidson diagonalization with overlap
     ethr =  2.78E-05,  avg # of iterations =  1.1

     total cpu time spent up to now is      988.3 secs

     total energy              =   -1939.12334328 Ry
     estimated scf accuracy    <       0.02203560 Ry

     iteration #  9     ecut=   100.00 Ry     beta= 0.30
     Davidson diagonalization with overlap
     ethr =  3.42E-06,  avg # of iterations = 12.0

     total cpu time spent up to now is     1121.7 secs

     total energy              =   -1939.12525903 Ry
     estimated scf accuracy    <       0.00059482 Ry

     iteration # 10     ecut=   100.00 Ry     beta= 0.30
     Davidson diagonalization with overlap
     ethr =  9.24E-08,  avg # of iterations =  6.0

     total cpu time spent up to now is     1321.6 secs

     total energy              =   -1939.12571404 Ry
     estimated scf accuracy    <       0.00043804 Ry

     iteration # 11     ecut=   100.00 Ry     beta= 0.30
     Davidson diagonalization with overlap
     ethr =  6.80E-08,  avg # of iterations =  2.0

     total cpu time spent up to now is     1426.2 secs

     total energy              =   -1939.12572669 Ry
     estimated scf accuracy    <       0.00013733 Ry

     iteration # 12     ecut=   100.00 Ry     beta= 0.30
     Davidson diagonalization with overlap
     ethr =  2.13E-08,  avg # of iterations =  2.0

     total cpu time spent up to now is     1535.4 secs

     total energy              =   -1939.12573555 Ry
     estimated scf accuracy    <       0.00001347 Ry

     iteration # 13     ecut=   100.00 Ry     beta= 0.30
     Davidson diagonalization with overlap
     ethr =  2.09E-09,  avg # of iterations =  5.0

     total cpu time spent up to now is     1687.9 secs

     total energy              =   -1939.12573656 Ry
     estimated scf accuracy    <       0.00012376 Ry

     iteration # 14     ecut=   100.00 Ry     beta= 0.30
     Davidson diagonalization with overlap
     ethr =  2.09E-09,  avg # of iterations =  3.4

     total cpu time spent up to now is     1804.3 secs

     total energy              =   -1939.12574113 Ry
     estimated scf accuracy    <       0.00000129 Ry

     iteration # 15     ecut=   100.00 Ry     beta= 0.30
     Davidson diagonalization with overlap
     ethr =  2.00E-10,  avg # of iterations =  4.7

     total cpu time spent up to now is     1941.5 secs

     total energy              =   -1939.12574138 Ry
     estimated scf accuracy    <       0.00000252 Ry

     iteration # 16     ecut=   100.00 Ry     beta= 0.30
     Davidson diagonalization with overlap
     ethr =  2.00E-10,  avg # of iterations =  2.2

     total cpu time spent up to now is     2050.7 secs

     total energy              =   -1939.12574148 Ry
     estimated scf accuracy    <       0.00000007 Ry

     iteration # 17     ecut=   100.00 Ry     beta= 0.30
     Davidson diagonalization with overlap
     ethr =  1.10E-11,  avg # of iterations =  5.0

     negative rho (up, down):  1.429E-07 0.000E+00

     total cpu time spent up to now is     2204.2 secs

     total energy              =   -1939.12574149 Ry
     estimated scf accuracy    <       0.00000002 Ry

     iteration # 18     ecut=   100.00 Ry     beta= 0.30
     Davidson diagonalization with overlap
     ethr =  3.35E-12,  avg # of iterations =  2.2

     negative rho (up, down):  1.038E-07 0.000E+00

     total cpu time spent up to now is     2338.6 secs

     total energy              =   -1939.12574149 Ry
     estimated scf accuracy    <          4.5E-09 Ry

     iteration # 19     ecut=   100.00 Ry     beta= 0.30
     Davidson diagonalization with overlap
     ethr =  6.95E-13,  avg # of iterations =  2.9

     negative rho (up, down):  3.805E-08 0.000E+00

     total cpu time spent up to now is     2474.2 secs

     total energy              =   -1939.12574149 Ry
     estimated scf accuracy    <          8.5E-10 Ry

     iteration # 20     ecut=   100.00 Ry     beta= 0.30
     Davidson diagonalization with overlap
     ethr =  1.32E-13,  avg # of iterations =  4.4

     negative rho (up, down):  1.927E-08 0.000E+00

     total cpu time spent up to now is     2643.2 secs

     total energy              =   -1939.12574149 Ry
     estimated scf accuracy    <          2.0E-10 Ry

     iteration # 21     ecut=   100.00 Ry     beta= 0.30
     Davidson diagonalization with overlap
     ethr =  1.00E-13,  avg # of iterations =  1.0

     total cpu time spent up to now is     2738.5 secs

     End of self-consistent calculation

          k = 0.0000 0.0000 0.0000 (771419 PWs)   bands (ev):

   -23.8002 -23.5586 -23.5323 -23.5214 -23.5057 -23.4775 -23.4089 -22.9710
   -22.9452 -22.9392 -22.9319 -22.9044 -22.8488 -22.6769 -22.6615 -22.6429
   -22.6329 -22.6149 -22.4770 -21.8294 -21.8123 -21.8121 -21.8010 -21.7942
   -21.7921 -21.7905 -21.7822 -21.7757 -21.7746 -21.7167 -21.5349 -21.2455
   -21.2349 -21.2240 -21.2100 -21.1889 -21.0087 -20.4060 -20.4014 -20.3960
   -20.3848 -20.3614 -20.3147 -20.1402 -20.1390 -20.1294 -20.1272 -20.1247
   -20.1198 -20.1098 -20.1008 -20.0973 -20.0878 -20.0309 -19.7134 -19.3417
   -19.3390 -19.3188 -19.2943 -19.2894 -19.1021 -18.5739 -18.5735 -18.5644
   -18.5613 -18.5563 -18.5557 -18.5377 -18.5302 -18.5184 -18.4970 -18.4805
   -18.4428 -18.3933 -18.3842 -18.3695 -18.3548 -18.3465 -17.7232 -17.3534
   -17.3532 -17.3499 -17.3078 -17.2708 -17.1926 -16.9159 -16.8667 -16.8619
   -16.7807 -16.6818 -16.6768 -16.6679 -16.6075 -16.5875 -16.4361 -16.1022
   -16.0999 -16.0998 -16.0988 -16.0954 -16.0852 -16.0818 -16.0776 -16.0522
   -15.9492 -15.9352 -15.5567 -15.2406 -15.2396 -15.2230 -15.2211 -15.2164
   -15.2160 -15.2093 -15.1930 -15.1917 -15.0806 -15.0798 -14.8152 -14.7836
   -14.4759 -13.9901 -13.9794 -13.9790 -13.9576 -13.9538 -13.9433 -13.9401
   -13.9318 -13.9155 -13.8441 -13.8227 -13.5619 -13.4789 -13.4605 -13.4588
   -13.4483 -13.4430 -13.4390 -13.4324 -13.4282 -13.4135 -13.2218 -13.1921
   -12.9299 -12.5172 -12.5144 -12.4721 -12.4704 -12.4618 -12.4594 -12.4579
   -12.4534 -12.4530 -12.4484 -12.4420 -12.4264 -12.4244 -12.4230 -12.4120
   -12.1720 -12.1672 -11.8831 -11.7206 -11.6295 -11.6277 -11.6254 -11.5762
   -11.5614 -11.5530 -11.5460 -11.5379 -11.5271 -11.5105 -11.4661 -11.4191
   -11.3682 -11.3355 -11.3333 -11.3272 -11.3267 -11.3161 -11.3092 -11.2772
   -11.2708 -11.1756 -11.1470 -11.1282 -11.0237 -11.0096 -10.9857 -10.9115
   -10.8782 -10.8696 -10.8642 -10.8577 -10.8529 -10.8286 -10.7621 -10.6790
   -10.6578 -10.6361 -10.6353 -10.5828 -10.5725 -10.5438 -10.5387 -10.5272
   -10.5142 -10.5036 -10.4900 -10.4663 -10.4585 -10.4479 -10.4428 -10.4415
   -10.4369 -10.4232 -10.4086 -10.3914 -10.3419 -10.2396 -10.2260 -10.2147
   -10.1215 -10.0952 -10.0692 -10.0540 -10.0459 -10.0195 -10.0107 -10.0012
    -9.9795  -9.5483  -9.5403  -9.5401  -9.5314  -9.5237  -9.5223  -9.5201
    -9.5132  -9.5075  -9.5039  -9.4713  -9.4615  -9.4504  -9.2654  -9.1351
    -9.1026  -9.0931  -9.0805  -9.0671  -9.0615  -9.0615  -9.0502  -9.0395
    -8.9874  -8.9099  -8.8975  -8.8944  -8.8758  -8.8736  -8.8192  -8.6933
    -8.6094  -8.6092  -8.4655  -8.4497  -8.4469  -8.1099  -8.0979  -7.9631
    -7.9470  -7.9465  -7.9440  -7.9433  -7.9275  -7.9218  -7.9181  -7.9021
    -7.8791  -7.8683  -7.7131  -7.7094  -7.7077  -7.7015  -7.6999  -7.6986
    -7.6953  -7.6910  -7.6695  -7.6692  -7.6528  -7.4075  -7.4068  -7.3622
    -7.0730  -7.0692  -7.0597  -7.0361  -7.0181  -6.8079  -6.3729  -6.3724
    -6.3622  -6.3466  -6.3438  -6.2576  -6.0941  -6.0886  -6.0858  -6.0850
    -6.0765  -6.0741  -6.0605  -6.0515  -6.0437  -6.0341  -6.0209  -5.0161
    -4.4031  -4.2861  -4.2502  -4.2351  -3.9587  -3.1221  -2.6758  -2.6647
    -2.6617  -2.6566  -2.6449  -2.6436  -2.5892  -2.5885  -2.5781  -2.5635
    -2.5633  -2.5604  -2.5575  -2.5358  -2.5262  -2.4420  -2.4317  -2.2130
    -2.0653  -2.0570  -2.0365  -2.0013  -1.9660  -1.5713  -0.9792  -0.9746

          k = 0.1925 0.3333 0.0000 (771640 PWs)   bands (ev):

   -23.7701 -23.6748 -23.5882 -23.5379 -23.3966 -23.3572 -23.2671 -23.1998
   -23.1550 -22.9904 -22.9068 -22.8689 -22.8094 -22.7418 -22.6243 -22.5743
   -22.4281 -22.3723 -22.2436 -22.2243 -22.1990 -22.1388 -22.0620 -21.8513
   -21.8122 -21.7355 -21.6615 -21.6019 -21.4726 -21.4259 -21.3907 -21.3421
   -21.2944 -21.1809 -20.9245 -20.9110 -20.8980 -20.8307 -20.7362 -20.6815
   -20.6075 -20.5412 -20.4768 -20.3462 -20.3180 -20.2491 -20.1678 -19.9695
   -19.8972 -19.8635 -19.8237 -19.7591 -19.6439 -19.6282 -19.6183 -19.5328
   -19.4696 -19.3343 -19.2044 -19.1676 -19.1103 -19.0350 -18.9597 -18.8962
   -18.8072 -18.7634 -18.6762 -18.6209 -18.5908 -18.5696 -18.5098 -18.4323
   -18.4000 -18.3417 -18.1256 -17.9755 -17.9579 -17.9444 -17.6578 -17.3997
   -17.3693 -17.3110 -17.2801 -17.2021 -17.0637 -17.0559 -16.9955 -16.9244
   -16.8895 -16.7897 -16.7307 -16.6504 -16.5983 -16.5611 -16.5002 -16.4004
   -16.2831 -16.2482 -16.1847 -16.1131 -16.0885 -15.9404 -15.8272 -15.8084
   -15.7462 -15.7176 -15.6974 -15.6456 -15.5793 -15.4837 -15.3621 -15.3219
   -15.0474 -14.8530 -14.7969 -14.7643 -14.6801 -14.6563 -14.6285 -14.5891
   -14.5483 -14.4825 -14.3559 -14.3242 -14.3033 -14.2157 -14.1772 -14.0971
   -14.0716 -13.8885 -13.8668 -13.7193 -13.5278 -13.4926 -13.4283 -13.4191
   -13.3844 -13.3601 -13.3229 -13.2435 -13.1644 -13.1260 -12.9475 -12.9366
   -12.9251 -12.9205 -12.9000 -12.8487 -12.7870 -12.7608 -12.6695 -12.6372
   -12.3855 -12.2202 -12.1969 -12.1833 -12.1403 -12.0834 -12.0482 -11.9972
   -11.9719 -11.9319 -11.9068 -11.8465 -11.8431 -11.8024 -11.7534 -11.7317
   -11.7255 -11.6334 -11.6274 -11.5878 -11.5754 -11.5600 -11.5286 -11.4947
   -11.4594 -11.4431 -11.3978 -11.3583 -11.3276 -11.2477 -11.1894 -11.1661
   -11.1402 -11.1178 -11.1098 -11.0978 -11.0789 -11.0023 -10.9680 -10.9163
   -10.9091 -10.8631 -10.8222 -10.8188 -10.7918 -10.7833 -10.7756 -10.7552
   -10.7485 -10.7384 -10.7212 -10.7104 -10.7048 -10.6865 -10.6545 -10.6380
   -10.6219 -10.6009 -10.5118 -10.4855 -10.4352 -10.4351 -10.4053 -10.3264
   -10.2994 -10.2570 -10.2525 -10.2468 -10.2037 -10.1802 -10.1376 -10.0884
   -10.0665 -10.0430 -10.0399 -10.0319 -10.0252  -9.9942  -9.9222  -9.9013
    -9.8831  -9.8454  -9.8021  -9.6411  -9.6172  -9.5899  -9.5658  -9.5520
    -9.4954  -9.4787  -9.4661  -9.4027  -9.3776  -9.3546  -9.3210  -9.2910
    -9.1674  -9.1456  -9.1211  -9.0730  -9.0568  -9.0170  -9.0061  -8.9724
    -8.9560  -8.9530  -8.9144  -8.8563  -8.7473  -8.6486  -8.6114  -8.5504
    -8.5307  -8.5231  -8.4632  -8.4298  -8.3737  -8.3415  -8.2976  -8.2877
    -8.2380  -8.2275  -8.1659  -8.1484  -8.0819  -8.0616  -7.9600  -7.9059
    -7.8822  -7.8240  -7.8191  -7.7976  -7.7522  -7.6818  -7.6023  -7.5143
    -7.5084  -7.4635  -7.4605  -7.3228  -7.3026  -7.2888  -7.2486  -7.1861
    -7.1322  -7.0817  -6.9856  -6.7954  -6.7533  -6.6896  -6.6841  -6.6674
    -6.6411  -6.6171  -6.5782  -6.5638  -6.5419  -6.3223  -6.2061  -6.1636
    -6.1096  -6.0768  -6.0327  -5.7642  -5.6426  -5.5455  -5.4642  -5.0872
    -4.8606  -4.5147  -4.4036  -3.6727  -3.5743  -3.1228  -3.1095  -3.0753
    -3.0117  -2.9325  -2.6833  -2.6683  -2.6305  -2.6130  -2.5457  -2.5326
    -2.5040  -2.4838  -2.4171  -2.4000  -2.3518  -2.3125  -2.1501  -2.0014
    -1.9528  -1.8508  -1.7926  -1.7667  -1.7107  -1.6778  -1.5456  -1.4609

          k =-0.1925-0.3333 0.0000 (771640 PWs)   bands (ev):

   -23.7701 -23.6748 -23.5882 -23.5379 -23.3966 -23.3572 -23.2671 -23.1998
   -23.1550 -22.9904 -22.9068 -22.8689 -22.8094 -22.7418 -22.6243 -22.5743
   -22.4281 -22.3723 -22.2436 -22.2243 -22.1990 -22.1388 -22.0620 -21.8513
   -21.8122 -21.7355 -21.6615 -21.6019 -21.4726 -21.4259 -21.3907 -21.3421
   -21.2944 -21.1809 -20.9245 -20.9110 -20.8980 -20.8307 -20.7362 -20.6815
   -20.6075 -20.5412 -20.4768 -20.3462 -20.3180 -20.2491 -20.1678 -19.9695
   -19.8972 -19.8635 -19.8237 -19.7591 -19.6439 -19.6282 -19.6183 -19.5328
   -19.4696 -19.3343 -19.2044 -19.1676 -19.1103 -19.0350 -18.9597 -18.8962
   -18.8072 -18.7634 -18.6762 -18.6209 -18.5908 -18.5696 -18.5098 -18.4323
   -18.4000 -18.3417 -18.1256 -17.9755 -17.9579 -17.9444 -17.6578 -17.3997
   -17.3693 -17.3110 -17.2801 -17.2021 -17.0637 -17.0559 -16.9955 -16.9244
   -16.8895 -16.7897 -16.7307 -16.6504 -16.5983 -16.5611 -16.5002 -16.4004
   -16.2831 -16.2482 -16.1847 -16.1131 -16.0885 -15.9404 -15.8272 -15.8084
   -15.7462 -15.7176 -15.6974 -15.6456 -15.5793 -15.4837 -15.3621 -15.3219
   -15.0474 -14.8530 -14.7969 -14.7643 -14.6801 -14.6563 -14.6285 -14.5891
   -14.5483 -14.4825 -14.3559 -14.3242 -14.3033 -14.2157 -14.1772 -14.0971
   -14.0716 -13.8885 -13.8668 -13.7193 -13.5278 -13.4926 -13.4283 -13.4191
   -13.3844 -13.3601 -13.3229 -13.2435 -13.1644 -13.1260 -12.9475 -12.9366
   -12.9251 -12.9205 -12.9000 -12.8487 -12.7870 -12.7608 -12.6695 -12.6372
   -12.3855 -12.2202 -12.1969 -12.1833 -12.1403 -12.0834 -12.0482 -11.9972
   -11.9719 -11.9319 -11.9068 -11.8465 -11.8431 -11.8024 -11.7534 -11.7317
   -11.7255 -11.6334 -11.6274 -11.5878 -11.5754 -11.5600 -11.5286 -11.4947
   -11.4594 -11.4431 -11.3978 -11.3583 -11.3276 -11.2477 -11.1894 -11.1661
   -11.1402 -11.1178 -11.1098 -11.0978 -11.0789 -11.0023 -10.9680 -10.9163
   -10.9091 -10.8631 -10.8222 -10.8188 -10.7918 -10.7833 -10.7756 -10.7552
   -10.7485 -10.7384 -10.7212 -10.7104 -10.7048 -10.6865 -10.6545 -10.6380
   -10.6219 -10.6009 -10.5118 -10.4855 -10.4352 -10.4351 -10.4053 -10.3264
   -10.2994 -10.2570 -10.2525 -10.2468 -10.2037 -10.1802 -10.1376 -10.0884
   -10.0665 -10.0430 -10.0399 -10.0319 -10.0252  -9.9942  -9.9222  -9.9013
    -9.8831  -9.8454  -9.8021  -9.6411  -9.6172  -9.5899  -9.5658  -9.5520
    -9.4954  -9.4787  -9.4661  -9.4027  -9.3776  -9.3546  -9.3210  -9.2910
    -9.1674  -9.1456  -9.1211  -9.0730  -9.0568  -9.0170  -9.0061  -8.9724
    -8.9560  -8.9530  -8.9144  -8.8563  -8.7473  -8.6486  -8.6114  -8.5504
    -8.5307  -8.5231  -8.4632  -8.4298  -8.3737  -8.3415  -8.2976  -8.2877
    -8.2380  -8.2275  -8.1659  -8.1484  -8.0819  -8.0616  -7.9600  -7.9059
    -7.8822  -7.8240  -7.8191  -7.7976  -7.7522  -7.6818  -7.6023  -7.5143
    -7.5084  -7.4635  -7.4605  -7.3228  -7.3026  -7.2888  -7.2486  -7.1861
    -7.1322  -7.0817  -6.9856  -6.7954  -6.7533  -6.6896  -6.6841  -6.6674
    -6.6411  -6.6171  -6.5782  -6.5638  -6.5419  -6.3223  -6.2061  -6.1636
    -6.1096  -6.0768  -6.0327  -5.7642  -5.6426  -5.5455  -5.4642  -5.0872
    -4.8606  -4.5147  -4.4036  -3.6727  -3.5743  -3.1228  -3.1095  -3.0753
    -3.0117  -2.9325  -2.6833  -2.6683  -2.6305  -2.6130  -2.5457  -2.5326
    -2.5040  -2.4838  -2.4171  -2.4000  -2.3518  -2.3125  -2.1501  -2.0014
    -1.9528  -1.8508  -1.7926  -1.7667  -1.7107  -1.6778  -1.5457  -1.4609

          k = 0.1925-0.3333 0.0000 (771640 PWs)   bands (ev):

   -23.7701 -23.6748 -23.5882 -23.5379 -23.3966 -23.3572 -23.2671 -23.1998
   -23.1550 -22.9904 -22.9068 -22.8689 -22.8094 -22.7418 -22.6243 -22.5743
   -22.4281 -22.3723 -22.2436 -22.2243 -22.1990 -22.1388 -22.0620 -21.8513
   -21.8122 -21.7355 -21.6615 -21.6019 -21.4726 -21.4259 -21.3907 -21.3421
   -21.2944 -21.1809 -20.9245 -20.9110 -20.8980 -20.8307 -20.7362 -20.6815
   -20.6075 -20.5412 -20.4768 -20.3462 -20.3180 -20.2491 -20.1678 -19.9695
   -19.8972 -19.8635 -19.8237 -19.7591 -19.6439 -19.6282 -19.6183 -19.5328
   -19.4696 -19.3343 -19.2044 -19.1676 -19.1103 -19.0350 -18.9597 -18.8962
   -18.8072 -18.7634 -18.6762 -18.6209 -18.5908 -18.5696 -18.5098 -18.4323
   -18.4000 -18.3417 -18.1256 -17.9755 -17.9579 -17.9444 -17.6578 -17.3997
   -17.3693 -17.3110 -17.2801 -17.2021 -17.0637 -17.0559 -16.9955 -16.9244
   -16.8895 -16.7897 -16.7307 -16.6504 -16.5983 -16.5611 -16.5002 -16.4004
   -16.2831 -16.2482 -16.1847 -16.1131 -16.0885 -15.9404 -15.8272 -15.8084
   -15.7462 -15.7176 -15.6974 -15.6456 -15.5793 -15.4837 -15.3621 -15.3219
   -15.0474 -14.8530 -14.7969 -14.7643 -14.6801 -14.6563 -14.6285 -14.5891
   -14.5483 -14.4825 -14.3559 -14.3242 -14.3033 -14.2157 -14.1772 -14.0971
   -14.0716 -13.8885 -13.8668 -13.7193 -13.5278 -13.4926 -13.4283 -13.4191
   -13.3844 -13.3601 -13.3229 -13.2435 -13.1644 -13.1260 -12.9475 -12.9366
   -12.9251 -12.9205 -12.9000 -12.8487 -12.7870 -12.7608 -12.6695 -12.6372
   -12.3855 -12.2202 -12.1969 -12.1833 -12.1403 -12.0834 -12.0482 -11.9972
   -11.9719 -11.9319 -11.9068 -11.8465 -11.8431 -11.8024 -11.7534 -11.7317
   -11.7255 -11.6334 -11.6274 -11.5878 -11.5754 -11.5600 -11.5286 -11.4947
   -11.4594 -11.4431 -11.3978 -11.3583 -11.3276 -11.2477 -11.1894 -11.1661
   -11.1402 -11.1178 -11.1098 -11.0978 -11.0789 -11.0023 -10.9680 -10.9163
   -10.9091 -10.8631 -10.8222 -10.8188 -10.7918 -10.7833 -10.7756 -10.7552
   -10.7485 -10.7384 -10.7212 -10.7104 -10.7048 -10.6865 -10.6545 -10.6380
   -10.6219 -10.6009 -10.5118 -10.4855 -10.4352 -10.4351 -10.4053 -10.3264
   -10.2994 -10.2570 -10.2525 -10.2468 -10.2037 -10.1802 -10.1376 -10.0884
   -10.0665 -10.0430 -10.0399 -10.0319 -10.0252  -9.9942  -9.9222  -9.9013
    -9.8831  -9.8454  -9.8021  -9.6411  -9.6172  -9.5899  -9.5658  -9.5520
    -9.4954  -9.4787  -9.4661  -9.4027  -9.3776  -9.3546  -9.3210  -9.2910
    -9.1674  -9.1456  -9.1211  -9.0730  -9.0568  -9.0170  -9.0061  -8.9724
    -8.9560  -8.9530  -8.9144  -8.8563  -8.7473  -8.6486  -8.6114  -8.5504
    -8.5307  -8.5231  -8.4632  -8.4298  -8.3737  -8.3415  -8.2976  -8.2877
    -8.2380  -8.2275  -8.1659  -8.1484  -8.0819  -8.0616  -7.9600  -7.9059
    -7.8822  -7.8240  -7.8191  -7.7976  -7.7522  -7.6818  -7.6023  -7.5143
    -7.5084  -7.4635  -7.4605  -7.3228  -7.3026  -7.2888  -7.2486  -7.1861
    -7.1322  -7.0817  -6.9856  -6.7954  -6.7533  -6.6896  -6.6841  -6.6674
    -6.6411  -6.6171  -6.5782  -6.5638  -6.5419  -6.3223  -6.2061  -6.1636
    -6.1096  -6.0768  -6.0327  -5.7642  -5.6426  -5.5455  -5.4642  -5.0872
    -4.8606  -4.5147  -4.4036  -3.6727  -3.5743  -3.1228  -3.1095  -3.0753
    -3.0117  -2.9325  -2.6833  -2.6683  -2.6305  -2.6130  -2.5457  -2.5326
    -2.5040  -2.4838  -2.4171  -2.4000  -2.3518  -2.3125  -2.1501  -2.0014
    -1.9528  -1.8508  -1.7926  -1.7667  -1.7107  -1.6778  -1.5457  -1.4609

          k = 0.3849-0.0000 0.0000 (771640 PWs)   bands (ev):

   -23.7742 -23.6602 -23.5738 -23.5716 -23.3748 -23.3726 -23.2820 -23.1794
   -23.1481 -22.9778 -22.9062 -22.8910 -22.7961 -22.7805 -22.6023 -22.5739
   -22.4162 -22.4014 -22.2405 -22.2211 -22.1788 -22.1287 -22.0514 -21.8485
   -21.8425 -21.7311 -21.6537 -21.6300 -21.4641 -21.4621 -21.3713 -21.3410
   -21.2732 -21.1876 -20.9197 -20.9197 -20.8893 -20.8341 -20.7138 -20.6765
   -20.5892 -20.5337 -20.4756 -20.3604 -20.3424 -20.2496 -20.2019 -19.9574
   -19.8969 -19.8844 -19.8061 -19.7585 -19.6462 -19.6436 -19.6080 -19.5394
   -19.4467 -19.3379 -19.1850 -19.1570 -19.1003 -19.0468 -18.9652 -18.8993
   -18.7792 -18.7335 -18.6619 -18.6276 -18.6137 -18.5875 -18.5245 -18.4534
   -18.4125 -18.3582 -18.1521 -17.9562 -17.9431 -17.9298 -17.6476 -17.3860
   -17.3798 -17.3111 -17.2750 -17.2023 -17.0761 -17.0521 -16.9641 -16.9474
   -16.8810 -16.8028 -16.7410 -16.6481 -16.5740 -16.5446 -16.5260 -16.4003
   -16.2924 -16.2496 -16.1855 -16.1298 -16.0800 -15.9446 -15.8333 -15.8205
   -15.7376 -15.7174 -15.6796 -15.6211 -15.5735 -15.4983 -15.3646 -15.3425
   -15.0517 -14.8413 -14.8175 -14.7575 -14.6710 -14.6501 -14.6236 -14.5897
   -14.5618 -14.4888 -14.3686 -14.3169 -14.2929 -14.1974 -14.1734 -14.0721
   -14.0632 -13.8746 -13.8675 -13.7273 -13.5292 -13.5278 -13.4401 -13.4323
   -13.3884 -13.3625 -13.3148 -13.2397 -13.2092 -13.1124 -12.9439 -12.9354
   -12.9299 -12.9201 -12.9002 -12.8542 -12.7818 -12.7711 -12.6461 -12.6378
   -12.3610 -12.2180 -12.1961 -12.1665 -12.1284 -12.0891 -12.0433 -11.9771
   -11.9629 -11.9324 -11.9012 -11.8498 -11.8293 -11.8029 -11.7487 -11.7288
   -11.7203 -11.6515 -11.6162 -11.6024 -11.5864 -11.5811 -11.5648 -11.5014
   -11.4940 -11.4257 -11.3795 -11.3701 -11.3674 -11.2595 -11.1606 -11.1500
   -11.1281 -11.1134 -11.1112 -11.1015 -11.0590 -11.0303 -10.9442 -10.9164
   -10.9082 -10.8536 -10.8185 -10.8117 -10.8003 -10.7927 -10.7740 -10.7574
   -10.7495 -10.7322 -10.7158 -10.7010 -10.6941 -10.6769 -10.6655 -10.6654
   -10.6162 -10.6074 -10.5449 -10.4687 -10.4352 -10.4232 -10.4200 -10.3289
   -10.2881 -10.2576 -10.2521 -10.2480 -10.2242 -10.1710 -10.1283 -10.0931
   -10.0571 -10.0390 -10.0349 -10.0336 -10.0231  -9.9778  -9.9142  -9.8999
    -9.8825  -9.8425  -9.8161  -9.6355  -9.6336  -9.5878  -9.5726  -9.5541
    -9.5075  -9.4660  -9.4626  -9.4200  -9.3723  -9.3471  -9.3396  -9.2928
    -9.1620  -9.1448  -9.1096  -9.0669  -9.0451  -9.0331  -9.0143  -8.9716
    -8.9390  -8.9314  -8.9138  -8.8634  -8.7664  -8.6594  -8.6183  -8.5472
    -8.5470  -8.5141  -8.4587  -8.4457  -8.3794  -8.3232  -8.2980  -8.2620
    -8.2527  -8.2111  -8.1691  -8.1449  -8.0859  -8.0099  -7.9840  -7.9150
    -7.8995  -7.8225  -7.8207  -7.7947  -7.7680  -7.6941  -7.5895  -7.5150
    -7.5133  -7.4788  -7.4594  -7.3105  -7.3090  -7.2945  -7.2510  -7.1834
    -7.1305  -7.0613  -6.9832  -6.8037  -6.7794  -6.6701  -6.6684  -6.6520
    -6.6389  -6.6170  -6.5590  -6.5507  -6.5494  -6.3352  -6.2173  -6.1740
    -6.1235  -6.0900  -6.0473  -5.7547  -5.6175  -5.5452  -5.4635  -5.0926
    -4.8608  -4.5086  -4.4041  -3.6734  -3.5787  -3.1222  -3.1078  -3.0903
    -3.0407  -2.9266  -2.6673  -2.6566  -2.6161  -2.5993  -2.5305  -2.5303
    -2.5051  -2.4623  -2.4250  -2.4192  -2.3491  -2.2993  -2.1665  -2.0033
    -1.9728  -1.8682  -1.7983  -1.7850  -1.7091  -1.6683  -1.5371  -1.4633

          k =-0.0000-0.6667 0.0000 (771639 PWs)   bands (ev):

   -23.7374 -23.7005 -23.6623 -23.4376 -23.4108 -23.3698 -23.1643 -23.1451
   -23.1293 -23.1185 -23.0924 -23.0015 -22.5812 -22.5706 -22.5530 -22.5425
   -22.5206 -22.4397 -22.2751 -22.2589 -22.1986 -22.0016 -21.9939 -21.9770
   -21.9644 -21.9483 -21.8020 -21.4192 -21.4104 -21.3547 -21.1482 -21.1447
   -21.1288 -21.1163 -21.1040 -21.0107 -20.8744 -20.8639 -20.8513 -20.8415
   -20.8147 -20.6421 -20.3163 -20.3097 -20.2902 -20.2811 -20.2634 -20.1100
   -19.7785 -19.7634 -19.7518 -19.7437 -19.7251 -19.5908 -19.2566 -19.2519
   -19.2403 -19.2377 -19.2289 -19.2076 -19.2010 -19.1833 -19.0847 -18.9916
   -18.9873 -18.9673 -18.9462 -18.9332 -18.7037 -18.5511 -18.5244 -18.3285
   -18.0571 -18.0391 -18.0034 -17.9820 -17.9428 -17.7546 -17.5598 -17.5523
   -17.5198 -17.4863 -17.4619 -17.2422 -17.0325 -17.0166 -16.9499 -16.7180
   -16.6914 -16.6692 -16.6070 -16.6014 -16.5928 -16.5392 -16.5270 -16.4828
   -16.3902 -16.3837 -16.3769 -16.3156 -16.2599 -16.1792 -16.0658 -15.9921
   -15.6811 -15.3506 -15.3468 -15.3318 -15.2788 -15.2756 -15.2259 -15.0870
   -15.0776 -15.0607 -15.0375 -15.0273 -15.0136 -14.9416 -14.9038 -14.4359
   -14.3986 -14.3312 -14.3001 -14.1686 -14.1602 -14.1189 -13.9091 -13.9014
   -13.8771 -13.8562 -13.8413 -13.8349 -13.8165 -13.8036 -13.7874 -13.7209
   -13.6278 -13.5232 -13.4874 -13.3689 -13.0816 -12.8519 -12.8373 -12.8193
   -12.7217 -12.6763 -12.6216 -12.5404 -12.5235 -12.5146 -12.5028 -12.4983
   -12.4774 -12.4675 -12.4576 -12.4411 -12.3682 -12.2694 -12.1908 -12.1442
   -12.1205 -12.1201 -11.9944 -11.9618 -11.8008 -11.7699 -11.7205 -11.6946
   -11.5113 -11.4945 -11.4823 -11.4687 -11.4546 -11.4419 -11.4198 -11.4131
   -11.3770 -11.3605 -11.3539 -11.3237 -11.2784 -11.2178 -11.1887 -11.1101
   -11.1019 -11.0980 -11.0877 -11.0802 -11.0769 -11.0654 -11.0633 -11.0596
   -11.0574 -11.0496 -11.0421 -11.0410 -11.0192 -10.9450 -10.9415 -10.8967
   -10.8258 -10.7405 -10.7174 -10.5887 -10.5591 -10.5440 -10.5433 -10.5325
   -10.5202 -10.5078 -10.4954 -10.4730 -10.4544 -10.4262 -10.4180 -10.4086
   -10.3972 -10.3730 -10.2864 -10.2446 -10.2055 -10.1735 -10.0748 -10.0616
   -10.0203 -10.0038  -9.9693  -9.9428  -9.7585  -9.7555  -9.7509  -9.7410
    -9.7368  -9.7263  -9.7201  -9.7185  -9.6967  -9.6914  -9.6751  -9.6599
    -9.6519  -9.6412  -9.5676  -9.5321  -9.4824  -9.4595  -9.4420  -9.4267
    -9.3932  -9.0911  -9.0820  -9.0325  -8.9660  -8.8965  -8.8832  -8.7973
    -8.7911  -8.7850  -8.7674  -8.7644  -8.6760  -8.6597  -8.6414  -8.5782
    -8.5739  -8.5594  -8.5249  -8.4792  -8.4705  -8.4645  -8.4506  -8.4319
    -8.2855  -8.2748  -8.2276  -8.2070  -8.1073  -7.9255  -7.9171  -7.9143
    -7.8985  -7.8901  -7.8442  -7.8373  -7.7304  -7.6595  -7.6267  -7.6021
    -7.5429  -7.2920  -7.2851  -7.2787  -7.2636  -7.2511  -7.1560  -6.9604
    -6.9553  -6.9468  -6.9242  -6.9085  -6.8116  -6.6951  -6.6883  -6.6648
    -6.6322  -6.6240  -6.6187  -6.6133  -6.6093  -6.5730  -6.5644  -6.5602
    -6.0758  -5.8952  -5.8792  -5.6524  -5.4323  -5.3965  -5.2838  -5.1950
    -5.1805  -4.5692  -4.4041  -3.4212  -3.3581  -3.3205  -3.1333  -3.1228
    -3.1056  -3.0600  -2.8977  -2.8444  -2.7821  -2.5834  -2.5662  -2.5190
    -2.2404  -2.2253  -2.2116  -2.1930  -2.1593  -2.1466  -2.0985  -2.0890
    -2.0689  -2.0395  -1.9983  -1.9117  -1.7951  -1.7412  -1.5490  -1.2637

          k =-0.1925 0.3333 0.0000 (771640 PWs)   bands (ev):

   -23.7701 -23.6748 -23.5882 -23.5379 -23.3966 -23.3572 -23.2671 -23.1998
   -23.1550 -22.9904 -22.9068 -22.8689 -22.8094 -22.7418 -22.6243 -22.5743
   -22.4281 -22.3723 -22.2436 -22.2243 -22.1990 -22.1388 -22.0620 -21.8513
   -21.8122 -21.7355 -21.6615 -21.6019 -21.4726 -21.4259 -21.3907 -21.3421
   -21.2944 -21.1809 -20.9245 -20.9110 -20.8980 -20.8307 -20.7362 -20.6815
   -20.6075 -20.5412 -20.4768 -20.3462 -20.3180 -20.2491 -20.1678 -19.9695
   -19.8972 -19.8635 -19.8237 -19.7591 -19.6439 -19.6282 -19.6183 -19.5328
   -19.4696 -19.3343 -19.2044 -19.1676 -19.1103 -19.0350 -18.9597 -18.8962
   -18.8072 -18.7634 -18.6762 -18.6209 -18.5908 -18.5696 -18.5098 -18.4323
   -18.4000 -18.3417 -18.1256 -17.9755 -17.9579 -17.9444 -17.6578 -17.3997
   -17.3693 -17.3110 -17.2801 -17.2021 -17.0637 -17.0559 -16.9955 -16.9244
   -16.8895 -16.7897 -16.7307 -16.6504 -16.5983 -16.5611 -16.5002 -16.4004
   -16.2831 -16.2482 -16.1847 -16.1131 -16.0885 -15.9404 -15.8272 -15.8084
   -15.7462 -15.7176 -15.6974 -15.6456 -15.5793 -15.4837 -15.3621 -15.3219
   -15.0474 -14.8530 -14.7969 -14.7643 -14.6801 -14.6563 -14.6285 -14.5891
   -14.5483 -14.4825 -14.3559 -14.3242 -14.3033 -14.2157 -14.1772 -14.0971
   -14.0716 -13.8885 -13.8668 -13.7193 -13.5278 -13.4926 -13.4283 -13.4191
   -13.3844 -13.3601 -13.3229 -13.2435 -13.1644 -13.1260 -12.9475 -12.9366
   -12.9251 -12.9205 -12.9000 -12.8487 -12.7870 -12.7608 -12.6695 -12.6372
   -12.3855 -12.2202 -12.1969 -12.1833 -12.1403 -12.0834 -12.0482 -11.9972
   -11.9719 -11.9319 -11.9068 -11.8465 -11.8431 -11.8024 -11.7534 -11.7317
   -11.7255 -11.6334 -11.6274 -11.5878 -11.5754 -11.5600 -11.5286 -11.4947
   -11.4594 -11.4431 -11.3978 -11.3583 -11.3276 -11.2477 -11.1894 -11.1661
   -11.1402 -11.1178 -11.1098 -11.0978 -11.0789 -11.0023 -10.9680 -10.9163
   -10.9091 -10.8631 -10.8222 -10.8188 -10.7918 -10.7833 -10.7756 -10.7552
   -10.7485 -10.7384 -10.7212 -10.7104 -10.7048 -10.6865 -10.6545 -10.6380
   -10.6219 -10.6009 -10.5118 -10.4855 -10.4352 -10.4351 -10.4053 -10.3264
   -10.2994 -10.2570 -10.2525 -10.2468 -10.2037 -10.1802 -10.1376 -10.0884
   -10.0665 -10.0430 -10.0399 -10.0319 -10.0252  -9.9942  -9.9222  -9.9013
    -9.8831  -9.8454  -9.8021  -9.6411  -9.6172  -9.5899  -9.5658  -9.5520
    -9.4954  -9.4787  -9.4661  -9.4027  -9.3776  -9.3546  -9.3210  -9.2910
    -9.1674  -9.1456  -9.1211  -9.0730  -9.0568  -9.0170  -9.0061  -8.9724
    -8.9560  -8.9530  -8.9144  -8.8563  -8.7473  -8.6486  -8.6114  -8.5504
    -8.5307  -8.5231  -8.4632  -8.4298  -8.3737  -8.3415  -8.2976  -8.2877
    -8.2380  -8.2275  -8.1659  -8.1484  -8.0819  -8.0616  -7.9600  -7.9059
    -7.8822  -7.8240  -7.8191  -7.7976  -7.7522  -7.6818  -7.6023  -7.5143
    -7.5084  -7.4635  -7.4605  -7.3228  -7.3026  -7.2888  -7.2486  -7.1861
    -7.1322  -7.0817  -6.9856  -6.7954  -6.7533  -6.6896  -6.6841  -6.6674
    -6.6411  -6.6171  -6.5782  -6.5638  -6.5419  -6.3223  -6.2061  -6.1636
    -6.1096  -6.0768  -6.0327  -5.7642  -5.6426  -5.5455  -5.4642  -5.0872
    -4.8606  -4.5147  -4.4036  -3.6727  -3.5743  -3.1228  -3.1095  -3.0753
    -3.0117  -2.9325  -2.6833  -2.6683  -2.6305  -2.6130  -2.5457  -2.5326
    -2.5040  -2.4838  -2.4171  -2.4000  -2.3518  -2.3125  -2.1501  -2.0014
    -1.9528  -1.8508  -1.7926  -1.7667  -1.7107  -1.6778  -1.5457  -1.4609

          k =-0.0000 0.6667 0.0000 (771639 PWs)   bands (ev):

   -23.7374 -23.7005 -23.6623 -23.4376 -23.4108 -23.3698 -23.1643 -23.1451
   -23.1293 -23.1185 -23.0924 -23.0015 -22.5812 -22.5706 -22.5530 -22.5425
   -22.5206 -22.4397 -22.2751 -22.2589 -22.1986 -22.0016 -21.9939 -21.9770
   -21.9644 -21.9483 -21.8020 -21.4192 -21.4104 -21.3547 -21.1482 -21.1447
   -21.1288 -21.1163 -21.1040 -21.0107 -20.8744 -20.8639 -20.8513 -20.8415
   -20.8147 -20.6421 -20.3163 -20.3097 -20.2902 -20.2811 -20.2634 -20.1100
   -19.7785 -19.7634 -19.7518 -19.7437 -19.7251 -19.5908 -19.2566 -19.2519
   -19.2403 -19.2377 -19.2289 -19.2076 -19.2010 -19.1833 -19.0847 -18.9916
   -18.9873 -18.9673 -18.9462 -18.9332 -18.7037 -18.5511 -18.5244 -18.3285
   -18.0571 -18.0391 -18.0034 -17.9820 -17.9428 -17.7546 -17.5598 -17.5523
   -17.5198 -17.4863 -17.4619 -17.2422 -17.0325 -17.0166 -16.9499 -16.7180
   -16.6914 -16.6692 -16.6070 -16.6014 -16.5928 -16.5392 -16.5270 -16.4828
   -16.3902 -16.3837 -16.3769 -16.3156 -16.2599 -16.1792 -16.0658 -15.9921
   -15.6811 -15.3506 -15.3468 -15.3318 -15.2788 -15.2756 -15.2259 -15.0870
   -15.0776 -15.0607 -15.0375 -15.0273 -15.0136 -14.9416 -14.9038 -14.4359
   -14.3986 -14.3312 -14.3001 -14.1686 -14.1602 -14.1189 -13.9091 -13.9014
   -13.8771 -13.8562 -13.8413 -13.8349 -13.8165 -13.8036 -13.7874 -13.7209
   -13.6278 -13.5232 -13.4874 -13.3689 -13.0816 -12.8519 -12.8373 -12.8193
   -12.7217 -12.6763 -12.6216 -12.5404 -12.5235 -12.5146 -12.5028 -12.4983
   -12.4774 -12.4675 -12.4576 -12.4411 -12.3682 -12.2694 -12.1908 -12.1442
   -12.1205 -12.1201 -11.9944 -11.9618 -11.8008 -11.7699 -11.7205 -11.6946
   -11.5113 -11.4945 -11.4823 -11.4687 -11.4546 -11.4419 -11.4198 -11.4131
   -11.3770 -11.3605 -11.3539 -11.3237 -11.2784 -11.2178 -11.1887 -11.1101
   -11.1019 -11.0980 -11.0877 -11.0802 -11.0769 -11.0654 -11.0633 -11.0596
   -11.0574 -11.0496 -11.0421 -11.0410 -11.0192 -10.9450 -10.9415 -10.8967
   -10.8258 -10.7405 -10.7174 -10.5887 -10.5591 -10.5440 -10.5433 -10.5325
   -10.5202 -10.5078 -10.4954 -10.4730 -10.4544 -10.4262 -10.4180 -10.4086
   -10.3972 -10.3730 -10.2864 -10.2446 -10.2055 -10.1735 -10.0748 -10.0616
   -10.0203 -10.0038  -9.9693  -9.9428  -9.7585  -9.7555  -9.7509  -9.7410
    -9.7368  -9.7263  -9.7201  -9.7185  -9.6967  -9.6914  -9.6751  -9.6599
    -9.6519  -9.6412  -9.5676  -9.5321  -9.4824  -9.4595  -9.4420  -9.4267
    -9.3932  -9.0911  -9.0820  -9.0325  -8.9660  -8.8965  -8.8832  -8.7973
    -8.7911  -8.7850  -8.7674  -8.7644  -8.6760  -8.6597  -8.6414  -8.5782
    -8.5739  -8.5594  -8.5249  -8.4792  -8.4705  -8.4645  -8.4506  -8.4319
    -8.2855  -8.2748  -8.2276  -8.2070  -8.1073  -7.9255  -7.9171  -7.9143
    -7.8985  -7.8901  -7.8442  -7.8373  -7.7304  -7.6595  -7.6267  -7.6021
    -7.5429  -7.2920  -7.2851  -7.2787  -7.2636  -7.2511  -7.1560  -6.9604
    -6.9553  -6.9468  -6.9242  -6.9085  -6.8116  -6.6951  -6.6883  -6.6648
    -6.6322  -6.6240  -6.6187  -6.6133  -6.6093  -6.5730  -6.5644  -6.5602
    -6.0758  -5.8952  -5.8792  -5.6524  -5.4323  -5.3965  -5.2838  -5.1950
    -5.1805  -4.5692  -4.4041  -3.4212  -3.3581  -3.3205  -3.1333  -3.1228
    -3.1056  -3.0600  -2.8977  -2.8444  -2.7821  -2.5834  -2.5662  -2.5190
    -2.2404  -2.2253  -2.2116  -2.1930  -2.1593  -2.1466  -2.0985  -2.0890
    -2.0689  -2.0395  -1.9983  -1.9117  -1.7951  -1.7412  -1.5489  -1.2645

          k =-0.3849 0.0000 0.0000 (771640 PWs)   bands (ev):

   -23.7742 -23.6602 -23.5738 -23.5716 -23.3748 -23.3726 -23.2820 -23.1794
   -23.1481 -22.9778 -22.9062 -22.8910 -22.7961 -22.7805 -22.6023 -22.5739
   -22.4162 -22.4014 -22.2405 -22.2211 -22.1788 -22.1287 -22.0514 -21.8485
   -21.8425 -21.7311 -21.6537 -21.6300 -21.4641 -21.4621 -21.3713 -21.3410
   -21.2732 -21.1876 -20.9197 -20.9197 -20.8893 -20.8341 -20.7138 -20.6765
   -20.5892 -20.5337 -20.4756 -20.3604 -20.3424 -20.2496 -20.2019 -19.9574
   -19.8969 -19.8844 -19.8061 -19.7585 -19.6462 -19.6436 -19.6080 -19.5394
   -19.4467 -19.3379 -19.1850 -19.1570 -19.1003 -19.0468 -18.9652 -18.8993
   -18.7792 -18.7335 -18.6619 -18.6276 -18.6137 -18.5875 -18.5245 -18.4534
   -18.4125 -18.3582 -18.1521 -17.9562 -17.9431 -17.9298 -17.6476 -17.3860
   -17.3798 -17.3111 -17.2750 -17.2023 -17.0761 -17.0521 -16.9641 -16.9474
   -16.8810 -16.8028 -16.7410 -16.6481 -16.5740 -16.5446 -16.5260 -16.4003
   -16.2924 -16.2496 -16.1855 -16.1298 -16.0800 -15.9446 -15.8333 -15.8205
   -15.7376 -15.7174 -15.6796 -15.6211 -15.5735 -15.4983 -15.3646 -15.3425
   -15.0517 -14.8413 -14.8175 -14.7575 -14.6710 -14.6501 -14.6236 -14.5897
   -14.5618 -14.4888 -14.3686 -14.3169 -14.2929 -14.1974 -14.1734 -14.0721
   -14.0632 -13.8746 -13.8675 -13.7273 -13.5292 -13.5278 -13.4401 -13.4323
   -13.3884 -13.3625 -13.3148 -13.2397 -13.2092 -13.1124 -12.9439 -12.9354
   -12.9299 -12.9201 -12.9002 -12.8542 -12.7818 -12.7711 -12.6461 -12.6378
   -12.3610 -12.2180 -12.1961 -12.1665 -12.1284 -12.0891 -12.0433 -11.9771
   -11.9629 -11.9324 -11.9012 -11.8498 -11.8293 -11.8029 -11.7487 -11.7288
   -11.7203 -11.6515 -11.6162 -11.6024 -11.5864 -11.5811 -11.5648 -11.5014
   -11.4940 -11.4257 -11.3795 -11.3701 -11.3674 -11.2595 -11.1606 -11.1500
   -11.1281 -11.1134 -11.1112 -11.1015 -11.0590 -11.0303 -10.9442 -10.9164
   -10.9082 -10.8536 -10.8185 -10.8117 -10.8003 -10.7927 -10.7740 -10.7574
   -10.7495 -10.7322 -10.7158 -10.7010 -10.6941 -10.6769 -10.6655 -10.6654
   -10.6162 -10.6074 -10.5449 -10.4687 -10.4352 -10.4232 -10.4200 -10.3289
   -10.2881 -10.2576 -10.2521 -10.2480 -10.2242 -10.1710 -10.1283 -10.0931
   -10.0571 -10.0390 -10.0349 -10.0336 -10.0231  -9.9778  -9.9142  -9.8999
    -9.8825  -9.8425  -9.8161  -9.6355  -9.6336  -9.5878  -9.5726  -9.5541
    -9.5075  -9.4660  -9.4626  -9.4200  -9.3723  -9.3471  -9.3396  -9.2928
    -9.1620  -9.1448  -9.1096  -9.0669  -9.0451  -9.0331  -9.0143  -8.9716
    -8.9390  -8.9314  -8.9138  -8.8634  -8.7664  -8.6594  -8.6183  -8.5472
    -8.5470  -8.5141  -8.4587  -8.4457  -8.3794  -8.3232  -8.2980  -8.2620
    -8.2527  -8.2111  -8.1691  -8.1449  -8.0859  -8.0099  -7.9840  -7.9150
    -7.8995  -7.8225  -7.8207  -7.7947  -7.7680  -7.6941  -7.5895  -7.5150
    -7.5133  -7.4788  -7.4594  -7.3105  -7.3090  -7.2945  -7.2510  -7.1834
    -7.1305  -7.0613  -6.9832  -6.8037  -6.7794  -6.6701  -6.6684  -6.6520
    -6.6389  -6.6170  -6.5590  -6.5507  -6.5494  -6.3352  -6.2173  -6.1740
    -6.1235  -6.0900  -6.0473  -5.7547  -5.6175  -5.5452  -5.4635  -5.0926
    -4.8608  -4.5086  -4.4041  -3.6734  -3.5787  -3.1222  -3.1078  -3.0903
    -3.0407  -2.9266  -2.6673  -2.6566  -2.6161  -2.5993  -2.5305  -2.5303
    -2.5051  -2.4623  -2.4250  -2.4192  -2.3491  -2.2993  -2.1665  -2.0033
    -1.9728  -1.8682  -1.7983  -1.7850  -1.7091  -1.6684  -1.5371  -1.4633

     the Fermi energy is    -4.4251 ev

!    total energy              =   -1939.12574149 Ry
     estimated scf accuracy    <          4.3E-11 Ry
     smearing contrib. (-TS)   =      -0.00315969 Ry
     internal energy E=F+TS    =   -1939.12258180 Ry

     The total energy is F=E-TS. E is the sum of the following terms:
     one-electron contribution =  -21951.26999231 Ry
     hartree contribution      =   11035.58863121 Ry
     xc contribution           =    -689.84757965 Ry
     ewald contribution        =    9666.40635895 Ry

     convergence has been achieved in  21 iterations

     Forces acting on atoms (cartesian axes, Ry/au):

     atom    1 type  1   force =    -0.00114971   -0.00000000   -0.00000000
     atom    2 type  1   force =     0.00068879    0.00000000   -0.00000001
     atom    3 type  1   force =    -0.00197994    0.00041277    0.00000000
     atom    4 type  1   force =     0.00249134    0.00012859    0.00000000
     atom    5 type  1   force =    -0.00133770   -0.00147852   -0.00000000
     atom    6 type  1   force =     0.00162130   -0.00208738    0.00000001
     atom    7 type  1   force =     0.00085884    0.00117567   -0.00000001
     atom    8 type  1   force =    -0.00107360   -0.00001366    0.00000000
     atom    9 type  1   force =    -0.00272956    0.00172642    0.00000000
     atom   10 type  1   force =     0.00304526   -0.00044958   -0.00000000
     atom   11 type  1   force =    -0.00172473   -0.00089953    0.00000000
     atom   12 type  1   force =     0.00207642   -0.00184009    0.00000001
     atom   13 type  1   force =    -0.00038013    0.00116319    0.00000000
     atom   14 type  1   force =     0.00014699   -0.00010268    0.00000000
     atom   15 type  1   force =    -0.00272941    0.00108689    0.00000000
     atom   16 type  1   force =     0.00324895   -0.00022459    0.00000000
     atom   17 type  1   force =    -0.00238159   -0.00068858   -0.00000000
     atom   18 type  1   force =     0.00269791   -0.00049280    0.00000000
     atom   19 type  1   force =    -0.00197996   -0.00041276   -0.00000000
     atom   20 type  1   force =     0.00249135   -0.00012858    0.00000000
     atom   21 type  1   force =     0.00010159   -0.00000000    0.00000001
     atom   22 type  1   force =    -0.00122764   -0.00000000   -0.00000001
     atom   23 type  1   force =    -0.00299705    0.00162297    0.00000000
     atom   24 type  1   force =     0.00285907   -0.00083029    0.00000001
     atom   25 type  1   force =    -0.00144577   -0.00091232   -0.00000000
     atom   26 type  1   force =     0.00185981   -0.00208142    0.00000000
     atom   27 type  1   force =    -0.00059747    0.00145079    0.00000000
     atom   28 type  1   force =     0.00075508    0.00001166   -0.00000000
     atom   29 type  1   force =    -0.00345526    0.00136358    0.00000000
     atom   30 type  1   force =     0.00400042   -0.00165400   -0.00000001
     atom   31 type  1   force =    -0.00148109   -0.00033410    0.00000000
     atom   32 type  1   force =     0.00169137   -0.00195904    0.00000001
     atom   33 type  1   force =    -0.00058986    0.00141458   -0.00000001
     atom   34 type  1   force =     0.00040271   -0.00016727   -0.00000001
     atom   35 type  1   force =    -0.00265978    0.00097881   -0.00000001
     atom   36 type  1   force =     0.00336636   -0.00026054    0.00000000
     atom   37 type  1   force =    -0.00133769    0.00147851   -0.00000000
     atom   38 type  1   force =     0.00162131    0.00208737   -0.00000000
     atom   39 type  1   force =    -0.00299705   -0.00162298   -0.00000000
     atom   40 type  1   force =     0.00285908    0.00083028   -0.00000000
     atom   41 type  1   force =    -0.00316423    0.00000000    0.00000000
     atom   42 type  1   force =     0.00176185   -0.00000002    0.00000000
     atom   43 type  1   force =    -0.00425276    0.00049913    0.00000000
     atom   44 type  1   force =     0.00369909   -0.00333119   -0.00000000
     atom   45 type  1   force =    -0.00098347   -0.00075020   -0.00000000
     atom   46 type  1   force =     0.00252547   -0.00267316    0.00000000
     atom   47 type  1   force =    -0.00120104    0.00285467   -0.00000001
     atom   48 type  1   force =     0.00149263   -0.00002778    0.00000000
     atom   49 type  1   force =    -0.00356513    0.00085000   -0.00000000
     atom   50 type  1   force =     0.00506372   -0.00204814   -0.00000001
     atom   51 type  1   force =    -0.00013971    0.00003900   -0.00000001
     atom   52 type  1   force =     0.00093196   -0.00255264    0.00000000
     atom   53 type  1   force =     0.00180801    0.00252452   -0.00000000
     atom   54 type  1   force =    -0.00229798    0.00049058   -0.00000000
     atom   55 type  1   force =     0.00085883   -0.00117568   -0.00000001
     atom   56 type  1   force =    -0.00107359    0.00001367   -0.00000000
     atom   57 type  1   force =    -0.00144579    0.00091232   -0.00000000
     atom   58 type  1   force =     0.00185982    0.00208140   -0.00000000
     atom   59 type  1   force =    -0.00425277   -0.00049909   -0.00000001
     atom   60 type  1   force =     0.00369911    0.00333118    0.00000001
     atom   61 type  1   force =    -0.00749962    0.00000000   -0.00000000
     atom   62 type  1   force =     0.00460300    0.00000000   -0.00000001
     atom   63 type  1   force =    -0.00731623   -0.00563010    0.00000004
     atom   64 type  1   force =     0.01299426    0.00349760   -0.00000006
     atom   65 type  1   force =     0.00233248   -0.00021020   -0.00000002
     atom   66 type  1   force =    -0.00099661   -0.00292754   -0.00000001
     atom   67 type  1   force =     0.00444302    0.00579792   -0.00000001
     atom   68 type  1   force =    -0.00472204    0.00146691   -0.00000000
     atom   69 type  1   force =    -0.00194890    0.00290295    0.00000000
     atom   70 type  1   force =     0.00179543    0.00190588    0.00000001
     atom   71 type  1   force =    -0.00212040   -0.00215165   -0.00000001
     atom   72 type  1   force =     0.00249515   -0.00041739   -0.00000000
     atom   73 type  1   force =    -0.00272956   -0.00172642   -0.00000000
     atom   74 type  1   force =     0.00304525    0.00044959   -0.00000000
     atom   75 type  1   force =    -0.00059748   -0.00145080   -0.00000000
     atom   76 type  1   force =     0.00075507   -0.00001165    0.00000001
     atom   77 type  1   force =    -0.00098348    0.00075020   -0.00000001
     atom   78 type  1   force =     0.00252546    0.00267320    0.00000001
     atom   79 type  1   force =    -0.00731622    0.00563010    0.00000002
     atom   80 type  1   force =     0.01299427   -0.00349758   -0.00000005
     atom   81 type  1   force =     0.00475564   -0.00000005    0.00000013
     atom   82 type  1   force =    -0.01510496    0.00834784   -0.00000002
     atom   83 type  1   force =     0.00303530   -0.00082620    0.00000000
     atom   84 type  1   force =    -0.00342253   -0.00215385   -0.00000000
     atom   85 type  1   force =     0.00161333   -0.00250708    0.00000001
     atom   86 type  1   force =     0.00156290    0.00003997   -0.00000000
     atom   87 type  1   force =    -0.00190934   -0.00005102    0.00000000
     atom   88 type  1   force =    -0.00151890    0.00138378    0.00000000
     atom   89 type  1   force =     0.00184349    0.00190026    0.00000000
     atom   90 type  1   force =    -0.00172471    0.00089953    0.00000000
     atom   91 type  1   force =     0.00207642    0.00184010    0.00000000
     atom   92 type  1   force =    -0.00345526   -0.00136359    0.00000001
     atom   93 type  1   force =     0.00400041    0.00165401   -0.00000001
     atom   94 type  1   force =    -0.00120103   -0.00285469    0.00000000
     atom   95 type  1   force =     0.00149262    0.00002778    0.00000001
     atom   96 type  1   force =     0.00233247    0.00021020   -0.00000002
     atom   97 type  1   force =    -0.00099660    0.00292756    0.00000000
     atom   98 type  1   force =    -0.01510499   -0.00834774   -0.00000002
     atom   99 type  1   force =     0.00303527    0.00082614   -0.00000001
     atom  100 type  1   force =     0.00177703    0.00000005   -0.00000000
     atom  101 type  1   force =    -0.00211703   -0.00000002    0.00000000
     atom  102 type  1   force =    -0.00201754    0.00210841   -0.00000000
     atom  103 type  1   force =     0.00210257    0.00161482    0.00000001
     atom  104 type  1   force =    -0.00208492   -0.00180850   -0.00000000
     atom  105 type  1   force =     0.00244919   -0.00057463    0.00000001
     atom  106 type  1   force =     0.00059666   -0.00078656   -0.00000000
     atom  107 type  1   force =    -0.00083437    0.00007426   -0.00000000
     atom  108 type  1   force =    -0.00038012   -0.00116322    0.00000000
     atom  109 type  1   force =     0.00014698    0.00010269   -0.00000000
     atom  110 type  1   force =    -0.00148109    0.00033408   -0.00000000
     atom  111 type  1   force =     0.00169138    0.00195905    0.00000000
     atom  112 type  1   force =    -0.00356514   -0.00085000    0.00000000
     atom  113 type  1   force =     0.00506373    0.00204816   -0.00000001
     atom  114 type  1   force =     0.00444302   -0.00579796   -0.00000001
     atom  115 type  1   force =    -0.00472205   -0.00146686    0.00000000
     atom  116 type  1   force =    -0.00342250    0.00215386    0.00000001
     atom  117 type  1   force =     0.00161328    0.00250709    0.00000000
     atom  118 type  1   force =    -0.00201752   -0.00210837    0.00000000
     atom  119 type  1   force =     0.00210257   -0.00161483   -0.00000000
     atom  120 type  1   force =     0.00099012    0.00000000   -0.00000000
     atom  121 type  1   force =    -0.00118782   -0.00000000    0.00000001
     atom  122 type  1   force =    -0.00192374    0.00136582    0.00000000
     atom  123 type  1   force =     0.00233716    0.00113262    0.00000000
     atom  124 type  1   force =    -0.00248073   -0.00148412   -0.00000000
     atom  125 type  1   force =     0.00283612    0.00000494    0.00000001
     atom  126 type  1   force =    -0.00272940   -0.00108690   -0.00000001
     atom  127 type  1   force =     0.00324894    0.00022459    0.00000000
     atom  128 type  1   force =    -0.00058987   -0.00141460    0.00000001
     atom  129 type  1   force =     0.00040271    0.00016728   -0.00000000
     atom  130 type  1   force =    -0.00013972   -0.00003900    0.00000000
     atom  131 type  1   force =     0.00093195    0.00255266   -0.00000000
     atom  132 type  1   force =    -0.00194887   -0.00290299    0.00000001
     atom  133 type  1   force =     0.00179542   -0.00190586    0.00000000
     atom  134 type  1   force =     0.00156291   -0.00003999   -0.00000001
     atom  135 type  1   force =    -0.00190933    0.00005102    0.00000000
     atom  136 type  1   force =    -0.00208494    0.00180848    0.00000000
     atom  137 type  1   force =     0.00244920    0.00057463    0.00000000
     atom  138 type  1   force =    -0.00192374   -0.00136584   -0.00000000
     atom  139 type  1   force =     0.00233716   -0.00113262    0.00000001
     atom  140 type  1   force =     0.00013343   -0.00000001    0.00000001
     atom  141 type  1   force =    -0.00039130   -0.00000001   -0.00000000
     atom  142 type  1   force =    -0.00216091    0.00088934    0.00000000
     atom  143 type  1   force =     0.00252353    0.00070723    0.00000000
     atom  144 type  1   force =    -0.00238159    0.00068857    0.00000000
     atom  145 type  1   force =     0.00269791    0.00049279   -0.00000000
     atom  146 type  1   force =    -0.00265978   -0.00097883   -0.00000001
     atom  147 type  1   force =     0.00336635    0.00026054   -0.00000000
     atom  148 type  1   force =     0.00180802   -0.00252454   -0.00000000
     atom  149 type  1   force =    -0.00229799   -0.00049057    0.00000000
     atom  150 type  1   force =    -0.00212041    0.00215165   -0.00000000
     atom  151 type  1   force =     0.00249515    0.00041740    0.00000000
     atom  152 type  1   force =    -0.00151889   -0.00138379   -0.00000000
     atom  153 type  1   force =     0.00184349   -0.00190024   -0.00000000
     atom  154 type  1   force =     0.00059664    0.00078653    0.00000000
     atom  155 type  1   force =    -0.00083436   -0.00007424   -0.00000000
     atom  156 type  1   force =    -0.00248073    0.00148411    0.00000000
     atom  157 type  1   force =     0.00283612   -0.00000494    0.00000000
     atom  158 type  1   force =    -0.00216092   -0.00088933    0.00000001
     atom  159 type  1   force =     0.00252353   -0.00070723    0.00000000
     atom  160 type  1   force =    -0.00074358   -0.00000000    0.00000000
     atom  161 type  1   force =     0.00059328   -0.00000000   -0.00000000

     Total force =     0.049072     Total SCF correction =     0.000009

     Writing all to output data dir /home/gregb26/links/scratch/qe_tmp/vacancy_relaxed/k3x3/relax1_nspin1/k3x3_relax1_nspin1.save/ :
     XML data file, charge density, pseudopotentials, collected wavefunctions

     init_run     :     78.56s CPU     80.43s WALL (       1 calls)
     electrons    :   2604.70s CPU   2659.95s WALL (       1 calls)
     forces       :     36.06s CPU     36.41s WALL (       1 calls)

     Called by init_run:
     wfcinit      :     75.43s CPU     77.25s WALL (       1 calls)
     potinit      :      0.12s CPU      0.13s WALL (       1 calls)
     hinit0       :      0.68s CPU      0.69s WALL (       1 calls)

     Called by electrons:
     c_bands      :   2394.98s CPU   2441.30s WALL (      21 calls)
     sum_band     :    205.92s CPU    212.91s WALL (      21 calls)
     v_of_rho     :      2.52s CPU      2.61s WALL (      22 calls)
     mix_rho      :      0.98s CPU      1.02s WALL (      21 calls)

     Called by c_bands:
     init_us_2    :     15.39s CPU     15.55s WALL (     396 calls)
     cegterg      :   2332.21s CPU   2377.88s WALL (     189 calls)

     Called by *egterg:
     cdiaghg      :     38.79s CPU     39.37s WALL (     881 calls)
     h_psi        :   1551.42s CPU   1588.37s WALL (     890 calls)
     g_psi        :      1.75s CPU      1.77s WALL (     692 calls)

     Called by h_psi:
     h_psi:calbec :    428.74s CPU    432.67s WALL (     890 calls)
     vloc_psi     :    744.84s CPU    772.35s WALL (     890 calls)
                                        0.00s GPU  (     890 calls)
     add_vuspsi   :    375.36s CPU    378.00s WALL (     890 calls)

     General routines
     calbec       :    461.66s CPU    465.88s WALL (     926 calls)
     fft          :      2.46s CPU      2.56s WALL (     230 calls)
     ffts         :      0.13s CPU      0.14s WALL (      21 calls)
     fftw         :    903.79s CPU    937.90s WALL (  390802 calls)

     Parallel routines

     PWSCF        :   2737.30s CPU   2845.52s WALL


   This run was terminated on:  13:40: 0  22Sep2026            

=------------------------------------------------------------------------------=
   JOB DONE.
=------------------------------------------------------------------------------=
