
     Program PWSCF v.7.5 starts on 25Sep2026 at 15:57:42 

     This program is part of the open-source Quantum ESPRESSO suite
     for quantum simulation of materials; please cite
         "P. Giannozzi et al., J. Phys.:Condens. Matter 21 395502 (2009);
         "P. Giannozzi et al., J. Phys.:Condens. Matter 29 465901 (2017);
         "P. Giannozzi et al., J. Chem. Phys. 152 154105 (2020);
          URL http://www.quantum-espresso.org", 
     in publications or presentations arising from this work. More details at
     http://www.quantum-espresso.org/quote

     Parallel version (MPI & OpenMP), running on      64 processor cores
     Number of MPI processes:                64
     Threads/MPI process:                     1

     MPI processes distributed on     8 nodes
     473425 MiB available memory on the printing compute node when the environment starts

     Waiting for input...
     Reading input from standard input

     Current dimensions of program PWSCF are:
     Max number of different atomic species (ntypx) = 10
     Max number of k-points (npk) =  40000
     Max angular momentum in pseudopotentials (lmaxx) =  4

     gamma-point specific algorithms are used
     Found identity + (  0.0000  0.0556  0.0000) symmetry
     This is a supercell, fractional translations are disabled
     Message from routine setup:
     using ibrav=0 with symmetry is DISCOURAGED, use correct ibrav instead

     R & G space division:  proc/nbgrp/npool/nimage =      64
     Subspace diagonalization in iterative solution of the eigenvalue problem:
     one sub-group per band group will be used
     ELPA distributed-memory algorithm (size of sub-group:  8*  8 procs)


     Parallelization info
     --------------------
     sticks:   dense  smooth     PW     G-vecs:    dense   smooth      PW
     Min        3028    3028    757               385820   385820   48222
     Max        3030    3030    758               385826   385826   48226
     Sum      193909  193909  48511             24692771 24692771 3086369

     Using Slab Decomposition



     bravais-lattice index     =            0
     lattice parameter (alat)  =      83.8761  a.u.
     unit-cell volume          =  182779.9669 (a.u.)^3
     number of atoms/cell      =          648
     number of atomic types    =            1
     number of electrons       =      2592.00
     number of Kohn-Sham states=         1326
     kinetic-energy cutoff     =     100.0000  Ry
     charge density cutoff     =     400.0000  Ry
     scf convergence threshold =      1.0E-10
     mixing beta               =       0.3000
     number of iterations used =            8  plain     mixing
     Exchange-correlation= PBE
                           (   1   4   3   4   0   0   0)

     celldm(1)=  83.876124  celldm(2)=   0.000000  celldm(3)=   0.000000
     celldm(4)=   0.000000  celldm(5)=   0.000000  celldm(6)=   0.000000

     crystal axes: (cart. coord. in units of alat)
               a(1) = (   0.866025  -0.500000   0.000000 )  
               a(2) = (   0.866025   0.500000   0.000000 )  
               a(3) = (   0.000000   0.000000   0.357670 )  

     reciprocal axes: (cart. coord. in units 2 pi/alat)
               b(1) = (  0.577350 -1.000000  0.000000 )  
               b(2) = (  0.577350  1.000000 -0.000000 )  
               b(3) = ( -0.000000  0.000000  2.795871 )  


     PseudoPot. # 1 for C  read from file:
     /home/gregb26/links/projects/rrg-cotemich-ac/gregb26/abinit_processing/pseudo/C.upf
     MD5 check sum: 34a24e64c0a39f27c6c36b90a16ac686
     Pseudo is Norm-conserving + core correction, Zval =  4.0
     Generated using ONCVPSP code by D. R. Hamann
     Using radial grid of 1248 points,  4 beta functions with: 
                l(1) =   0
                l(2) =   0
                l(3) =   1
                l(4) =   1

     atomic species   valence    mass     pseudopotential
     C                 4.00    12.01100     C ( 1.00)

     24 Sym. Ops., with inversion, found



   Cartesian axes

     site n.     atom                  positions (alat units)
         1        C      tau(   1) = (   0.0320750  -0.0000000   0.0000000  )
         2        C      tau(   2) = (   0.0641500  -0.0000000   0.0000000  )
         3        C      tau(   3) = (   0.0801875   0.0277778   0.0000000  )
         4        C      tau(   4) = (   0.1122626   0.0277778   0.0000000  )
         5        C      tau(   5) = (   0.1283001   0.0555556   0.0000000  )
         6        C      tau(   6) = (   0.1603751   0.0555556   0.0000000  )
         7        C      tau(   7) = (   0.1764126   0.0833333   0.0000000  )
         8        C      tau(   8) = (   0.2084876   0.0833333   0.0000000  )
         9        C      tau(   9) = (   0.2245251   0.1111111   0.0000000  )
        10        C      tau(  10) = (   0.2566001   0.1111111   0.0000000  )
        11        C      tau(  11) = (   0.2726376   0.1388889   0.0000000  )
        12        C      tau(  12) = (   0.3047126   0.1388889   0.0000000  )
        13        C      tau(  13) = (   0.3207501   0.1666667   0.0000000  )
        14        C      tau(  14) = (   0.3528252   0.1666667   0.0000000  )
        15        C      tau(  15) = (   0.3688627   0.1944444   0.0000000  )
        16        C      tau(  16) = (   0.4009377   0.1944444   0.0000000  )
        17        C      tau(  17) = (   0.4169752   0.2222222   0.0000000  )
        18        C      tau(  18) = (   0.4490502   0.2222222   0.0000000  )
        19        C      tau(  19) = (   0.4650877   0.2500000   0.0000000  )
        20        C      tau(  20) = (   0.4971627   0.2500000   0.0000000  )
        21        C      tau(  21) = (   0.5132002   0.2777778   0.0000000  )
        22        C      tau(  22) = (   0.5452753   0.2777778   0.0000000  )
        23        C      tau(  23) = (   0.5613128   0.3055556   0.0000000  )
        24        C      tau(  24) = (   0.5933878   0.3055556   0.0000000  )
        25        C      tau(  25) = (   0.6094253   0.3333333   0.0000000  )
        26        C      tau(  26) = (   0.6415003   0.3333333   0.0000000  )
        27        C      tau(  27) = (   0.6575378   0.3611111   0.0000000  )
        28        C      tau(  28) = (   0.6896128   0.3611111   0.0000000  )
        29        C      tau(  29) = (   0.7056503   0.3888889   0.0000000  )
        30        C      tau(  30) = (   0.7377253   0.3888889   0.0000000  )
        31        C      tau(  31) = (   0.7537629   0.4166667   0.0000000  )
        32        C      tau(  32) = (   0.7858379   0.4166667   0.0000000  )
        33        C      tau(  33) = (   0.8018754   0.4444444   0.0000000  )
        34        C      tau(  34) = (   0.8339504   0.4444444   0.0000000  )
        35        C      tau(  35) = (   0.8499879   0.4722222   0.0000000  )
        36        C      tau(  36) = (   0.8820629   0.4722222   0.0000000  )
        37        C      tau(  37) = (   0.0801875  -0.0277778   0.0000000  )
        38        C      tau(  38) = (   0.1122626  -0.0277778   0.0000000  )
        39        C      tau(  39) = (   0.1283001  -0.0000000   0.0000000  )
        40        C      tau(  40) = (   0.1603751   0.0000000   0.0000000  )
        41        C      tau(  41) = (   0.1764126   0.0277778   0.0000000  )
        42        C      tau(  42) = (   0.2084876   0.0277778   0.0000000  )
        43        C      tau(  43) = (   0.2245251   0.0555556   0.0000000  )
        44        C      tau(  44) = (   0.2566001   0.0555556   0.0000000  )
        45        C      tau(  45) = (   0.2726376   0.0833333   0.0000000  )
        46        C      tau(  46) = (   0.3047126   0.0833333   0.0000000  )
        47        C      tau(  47) = (   0.3207501   0.1111111   0.0000000  )
        48        C      tau(  48) = (   0.3528252   0.1111111   0.0000000  )
        49        C      tau(  49) = (   0.3688627   0.1388889   0.0000000  )
        50        C      tau(  50) = (   0.4009377   0.1388889   0.0000000  )
        51        C      tau(  51) = (   0.4169752   0.1666667   0.0000000  )
        52        C      tau(  52) = (   0.4490502   0.1666667   0.0000000  )
        53        C      tau(  53) = (   0.4650877   0.1944444   0.0000000  )
        54        C      tau(  54) = (   0.4971627   0.1944444   0.0000000  )
        55        C      tau(  55) = (   0.5132002   0.2222222   0.0000000  )
        56        C      tau(  56) = (   0.5452753   0.2222222   0.0000000  )
        57        C      tau(  57) = (   0.5613128   0.2500000   0.0000000  )
        58        C      tau(  58) = (   0.5933878   0.2500000   0.0000000  )
        59        C      tau(  59) = (   0.6094253   0.2777778   0.0000000  )
        60        C      tau(  60) = (   0.6415003   0.2777778   0.0000000  )
        61        C      tau(  61) = (   0.6575378   0.3055556   0.0000000  )
        62        C      tau(  62) = (   0.6896128   0.3055556   0.0000000  )
        63        C      tau(  63) = (   0.7056503   0.3333333   0.0000000  )
        64        C      tau(  64) = (   0.7377253   0.3333333   0.0000000  )
        65        C      tau(  65) = (   0.7537629   0.3611111   0.0000000  )
        66        C      tau(  66) = (   0.7858379   0.3611111   0.0000000  )
        67        C      tau(  67) = (   0.8018754   0.3888889   0.0000000  )
        68        C      tau(  68) = (   0.8339504   0.3888889   0.0000000  )
        69        C      tau(  69) = (   0.8499879   0.4166667   0.0000000  )
        70        C      tau(  70) = (   0.8820629   0.4166667   0.0000000  )
        71        C      tau(  71) = (   0.8981004   0.4444444   0.0000000  )
        72        C      tau(  72) = (   0.9301754   0.4444444   0.0000000  )
        73        C      tau(  73) = (   0.1283001  -0.0555556   0.0000000  )
        74        C      tau(  74) = (   0.1603751  -0.0555556   0.0000000  )
        75        C      tau(  75) = (   0.1764126  -0.0277778   0.0000000  )
        76        C      tau(  76) = (   0.2084876  -0.0277778   0.0000000  )
        77        C      tau(  77) = (   0.2245251  -0.0000000   0.0000000  )
        78        C      tau(  78) = (   0.2566001  -0.0000000   0.0000000  )
        79        C      tau(  79) = (   0.2726376   0.0277778   0.0000000  )
        80        C      tau(  80) = (   0.3047126   0.0277778   0.0000000  )
        81        C      tau(  81) = (   0.3207501   0.0555556   0.0000000  )
        82        C      tau(  82) = (   0.3528252   0.0555556   0.0000000  )
        83        C      tau(  83) = (   0.3688627   0.0833333   0.0000000  )
        84        C      tau(  84) = (   0.4009377   0.0833333   0.0000000  )
        85        C      tau(  85) = (   0.4169752   0.1111111   0.0000000  )
        86        C      tau(  86) = (   0.4490502   0.1111111   0.0000000  )
        87        C      tau(  87) = (   0.4650877   0.1388889   0.0000000  )
        88        C      tau(  88) = (   0.4971627   0.1388889   0.0000000  )
        89        C      tau(  89) = (   0.5132002   0.1666667   0.0000000  )
        90        C      tau(  90) = (   0.5452753   0.1666667   0.0000000  )
        91        C      tau(  91) = (   0.5613128   0.1944444   0.0000000  )
        92        C      tau(  92) = (   0.5933878   0.1944444   0.0000000  )
        93        C      tau(  93) = (   0.6094253   0.2222222   0.0000000  )
        94        C      tau(  94) = (   0.6415003   0.2222222   0.0000000  )
        95        C      tau(  95) = (   0.6575378   0.2500000   0.0000000  )
        96        C      tau(  96) = (   0.6896128   0.2500000   0.0000000  )
        97        C      tau(  97) = (   0.7056503   0.2777778   0.0000000  )
        98        C      tau(  98) = (   0.7377253   0.2777778   0.0000000  )
        99        C      tau(  99) = (   0.7537629   0.3055556   0.0000000  )
       100        C      tau( 100) = (   0.7858379   0.3055556   0.0000000  )
       101        C      tau( 101) = (   0.8018754   0.3333333   0.0000000  )
       102        C      tau( 102) = (   0.8339504   0.3333333   0.0000000  )
       103        C      tau( 103) = (   0.8499879   0.3611111   0.0000000  )
       104        C      tau( 104) = (   0.8820629   0.3611111   0.0000000  )
       105        C      tau( 105) = (   0.8981004   0.3888889   0.0000000  )
       106        C      tau( 106) = (   0.9301754   0.3888889   0.0000000  )
       107        C      tau( 107) = (   0.9462129   0.4166667   0.0000000  )
       108        C      tau( 108) = (   0.9782880   0.4166667   0.0000000  )
       109        C      tau( 109) = (   0.1764126  -0.0833333   0.0000000  )
       110        C      tau( 110) = (   0.2084876  -0.0833333   0.0000000  )
       111        C      tau( 111) = (   0.2245251  -0.0555556   0.0000000  )
       112        C      tau( 112) = (   0.2566001  -0.0555556   0.0000000  )
       113        C      tau( 113) = (   0.2726376  -0.0277778   0.0000000  )
       114        C      tau( 114) = (   0.3047126  -0.0277778   0.0000000  )
       115        C      tau( 115) = (   0.3207501   0.0000000   0.0000000  )
       116        C      tau( 116) = (   0.3528252  -0.0000000   0.0000000  )
       117        C      tau( 117) = (   0.3688627   0.0277778   0.0000000  )
       118        C      tau( 118) = (   0.4009377   0.0277778   0.0000000  )
       119        C      tau( 119) = (   0.4169752   0.0555556   0.0000000  )
       120        C      tau( 120) = (   0.4490502   0.0555556   0.0000000  )
       121        C      tau( 121) = (   0.4650877   0.0833333   0.0000000  )
       122        C      tau( 122) = (   0.4971627   0.0833333   0.0000000  )
       123        C      tau( 123) = (   0.5132002   0.1111111   0.0000000  )
       124        C      tau( 124) = (   0.5452753   0.1111111   0.0000000  )
       125        C      tau( 125) = (   0.5613128   0.1388889   0.0000000  )
       126        C      tau( 126) = (   0.5933878   0.1388889   0.0000000  )
       127        C      tau( 127) = (   0.6094253   0.1666667   0.0000000  )
       128        C      tau( 128) = (   0.6415003   0.1666667   0.0000000  )
       129        C      tau( 129) = (   0.6575378   0.1944444   0.0000000  )
       130        C      tau( 130) = (   0.6896128   0.1944444   0.0000000  )
       131        C      tau( 131) = (   0.7056503   0.2222222   0.0000000  )
       132        C      tau( 132) = (   0.7377253   0.2222222   0.0000000  )
       133        C      tau( 133) = (   0.7537629   0.2500000   0.0000000  )
       134        C      tau( 134) = (   0.7858379   0.2500000   0.0000000  )
       135        C      tau( 135) = (   0.8018754   0.2777778   0.0000000  )
       136        C      tau( 136) = (   0.8339504   0.2777778   0.0000000  )
       137        C      tau( 137) = (   0.8499879   0.3055556   0.0000000  )
       138        C      tau( 138) = (   0.8820629   0.3055556   0.0000000  )
       139        C      tau( 139) = (   0.8981004   0.3333333   0.0000000  )
       140        C      tau( 140) = (   0.9301754   0.3333333   0.0000000  )
       141        C      tau( 141) = (   0.9462129   0.3611111   0.0000000  )
       142        C      tau( 142) = (   0.9782880   0.3611111   0.0000000  )
       143        C      tau( 143) = (   0.9943255   0.3888889   0.0000000  )
       144        C      tau( 144) = (   1.0264005   0.3888889   0.0000000  )
       145        C      tau( 145) = (   0.2245251  -0.1111111   0.0000000  )
       146        C      tau( 146) = (   0.2566001  -0.1111111   0.0000000  )
       147        C      tau( 147) = (   0.2726376  -0.0833333   0.0000000  )
       148        C      tau( 148) = (   0.3047126  -0.0833333   0.0000000  )
       149        C      tau( 149) = (   0.3207501  -0.0555556   0.0000000  )
       150        C      tau( 150) = (   0.3528252  -0.0555556   0.0000000  )
       151        C      tau( 151) = (   0.3688627  -0.0277778   0.0000000  )
       152        C      tau( 152) = (   0.4009377  -0.0277778   0.0000000  )
       153        C      tau( 153) = (   0.4169752  -0.0000000   0.0000000  )
       154        C      tau( 154) = (   0.4490502  -0.0000000   0.0000000  )
       155        C      tau( 155) = (   0.4650877   0.0277778   0.0000000  )
       156        C      tau( 156) = (   0.4971627   0.0277778   0.0000000  )
       157        C      tau( 157) = (   0.5132002   0.0555556   0.0000000  )
       158        C      tau( 158) = (   0.5452753   0.0555556   0.0000000  )
       159        C      tau( 159) = (   0.5613128   0.0833333   0.0000000  )
       160        C      tau( 160) = (   0.5933878   0.0833333   0.0000000  )
       161        C      tau( 161) = (   0.6094253   0.1111111   0.0000000  )
       162        C      tau( 162) = (   0.6415003   0.1111111   0.0000000  )
       163        C      tau( 163) = (   0.6575378   0.1388889   0.0000000  )
       164        C      tau( 164) = (   0.6896128   0.1388889   0.0000000  )
       165        C      tau( 165) = (   0.7056503   0.1666667   0.0000000  )
       166        C      tau( 166) = (   0.7377253   0.1666667   0.0000000  )
       167        C      tau( 167) = (   0.7537629   0.1944444   0.0000000  )
       168        C      tau( 168) = (   0.7858379   0.1944444   0.0000000  )
       169        C      tau( 169) = (   0.8018754   0.2222222   0.0000000  )
       170        C      tau( 170) = (   0.8339504   0.2222222   0.0000000  )
       171        C      tau( 171) = (   0.8499879   0.2500000   0.0000000  )
       172        C      tau( 172) = (   0.8820629   0.2500000   0.0000000  )
       173        C      tau( 173) = (   0.8981004   0.2777778   0.0000000  )
       174        C      tau( 174) = (   0.9301754   0.2777778   0.0000000  )
       175        C      tau( 175) = (   0.9462129   0.3055556   0.0000000  )
       176        C      tau( 176) = (   0.9782880   0.3055556   0.0000000  )
       177        C      tau( 177) = (   0.9943255   0.3333333   0.0000000  )
       178        C      tau( 178) = (   1.0264005   0.3333333   0.0000000  )
       179        C      tau( 179) = (   1.0424380   0.3611111   0.0000000  )
       180        C      tau( 180) = (   1.0745130   0.3611111   0.0000000  )
       181        C      tau( 181) = (   0.2726376  -0.1388889   0.0000000  )
       182        C      tau( 182) = (   0.3047126  -0.1388889   0.0000000  )
       183        C      tau( 183) = (   0.3207501  -0.1111111   0.0000000  )
       184        C      tau( 184) = (   0.3528252  -0.1111111   0.0000000  )
       185        C      tau( 185) = (   0.3688627  -0.0833333   0.0000000  )
       186        C      tau( 186) = (   0.4009377  -0.0833333   0.0000000  )
       187        C      tau( 187) = (   0.4169752  -0.0555556   0.0000000  )
       188        C      tau( 188) = (   0.4490502  -0.0555556   0.0000000  )
       189        C      tau( 189) = (   0.4650877  -0.0277778   0.0000000  )
       190        C      tau( 190) = (   0.4971627  -0.0277778   0.0000000  )
       191        C      tau( 191) = (   0.5132002  -0.0000000   0.0000000  )
       192        C      tau( 192) = (   0.5452753  -0.0000000   0.0000000  )
       193        C      tau( 193) = (   0.5613128   0.0277778   0.0000000  )
       194        C      tau( 194) = (   0.5933878   0.0277778   0.0000000  )
       195        C      tau( 195) = (   0.6094253   0.0555556   0.0000000  )
       196        C      tau( 196) = (   0.6415003   0.0555556   0.0000000  )
       197        C      tau( 197) = (   0.6575378   0.0833333   0.0000000  )
       198        C      tau( 198) = (   0.6896128   0.0833333   0.0000000  )
       199        C      tau( 199) = (   0.7056503   0.1111111   0.0000000  )
       200        C      tau( 200) = (   0.7377253   0.1111111   0.0000000  )
       201        C      tau( 201) = (   0.7537629   0.1388889   0.0000000  )
       202        C      tau( 202) = (   0.7858379   0.1388889   0.0000000  )
       203        C      tau( 203) = (   0.8018754   0.1666667   0.0000000  )
       204        C      tau( 204) = (   0.8339504   0.1666667   0.0000000  )
       205        C      tau( 205) = (   0.8499879   0.1944444   0.0000000  )
       206        C      tau( 206) = (   0.8820629   0.1944444   0.0000000  )
       207        C      tau( 207) = (   0.8981004   0.2222222   0.0000000  )
       208        C      tau( 208) = (   0.9301754   0.2222222   0.0000000  )
       209        C      tau( 209) = (   0.9462129   0.2500000   0.0000000  )
       210        C      tau( 210) = (   0.9782880   0.2500000   0.0000000  )
       211        C      tau( 211) = (   0.9943255   0.2777778   0.0000000  )
       212        C      tau( 212) = (   1.0264005   0.2777778   0.0000000  )
       213        C      tau( 213) = (   1.0424380   0.3055556   0.0000000  )
       214        C      tau( 214) = (   1.0745130   0.3055556   0.0000000  )
       215        C      tau( 215) = (   1.0905505   0.3333333   0.0000000  )
       216        C      tau( 216) = (   1.1226255   0.3333333   0.0000000  )
       217        C      tau( 217) = (   0.3207501  -0.1666667   0.0000000  )
       218        C      tau( 218) = (   0.3528252  -0.1666667   0.0000000  )
       219        C      tau( 219) = (   0.3688627  -0.1388889   0.0000000  )
       220        C      tau( 220) = (   0.4009377  -0.1388889   0.0000000  )
       221        C      tau( 221) = (   0.4169752  -0.1111111   0.0000000  )
       222        C      tau( 222) = (   0.4490502  -0.1111111   0.0000000  )
       223        C      tau( 223) = (   0.4650877  -0.0833333   0.0000000  )
       224        C      tau( 224) = (   0.4971627  -0.0833333   0.0000000  )
       225        C      tau( 225) = (   0.5132002  -0.0555556   0.0000000  )
       226        C      tau( 226) = (   0.5452753  -0.0555556   0.0000000  )
       227        C      tau( 227) = (   0.5613128  -0.0277778   0.0000000  )
       228        C      tau( 228) = (   0.5933878  -0.0277778   0.0000000  )
       229        C      tau( 229) = (   0.6094253  -0.0000000   0.0000000  )
       230        C      tau( 230) = (   0.6415003   0.0000000   0.0000000  )
       231        C      tau( 231) = (   0.6575378   0.0277778   0.0000000  )
       232        C      tau( 232) = (   0.6896128   0.0277778   0.0000000  )
       233        C      tau( 233) = (   0.7056503   0.0555556   0.0000000  )
       234        C      tau( 234) = (   0.7377253   0.0555556   0.0000000  )
       235        C      tau( 235) = (   0.7537629   0.0833333   0.0000000  )
       236        C      tau( 236) = (   0.7858379   0.0833333   0.0000000  )
       237        C      tau( 237) = (   0.8018754   0.1111111   0.0000000  )
       238        C      tau( 238) = (   0.8339504   0.1111111   0.0000000  )
       239        C      tau( 239) = (   0.8499879   0.1388889   0.0000000  )
       240        C      tau( 240) = (   0.8820629   0.1388889   0.0000000  )
       241        C      tau( 241) = (   0.8981004   0.1666667   0.0000000  )
       242        C      tau( 242) = (   0.9301754   0.1666667   0.0000000  )
       243        C      tau( 243) = (   0.9462129   0.1944444   0.0000000  )
       244        C      tau( 244) = (   0.9782880   0.1944444   0.0000000  )
       245        C      tau( 245) = (   0.9943255   0.2222222   0.0000000  )
       246        C      tau( 246) = (   1.0264005   0.2222222   0.0000000  )
       247        C      tau( 247) = (   1.0424380   0.2500000   0.0000000  )
       248        C      tau( 248) = (   1.0745130   0.2500000   0.0000000  )
       249        C      tau( 249) = (   1.0905505   0.2777778   0.0000000  )
       250        C      tau( 250) = (   1.1226255   0.2777778   0.0000000  )
       251        C      tau( 251) = (   1.1386630   0.3055556   0.0000000  )
       252        C      tau( 252) = (   1.1707380   0.3055556   0.0000000  )
       253        C      tau( 253) = (   0.3688627  -0.1944444   0.0000000  )
       254        C      tau( 254) = (   0.4009377  -0.1944444   0.0000000  )
       255        C      tau( 255) = (   0.4169752  -0.1666667   0.0000000  )
       256        C      tau( 256) = (   0.4490502  -0.1666667   0.0000000  )
       257        C      tau( 257) = (   0.4650877  -0.1388889   0.0000000  )
       258        C      tau( 258) = (   0.4971627  -0.1388889   0.0000000  )
       259        C      tau( 259) = (   0.5132002  -0.1111111   0.0000000  )
       260        C      tau( 260) = (   0.5452753  -0.1111111   0.0000000  )
       261        C      tau( 261) = (   0.5613128  -0.0833333   0.0000000  )
       262        C      tau( 262) = (   0.5933878  -0.0833333   0.0000000  )
       263        C      tau( 263) = (   0.6094253  -0.0555556   0.0000000  )
       264        C      tau( 264) = (   0.6415003  -0.0555556   0.0000000  )
       265        C      tau( 265) = (   0.6575378  -0.0277778   0.0000000  )
       266        C      tau( 266) = (   0.6896128  -0.0277778   0.0000000  )
       267        C      tau( 267) = (   0.7056503  -0.0000000   0.0000000  )
       268        C      tau( 268) = (   0.7377253   0.0000000   0.0000000  )
       269        C      tau( 269) = (   0.7537629   0.0277778   0.0000000  )
       270        C      tau( 270) = (   0.7858379   0.0277778   0.0000000  )
       271        C      tau( 271) = (   0.8018754   0.0555556   0.0000000  )
       272        C      tau( 272) = (   0.8339504   0.0555556   0.0000000  )
       273        C      tau( 273) = (   0.8499879   0.0833333   0.0000000  )
       274        C      tau( 274) = (   0.8820629   0.0833333   0.0000000  )
       275        C      tau( 275) = (   0.8981004   0.1111111   0.0000000  )
       276        C      tau( 276) = (   0.9301754   0.1111111   0.0000000  )
       277        C      tau( 277) = (   0.9462129   0.1388889   0.0000000  )
       278        C      tau( 278) = (   0.9782880   0.1388889   0.0000000  )
       279        C      tau( 279) = (   0.9943255   0.1666667   0.0000000  )
       280        C      tau( 280) = (   1.0264005   0.1666667   0.0000000  )
       281        C      tau( 281) = (   1.0424380   0.1944444   0.0000000  )
       282        C      tau( 282) = (   1.0745130   0.1944444   0.0000000  )
       283        C      tau( 283) = (   1.0905505   0.2222222   0.0000000  )
       284        C      tau( 284) = (   1.1226255   0.2222222   0.0000000  )
       285        C      tau( 285) = (   1.1386630   0.2500000   0.0000000  )
       286        C      tau( 286) = (   1.1707380   0.2500000   0.0000000  )
       287        C      tau( 287) = (   1.1867756   0.2777778   0.0000000  )
       288        C      tau( 288) = (   1.2188506   0.2777778   0.0000000  )
       289        C      tau( 289) = (   0.4169752  -0.2222222   0.0000000  )
       290        C      tau( 290) = (   0.4490502  -0.2222222   0.0000000  )
       291        C      tau( 291) = (   0.4650877  -0.1944444   0.0000000  )
       292        C      tau( 292) = (   0.4971627  -0.1944444   0.0000000  )
       293        C      tau( 293) = (   0.5132002  -0.1666667   0.0000000  )
       294        C      tau( 294) = (   0.5452753  -0.1666667   0.0000000  )
       295        C      tau( 295) = (   0.5613128  -0.1388889   0.0000000  )
       296        C      tau( 296) = (   0.5933878  -0.1388889   0.0000000  )
       297        C      tau( 297) = (   0.6094253  -0.1111111   0.0000000  )
       298        C      tau( 298) = (   0.6415003  -0.1111111   0.0000000  )
       299        C      tau( 299) = (   0.6575378  -0.0833333   0.0000000  )
       300        C      tau( 300) = (   0.6896128  -0.0833333   0.0000000  )
       301        C      tau( 301) = (   0.7056503  -0.0555556   0.0000000  )
       302        C      tau( 302) = (   0.7377253  -0.0555556   0.0000000  )
       303        C      tau( 303) = (   0.7537629  -0.0277778   0.0000000  )
       304        C      tau( 304) = (   0.7858379  -0.0277778   0.0000000  )
       305        C      tau( 305) = (   0.8018754   0.0000000   0.0000000  )
       306        C      tau( 306) = (   0.8339504  -0.0000000   0.0000000  )
       307        C      tau( 307) = (   0.8499879   0.0277778   0.0000000  )
       308        C      tau( 308) = (   0.8820629   0.0277778   0.0000000  )
       309        C      tau( 309) = (   0.8981004   0.0555556   0.0000000  )
       310        C      tau( 310) = (   0.9301754   0.0555556   0.0000000  )
       311        C      tau( 311) = (   0.9462129   0.0833333   0.0000000  )
       312        C      tau( 312) = (   0.9782880   0.0833333   0.0000000  )
       313        C      tau( 313) = (   0.9943255   0.1111111   0.0000000  )
       314        C      tau( 314) = (   1.0264005   0.1111111   0.0000000  )
       315        C      tau( 315) = (   1.0424380   0.1388889   0.0000000  )
       316        C      tau( 316) = (   1.0745130   0.1388889   0.0000000  )
       317        C      tau( 317) = (   1.0905505   0.1666667   0.0000000  )
       318        C      tau( 318) = (   1.1226255   0.1666667   0.0000000  )
       319        C      tau( 319) = (   1.1386630   0.1944444   0.0000000  )
       320        C      tau( 320) = (   1.1707380   0.1944444   0.0000000  )
       321        C      tau( 321) = (   1.1867756   0.2222222   0.0000000  )
       322        C      tau( 322) = (   1.2188506   0.2222222   0.0000000  )
       323        C      tau( 323) = (   1.2348881   0.2500000   0.0000000  )
       324        C      tau( 324) = (   1.2669631   0.2500000   0.0000000  )
       325        C      tau( 325) = (   0.4650877  -0.2500000   0.0000000  )
       326        C      tau( 326) = (   0.4971627  -0.2500000   0.0000000  )
       327        C      tau( 327) = (   0.5132002  -0.2222222   0.0000000  )
       328        C      tau( 328) = (   0.5452753  -0.2222222   0.0000000  )
       329        C      tau( 329) = (   0.5613128  -0.1944444   0.0000000  )
       330        C      tau( 330) = (   0.5933878  -0.1944444   0.0000000  )
       331        C      tau( 331) = (   0.6094253  -0.1666667   0.0000000  )
       332        C      tau( 332) = (   0.6415003  -0.1666667   0.0000000  )
       333        C      tau( 333) = (   0.6575378  -0.1388889   0.0000000  )
       334        C      tau( 334) = (   0.6896128  -0.1388889   0.0000000  )
       335        C      tau( 335) = (   0.7056503  -0.1111111   0.0000000  )
       336        C      tau( 336) = (   0.7377253  -0.1111111   0.0000000  )
       337        C      tau( 337) = (   0.7537629  -0.0833333   0.0000000  )
       338        C      tau( 338) = (   0.7858379  -0.0833333   0.0000000  )
       339        C      tau( 339) = (   0.8018754  -0.0555556   0.0000000  )
       340        C      tau( 340) = (   0.8339504  -0.0555556   0.0000000  )
       341        C      tau( 341) = (   0.8499879  -0.0277778   0.0000000  )
       342        C      tau( 342) = (   0.8820629  -0.0277778   0.0000000  )
       343        C      tau( 343) = (   0.8981004  -0.0000000   0.0000000  )
       344        C      tau( 344) = (   0.9301754   0.0000000   0.0000000  )
       345        C      tau( 345) = (   0.9462129   0.0277778   0.0000000  )
       346        C      tau( 346) = (   0.9782880   0.0277778   0.0000000  )
       347        C      tau( 347) = (   0.9943255   0.0555556   0.0000000  )
       348        C      tau( 348) = (   1.0264005   0.0555556   0.0000000  )
       349        C      tau( 349) = (   1.0424380   0.0833333   0.0000000  )
       350        C      tau( 350) = (   1.0745130   0.0833333   0.0000000  )
       351        C      tau( 351) = (   1.0905505   0.1111111   0.0000000  )
       352        C      tau( 352) = (   1.1226255   0.1111111   0.0000000  )
       353        C      tau( 353) = (   1.1386630   0.1388889   0.0000000  )
       354        C      tau( 354) = (   1.1707380   0.1388889   0.0000000  )
       355        C      tau( 355) = (   1.1867756   0.1666667   0.0000000  )
       356        C      tau( 356) = (   1.2188506   0.1666667   0.0000000  )
       357        C      tau( 357) = (   1.2348881   0.1944444   0.0000000  )
       358        C      tau( 358) = (   1.2669631   0.1944444   0.0000000  )
       359        C      tau( 359) = (   1.2830006   0.2222222   0.0000000  )
       360        C      tau( 360) = (   1.3150756   0.2222222   0.0000000  )
       361        C      tau( 361) = (   0.5132002  -0.2777778   0.0000000  )
       362        C      tau( 362) = (   0.5452753  -0.2777778   0.0000000  )
       363        C      tau( 363) = (   0.5613128  -0.2500000   0.0000000  )
       364        C      tau( 364) = (   0.5933878  -0.2500000   0.0000000  )
       365        C      tau( 365) = (   0.6094253  -0.2222222   0.0000000  )
       366        C      tau( 366) = (   0.6415003  -0.2222222   0.0000000  )
       367        C      tau( 367) = (   0.6575378  -0.1944444   0.0000000  )
       368        C      tau( 368) = (   0.6896128  -0.1944444   0.0000000  )
       369        C      tau( 369) = (   0.7056503  -0.1666667   0.0000000  )
       370        C      tau( 370) = (   0.7377253  -0.1666667   0.0000000  )
       371        C      tau( 371) = (   0.7537629  -0.1388889   0.0000000  )
       372        C      tau( 372) = (   0.7858379  -0.1388889   0.0000000  )
       373        C      tau( 373) = (   0.8018754  -0.1111111   0.0000000  )
       374        C      tau( 374) = (   0.8339504  -0.1111111   0.0000000  )
       375        C      tau( 375) = (   0.8499879  -0.0833333   0.0000000  )
       376        C      tau( 376) = (   0.8820629  -0.0833333   0.0000000  )
       377        C      tau( 377) = (   0.8981004  -0.0555556   0.0000000  )
       378        C      tau( 378) = (   0.9301754  -0.0555556   0.0000000  )
       379        C      tau( 379) = (   0.9462129  -0.0277778   0.0000000  )
       380        C      tau( 380) = (   0.9782880  -0.0277778   0.0000000  )
       381        C      tau( 381) = (   0.9943255  -0.0000000   0.0000000  )
       382        C      tau( 382) = (   1.0264005  -0.0000000   0.0000000  )
       383        C      tau( 383) = (   1.0424380   0.0277778   0.0000000  )
       384        C      tau( 384) = (   1.0745130   0.0277778   0.0000000  )
       385        C      tau( 385) = (   1.0905505   0.0555556   0.0000000  )
       386        C      tau( 386) = (   1.1226255   0.0555556   0.0000000  )
       387        C      tau( 387) = (   1.1386630   0.0833333   0.0000000  )
       388        C      tau( 388) = (   1.1707380   0.0833333   0.0000000  )
       389        C      tau( 389) = (   1.1867756   0.1111111   0.0000000  )
       390        C      tau( 390) = (   1.2188506   0.1111111   0.0000000  )
       391        C      tau( 391) = (   1.2348881   0.1388889   0.0000000  )
       392        C      tau( 392) = (   1.2669631   0.1388889   0.0000000  )
       393        C      tau( 393) = (   1.2830006   0.1666667   0.0000000  )
       394        C      tau( 394) = (   1.3150756   0.1666667   0.0000000  )
       395        C      tau( 395) = (   1.3311131   0.1944444   0.0000000  )
       396        C      tau( 396) = (   1.3631881   0.1944444   0.0000000  )
       397        C      tau( 397) = (   0.5613128  -0.3055556   0.0000000  )
       398        C      tau( 398) = (   0.5933878  -0.3055556   0.0000000  )
       399        C      tau( 399) = (   0.6094253  -0.2777778   0.0000000  )
       400        C      tau( 400) = (   0.6415003  -0.2777778   0.0000000  )
       401        C      tau( 401) = (   0.6575378  -0.2500000   0.0000000  )
       402        C      tau( 402) = (   0.6896128  -0.2500000   0.0000000  )
       403        C      tau( 403) = (   0.7056503  -0.2222222   0.0000000  )
       404        C      tau( 404) = (   0.7377253  -0.2222222   0.0000000  )
       405        C      tau( 405) = (   0.7537629  -0.1944444   0.0000000  )
       406        C      tau( 406) = (   0.7858379  -0.1944444   0.0000000  )
       407        C      tau( 407) = (   0.8018754  -0.1666667   0.0000000  )
       408        C      tau( 408) = (   0.8339504  -0.1666667   0.0000000  )
       409        C      tau( 409) = (   0.8499879  -0.1388889   0.0000000  )
       410        C      tau( 410) = (   0.8820629  -0.1388889   0.0000000  )
       411        C      tau( 411) = (   0.8981004  -0.1111111   0.0000000  )
       412        C      tau( 412) = (   0.9301754  -0.1111111   0.0000000  )
       413        C      tau( 413) = (   0.9462129  -0.0833333   0.0000000  )
       414        C      tau( 414) = (   0.9782880  -0.0833333   0.0000000  )
       415        C      tau( 415) = (   0.9943255  -0.0555556   0.0000000  )
       416        C      tau( 416) = (   1.0264005  -0.0555556   0.0000000  )
       417        C      tau( 417) = (   1.0424380  -0.0277778   0.0000000  )
       418        C      tau( 418) = (   1.0745130  -0.0277778   0.0000000  )
       419        C      tau( 419) = (   1.0905505  -0.0000000   0.0000000  )
       420        C      tau( 420) = (   1.1226255  -0.0000000   0.0000000  )
       421        C      tau( 421) = (   1.1386630   0.0277778   0.0000000  )
       422        C      tau( 422) = (   1.1707380   0.0277778   0.0000000  )
       423        C      tau( 423) = (   1.1867756   0.0555556   0.0000000  )
       424        C      tau( 424) = (   1.2188506   0.0555556   0.0000000  )
       425        C      tau( 425) = (   1.2348881   0.0833333   0.0000000  )
       426        C      tau( 426) = (   1.2669631   0.0833333   0.0000000  )
       427        C      tau( 427) = (   1.2830006   0.1111111   0.0000000  )
       428        C      tau( 428) = (   1.3150756   0.1111111   0.0000000  )
       429        C      tau( 429) = (   1.3311131   0.1388889   0.0000000  )
       430        C      tau( 430) = (   1.3631881   0.1388889   0.0000000  )
       431        C      tau( 431) = (   1.3792256   0.1666667   0.0000000  )
       432        C      tau( 432) = (   1.4113007   0.1666667   0.0000000  )
       433        C      tau( 433) = (   0.6094253  -0.3333333   0.0000000  )
       434        C      tau( 434) = (   0.6415003  -0.3333333   0.0000000  )
       435        C      tau( 435) = (   0.6575378  -0.3055556   0.0000000  )
       436        C      tau( 436) = (   0.6896128  -0.3055556   0.0000000  )
       437        C      tau( 437) = (   0.7056503  -0.2777778   0.0000000  )
       438        C      tau( 438) = (   0.7377253  -0.2777778   0.0000000  )
       439        C      tau( 439) = (   0.7537629  -0.2500000   0.0000000  )
       440        C      tau( 440) = (   0.7858379  -0.2500000   0.0000000  )
       441        C      tau( 441) = (   0.8018754  -0.2222222   0.0000000  )
       442        C      tau( 442) = (   0.8339504  -0.2222222   0.0000000  )
       443        C      tau( 443) = (   0.8499879  -0.1944444   0.0000000  )
       444        C      tau( 444) = (   0.8820629  -0.1944444   0.0000000  )
       445        C      tau( 445) = (   0.8981004  -0.1666667   0.0000000  )
       446        C      tau( 446) = (   0.9301754  -0.1666667   0.0000000  )
       447        C      tau( 447) = (   0.9462129  -0.1388889   0.0000000  )
       448        C      tau( 448) = (   0.9782880  -0.1388889   0.0000000  )
       449        C      tau( 449) = (   0.9943255  -0.1111111   0.0000000  )
       450        C      tau( 450) = (   1.0264005  -0.1111111   0.0000000  )
       451        C      tau( 451) = (   1.0424380  -0.0833333   0.0000000  )
       452        C      tau( 452) = (   1.0745130  -0.0833333   0.0000000  )
       453        C      tau( 453) = (   1.0905505  -0.0555556   0.0000000  )
       454        C      tau( 454) = (   1.1226255  -0.0555556   0.0000000  )
       455        C      tau( 455) = (   1.1386630  -0.0277778   0.0000000  )
       456        C      tau( 456) = (   1.1707380  -0.0277778   0.0000000  )
       457        C      tau( 457) = (   1.1867756   0.0000000   0.0000000  )
       458        C      tau( 458) = (   1.2188506  -0.0000000   0.0000000  )
       459        C      tau( 459) = (   1.2348881   0.0277778   0.0000000  )
       460        C      tau( 460) = (   1.2669631   0.0277778   0.0000000  )
       461        C      tau( 461) = (   1.2830006   0.0555556   0.0000000  )
       462        C      tau( 462) = (   1.3150756   0.0555556   0.0000000  )
       463        C      tau( 463) = (   1.3311131   0.0833333   0.0000000  )
       464        C      tau( 464) = (   1.3631881   0.0833333   0.0000000  )
       465        C      tau( 465) = (   1.3792256   0.1111111   0.0000000  )
       466        C      tau( 466) = (   1.4113007   0.1111111   0.0000000  )
       467        C      tau( 467) = (   1.4273382   0.1388889   0.0000000  )
       468        C      tau( 468) = (   1.4594132   0.1388889   0.0000000  )
       469        C      tau( 469) = (   0.6575378  -0.3611111   0.0000000  )
       470        C      tau( 470) = (   0.6896128  -0.3611111   0.0000000  )
       471        C      tau( 471) = (   0.7056503  -0.3333333   0.0000000  )
       472        C      tau( 472) = (   0.7377253  -0.3333333   0.0000000  )
       473        C      tau( 473) = (   0.7537629  -0.3055556   0.0000000  )
       474        C      tau( 474) = (   0.7858379  -0.3055556   0.0000000  )
       475        C      tau( 475) = (   0.8018754  -0.2777778   0.0000000  )
       476        C      tau( 476) = (   0.8339504  -0.2777778   0.0000000  )
       477        C      tau( 477) = (   0.8499879  -0.2500000   0.0000000  )
       478        C      tau( 478) = (   0.8820629  -0.2500000   0.0000000  )
       479        C      tau( 479) = (   0.8981004  -0.2222222   0.0000000  )
       480        C      tau( 480) = (   0.9301754  -0.2222222   0.0000000  )
       481        C      tau( 481) = (   0.9462129  -0.1944444   0.0000000  )
       482        C      tau( 482) = (   0.9782880  -0.1944444   0.0000000  )
       483        C      tau( 483) = (   0.9943255  -0.1666667   0.0000000  )
       484        C      tau( 484) = (   1.0264005  -0.1666667   0.0000000  )
       485        C      tau( 485) = (   1.0424380  -0.1388889   0.0000000  )
       486        C      tau( 486) = (   1.0745130  -0.1388889   0.0000000  )
       487        C      tau( 487) = (   1.0905505  -0.1111111   0.0000000  )
       488        C      tau( 488) = (   1.1226255  -0.1111111   0.0000000  )
       489        C      tau( 489) = (   1.1386630  -0.0833333   0.0000000  )
       490        C      tau( 490) = (   1.1707380  -0.0833333   0.0000000  )
       491        C      tau( 491) = (   1.1867756  -0.0555556   0.0000000  )
       492        C      tau( 492) = (   1.2188506  -0.0555556   0.0000000  )
       493        C      tau( 493) = (   1.2348881  -0.0277778   0.0000000  )
       494        C      tau( 494) = (   1.2669631  -0.0277778   0.0000000  )
       495        C      tau( 495) = (   1.2830006   0.0000000   0.0000000  )
       496        C      tau( 496) = (   1.3150756  -0.0000000   0.0000000  )
       497        C      tau( 497) = (   1.3311131   0.0277778   0.0000000  )
       498        C      tau( 498) = (   1.3631881   0.0277778   0.0000000  )
       499        C      tau( 499) = (   1.3792256   0.0555556   0.0000000  )
       500        C      tau( 500) = (   1.4113007   0.0555556   0.0000000  )
       501        C      tau( 501) = (   1.4273382   0.0833333   0.0000000  )
       502        C      tau( 502) = (   1.4594132   0.0833333   0.0000000  )
       503        C      tau( 503) = (   1.4754507   0.1111111   0.0000000  )
       504        C      tau( 504) = (   1.5075257   0.1111111   0.0000000  )
       505        C      tau( 505) = (   0.7056503  -0.3888889   0.0000000  )
       506        C      tau( 506) = (   0.7377253  -0.3888889   0.0000000  )
       507        C      tau( 507) = (   0.7537629  -0.3611111   0.0000000  )
       508        C      tau( 508) = (   0.7858379  -0.3611111   0.0000000  )
       509        C      tau( 509) = (   0.8018754  -0.3333333   0.0000000  )
       510        C      tau( 510) = (   0.8339504  -0.3333333   0.0000000  )
       511        C      tau( 511) = (   0.8499879  -0.3055556   0.0000000  )
       512        C      tau( 512) = (   0.8820629  -0.3055556   0.0000000  )
       513        C      tau( 513) = (   0.8981004  -0.2777778   0.0000000  )
       514        C      tau( 514) = (   0.9301754  -0.2777778   0.0000000  )
       515        C      tau( 515) = (   0.9462129  -0.2500000   0.0000000  )
       516        C      tau( 516) = (   0.9782880  -0.2500000   0.0000000  )
       517        C      tau( 517) = (   0.9943255  -0.2222222   0.0000000  )
       518        C      tau( 518) = (   1.0264005  -0.2222222   0.0000000  )
       519        C      tau( 519) = (   1.0424380  -0.1944444   0.0000000  )
       520        C      tau( 520) = (   1.0745130  -0.1944444   0.0000000  )
       521        C      tau( 521) = (   1.0905505  -0.1666667   0.0000000  )
       522        C      tau( 522) = (   1.1226255  -0.1666667   0.0000000  )
       523        C      tau( 523) = (   1.1386630  -0.1388889   0.0000000  )
       524        C      tau( 524) = (   1.1707380  -0.1388889   0.0000000  )
       525        C      tau( 525) = (   1.1867756  -0.1111111   0.0000000  )
       526        C      tau( 526) = (   1.2188506  -0.1111111   0.0000000  )
       527        C      tau( 527) = (   1.2348881  -0.0833333   0.0000000  )
       528        C      tau( 528) = (   1.2669631  -0.0833333   0.0000000  )
       529        C      tau( 529) = (   1.2830006  -0.0555556   0.0000000  )
       530        C      tau( 530) = (   1.3150756  -0.0555556   0.0000000  )
       531        C      tau( 531) = (   1.3311131  -0.0277778   0.0000000  )
       532        C      tau( 532) = (   1.3631881  -0.0277778   0.0000000  )
       533        C      tau( 533) = (   1.3792256   0.0000000   0.0000000  )
       534        C      tau( 534) = (   1.4113007  -0.0000000   0.0000000  )
       535        C      tau( 535) = (   1.4273382   0.0277778   0.0000000  )
       536        C      tau( 536) = (   1.4594132   0.0277778   0.0000000  )
       537        C      tau( 537) = (   1.4754507   0.0555556   0.0000000  )
       538        C      tau( 538) = (   1.5075257   0.0555556   0.0000000  )
       539        C      tau( 539) = (   1.5235632   0.0833333   0.0000000  )
       540        C      tau( 540) = (   1.5556382   0.0833333   0.0000000  )
       541        C      tau( 541) = (   0.7537629  -0.4166667   0.0000000  )
       542        C      tau( 542) = (   0.7858379  -0.4166667   0.0000000  )
       543        C      tau( 543) = (   0.8018754  -0.3888889   0.0000000  )
       544        C      tau( 544) = (   0.8339504  -0.3888889   0.0000000  )
       545        C      tau( 545) = (   0.8499879  -0.3611111   0.0000000  )
       546        C      tau( 546) = (   0.8820629  -0.3611111   0.0000000  )
       547        C      tau( 547) = (   0.8981004  -0.3333333   0.0000000  )
       548        C      tau( 548) = (   0.9301754  -0.3333333   0.0000000  )
       549        C      tau( 549) = (   0.9462129  -0.3055556   0.0000000  )
       550        C      tau( 550) = (   0.9782880  -0.3055556   0.0000000  )
       551        C      tau( 551) = (   0.9943255  -0.2777778   0.0000000  )
       552        C      tau( 552) = (   1.0264005  -0.2777778   0.0000000  )
       553        C      tau( 553) = (   1.0424380  -0.2500000   0.0000000  )
       554        C      tau( 554) = (   1.0745130  -0.2500000   0.0000000  )
       555        C      tau( 555) = (   1.0905505  -0.2222222   0.0000000  )
       556        C      tau( 556) = (   1.1226255  -0.2222222   0.0000000  )
       557        C      tau( 557) = (   1.1386630  -0.1944444   0.0000000  )
       558        C      tau( 558) = (   1.1707380  -0.1944444   0.0000000  )
       559        C      tau( 559) = (   1.1867756  -0.1666667   0.0000000  )
       560        C      tau( 560) = (   1.2188506  -0.1666667   0.0000000  )
       561        C      tau( 561) = (   1.2348881  -0.1388889   0.0000000  )
       562        C      tau( 562) = (   1.2669631  -0.1388889   0.0000000  )
       563        C      tau( 563) = (   1.2830006  -0.1111111   0.0000000  )
       564        C      tau( 564) = (   1.3150756  -0.1111111   0.0000000  )
       565        C      tau( 565) = (   1.3311131  -0.0833333   0.0000000  )
       566        C      tau( 566) = (   1.3631881  -0.0833333   0.0000000  )
       567        C      tau( 567) = (   1.3792256  -0.0555556   0.0000000  )
       568        C      tau( 568) = (   1.4113007  -0.0555556   0.0000000  )
       569        C      tau( 569) = (   1.4273382  -0.0277778   0.0000000  )
       570        C      tau( 570) = (   1.4594132  -0.0277778   0.0000000  )
       571        C      tau( 571) = (   1.4754507   0.0000000   0.0000000  )
       572        C      tau( 572) = (   1.5075257   0.0000000   0.0000000  )
       573        C      tau( 573) = (   1.5235632   0.0277778   0.0000000  )
       574        C      tau( 574) = (   1.5556382   0.0277778   0.0000000  )
       575        C      tau( 575) = (   1.5716757   0.0555556   0.0000000  )
       576        C      tau( 576) = (   1.6037507   0.0555556   0.0000000  )
       577        C      tau( 577) = (   0.8018754  -0.4444444   0.0000000  )
       578        C      tau( 578) = (   0.8339504  -0.4444444   0.0000000  )
       579        C      tau( 579) = (   0.8499879  -0.4166667   0.0000000  )
       580        C      tau( 580) = (   0.8820629  -0.4166667   0.0000000  )
       581        C      tau( 581) = (   0.8981004  -0.3888889   0.0000000  )
       582        C      tau( 582) = (   0.9301754  -0.3888889   0.0000000  )
       583        C      tau( 583) = (   0.9462129  -0.3611111   0.0000000  )
       584        C      tau( 584) = (   0.9782880  -0.3611111   0.0000000  )
       585        C      tau( 585) = (   0.9943255  -0.3333333   0.0000000  )
       586        C      tau( 586) = (   1.0264005  -0.3333333   0.0000000  )
       587        C      tau( 587) = (   1.0424380  -0.3055556   0.0000000  )
       588        C      tau( 588) = (   1.0745130  -0.3055556   0.0000000  )
       589        C      tau( 589) = (   1.0905505  -0.2777778   0.0000000  )
       590        C      tau( 590) = (   1.1226255  -0.2777778   0.0000000  )
       591        C      tau( 591) = (   1.1386630  -0.2500000   0.0000000  )
       592        C      tau( 592) = (   1.1707380  -0.2500000   0.0000000  )
       593        C      tau( 593) = (   1.1867756  -0.2222222   0.0000000  )
       594        C      tau( 594) = (   1.2188506  -0.2222222   0.0000000  )
       595        C      tau( 595) = (   1.2348881  -0.1944444   0.0000000  )
       596        C      tau( 596) = (   1.2669631  -0.1944444   0.0000000  )
       597        C      tau( 597) = (   1.2830006  -0.1666667   0.0000000  )
       598        C      tau( 598) = (   1.3150756  -0.1666667   0.0000000  )
       599        C      tau( 599) = (   1.3311131  -0.1388889   0.0000000  )
       600        C      tau( 600) = (   1.3631881  -0.1388889   0.0000000  )
       601        C      tau( 601) = (   1.3792256  -0.1111111   0.0000000  )
       602        C      tau( 602) = (   1.4113007  -0.1111111   0.0000000  )
       603        C      tau( 603) = (   1.4273382  -0.0833333   0.0000000  )
       604        C      tau( 604) = (   1.4594132  -0.0833333   0.0000000  )
       605        C      tau( 605) = (   1.4754507  -0.0555556   0.0000000  )
       606        C      tau( 606) = (   1.5075257  -0.0555556   0.0000000  )
       607        C      tau( 607) = (   1.5235632  -0.0277778   0.0000000  )
       608        C      tau( 608) = (   1.5556382  -0.0277778   0.0000000  )
       609        C      tau( 609) = (   1.5716757   0.0000000   0.0000000  )
       610        C      tau( 610) = (   1.6037507   0.0000000   0.0000000  )
       611        C      tau( 611) = (   1.6197883   0.0277778   0.0000000  )
       612        C      tau( 612) = (   1.6518633   0.0277778   0.0000000  )
       613        C      tau( 613) = (   0.8499879  -0.4722222   0.0000000  )
       614        C      tau( 614) = (   0.8820629  -0.4722222   0.0000000  )
       615        C      tau( 615) = (   0.8981004  -0.4444444   0.0000000  )
       616        C      tau( 616) = (   0.9301754  -0.4444444   0.0000000  )
       617        C      tau( 617) = (   0.9462129  -0.4166667   0.0000000  )
       618        C      tau( 618) = (   0.9782880  -0.4166667   0.0000000  )
       619        C      tau( 619) = (   0.9943255  -0.3888889   0.0000000  )
       620        C      tau( 620) = (   1.0264005  -0.3888889   0.0000000  )
       621        C      tau( 621) = (   1.0424380  -0.3611111   0.0000000  )
       622        C      tau( 622) = (   1.0745130  -0.3611111   0.0000000  )
       623        C      tau( 623) = (   1.0905505  -0.3333333   0.0000000  )
       624        C      tau( 624) = (   1.1226255  -0.3333333   0.0000000  )
       625        C      tau( 625) = (   1.1386630  -0.3055556   0.0000000  )
       626        C      tau( 626) = (   1.1707380  -0.3055556   0.0000000  )
       627        C      tau( 627) = (   1.1867756  -0.2777778   0.0000000  )
       628        C      tau( 628) = (   1.2188506  -0.2777778   0.0000000  )
       629        C      tau( 629) = (   1.2348881  -0.2500000   0.0000000  )
       630        C      tau( 630) = (   1.2669631  -0.2500000   0.0000000  )
       631        C      tau( 631) = (   1.2830006  -0.2222222   0.0000000  )
       632        C      tau( 632) = (   1.3150756  -0.2222222   0.0000000  )
       633        C      tau( 633) = (   1.3311131  -0.1944444   0.0000000  )
       634        C      tau( 634) = (   1.3631881  -0.1944444   0.0000000  )
       635        C      tau( 635) = (   1.3792256  -0.1666667   0.0000000  )
       636        C      tau( 636) = (   1.4113007  -0.1666667   0.0000000  )
       637        C      tau( 637) = (   1.4273382  -0.1388889   0.0000000  )
       638        C      tau( 638) = (   1.4594132  -0.1388889   0.0000000  )
       639        C      tau( 639) = (   1.4754507  -0.1111111   0.0000000  )
       640        C      tau( 640) = (   1.5075257  -0.1111111   0.0000000  )
       641        C      tau( 641) = (   1.5235632  -0.0833333   0.0000000  )
       642        C      tau( 642) = (   1.5556382  -0.0833333   0.0000000  )
       643        C      tau( 643) = (   1.5716757  -0.0555556   0.0000000  )
       644        C      tau( 644) = (   1.6037507  -0.0555556   0.0000000  )
       645        C      tau( 645) = (   1.6197883  -0.0277778   0.0000000  )
       646        C      tau( 646) = (   1.6518633  -0.0277778   0.0000000  )
       647        C      tau( 647) = (   1.6679008  -0.0000000   0.0000000  )
       648        C      tau( 648) = (   1.6999758   0.0000000   0.0000000  )

     number of k points=     1  Marzari-Vanderbilt smearing, width (Ry)=  0.0100
                       cart. coord. in units 2pi/alat
        k(    1) = (   0.0000000   0.0000000   0.0000000), wk =   2.0000000

     Dense  grid: 12346386 G-vectors     FFT dimensions: ( 540, 540, 192)

     Estimated max dynamical RAM per process >       4.44 GB

     Estimated total dynamical RAM >     283.90 GB
 ----2D----2D----2D----2D----2D----2D----2D----2D----2D----2D----2D----2D
  The code is running with the 2D cutoff
  Please refer to:
  Sohier, T., Calandra, M., & Mauri, F. (2017), 
  Density functional perturbation theory for gated two-dimensional heterostructures:
  Theoretical developments and application to flexural phonons in graphene.
  Physical Review B, 96(7), 75448. https://doi.org/10.1103/PhysRevB.96.075448
 ----2D----2D----2D----2D----2D----2D----2D----2D----2D----2D----2D----2D

     Initial potential from superposition of free atoms

     starting charge    2591.9711, renormalised to    2592.0000

     negative rho (up, down):  4.911E-04 0.000E+00
     Starting wfcs are 2592 randomized atomic wfcs

     total cpu time spent up to now is      138.4 secs

     per-process dynamical memory:  2709.6 Mb

     Self-consistent Calculation

     iteration #  1     ecut=   100.00 Ry     beta= 0.30
     Davidson diagonalization with overlap
     ethr =  1.00E-02,  avg # of iterations =  3.0

     negative rho (up, down):  2.011E-06 0.000E+00

     total cpu time spent up to now is      402.1 secs

     total energy              =   -7814.59787528 Ry
     estimated scf accuracy    <      54.61390997 Ry

     iteration #  2     ecut=   100.00 Ry     beta= 0.30
     Davidson diagonalization with overlap
     ethr =  2.11E-03,  avg # of iterations =  1.0

     total cpu time spent up to now is      568.9 secs

     total energy              =   -7801.47023799 Ry
     estimated scf accuracy    <      23.91125695 Ry

     iteration #  3     ecut=   100.00 Ry     beta= 0.30
     Davidson diagonalization with overlap
     ethr =  9.23E-04,  avg # of iterations =  2.0

     total cpu time spent up to now is      825.7 secs

     total energy              =   -7811.17235498 Ry
     estimated scf accuracy    <       2.25361598 Ry

     iteration #  4     ecut=   100.00 Ry     beta= 0.30
     Davidson diagonalization with overlap
     ethr =  8.69E-05,  avg # of iterations =  2.0

     negative rho (up, down):  8.705E-05 0.000E+00

     total cpu time spent up to now is     1087.8 secs

     total energy              =   -7806.19999289 Ry
     estimated scf accuracy    <      10.43814243 Ry

     iteration #  5     ecut=   100.00 Ry     beta= 0.30
     Davidson diagonalization with overlap
     ethr =  8.69E-05,  avg # of iterations =  2.0

     negative rho (up, down):  7.509E-06 0.000E+00

     total cpu time spent up to now is     1342.4 secs

     total energy              =   -7807.00024863 Ry
     estimated scf accuracy    <       0.56158489 Ry

     iteration #  6     ecut=   100.00 Ry     beta= 0.30
     Davidson diagonalization with overlap
     ethr =  2.17E-05,  avg # of iterations =  2.0

     total cpu time spent up to now is     1534.8 secs

     total energy              =   -7807.00283801 Ry
     estimated scf accuracy    <       0.10919573 Ry

     iteration #  7     ecut=   100.00 Ry     beta= 0.30
     Davidson diagonalization with overlap
     ethr =  4.21E-06,  avg # of iterations =  2.0

     negative rho (up, down):  2.142E-04 0.000E+00

     total cpu time spent up to now is     1758.6 secs

     total energy              =   -7807.00741518 Ry
     estimated scf accuracy    <       0.01580713 Ry

     iteration #  8     ecut=   100.00 Ry     beta= 0.30
     Davidson diagonalization with overlap
     ethr =  6.10E-07,  avg # of iterations =  3.0

     negative rho (up, down):  2.841E-05 0.000E+00

     total cpu time spent up to now is     2026.4 secs

     total energy              =   -7807.01342872 Ry
     estimated scf accuracy    <       0.00254158 Ry

     iteration #  9     ecut=   100.00 Ry     beta= 0.30
     Davidson diagonalization with overlap
     ethr =  9.81E-08,  avg # of iterations = 19.0

     total cpu time spent up to now is     2277.1 secs

     total energy              =   -7807.01345150 Ry
     estimated scf accuracy    <       0.00048435 Ry

     iteration # 10     ecut=   100.00 Ry     beta= 0.30
     Davidson diagonalization with overlap
     ethr =  1.87E-08,  avg # of iterations =  5.0

     negative rho (up, down):  2.388E-08 0.000E+00

     total cpu time spent up to now is     2548.4 secs

     total energy              =   -7807.01353559 Ry
     estimated scf accuracy    <       0.00004085 Ry

     iteration # 11     ecut=   100.00 Ry     beta= 0.30
     Davidson diagonalization with overlap
     ethr =  1.58E-09,  avg # of iterations =  5.0

     negative rho (up, down):  1.217E-05 0.000E+00

     total cpu time spent up to now is     2830.8 secs

     total energy              =   -7807.01354373 Ry
     estimated scf accuracy    <       0.00000761 Ry

     iteration # 12     ecut=   100.00 Ry     beta= 0.30
     Davidson diagonalization with overlap
     ethr =  2.94E-10,  avg # of iterations =  4.0

     negative rho (up, down):  1.403E-05 0.000E+00

     total cpu time spent up to now is     3072.9 secs

     total energy              =   -7807.01354225 Ry
     estimated scf accuracy    <       0.00000266 Ry

     iteration # 13     ecut=   100.00 Ry     beta= 0.30
     Davidson diagonalization with overlap
     ethr =  1.03E-10,  avg # of iterations =  4.0

     negative rho (up, down):  4.508E-06 0.000E+00

     total cpu time spent up to now is     3280.2 secs

     total energy              =   -7807.01354235 Ry
     estimated scf accuracy    <       0.00000039 Ry

     iteration # 14     ecut=   100.00 Ry     beta= 0.30
     Davidson diagonalization with overlap
     ethr =  1.52E-11,  avg # of iterations =  6.0

     negative rho (up, down):  1.141E-06 0.000E+00

     total cpu time spent up to now is     3581.3 secs

     total energy              =   -7807.01354246 Ry
     estimated scf accuracy    <       0.00000001 Ry

     iteration # 15     ecut=   100.00 Ry     beta= 0.30
     Davidson diagonalization with overlap
     ethr =  5.28E-13,  avg # of iterations =  8.0

     negative rho (up, down):  1.014E-06 0.000E+00

     total cpu time spent up to now is     3939.2 secs

     total energy              =   -7807.01354247 Ry
     estimated scf accuracy    <          4.7E-09 Ry

     iteration # 16     ecut=   100.00 Ry     beta= 0.30
     Davidson diagonalization with overlap
     ethr =  1.81E-13,  avg # of iterations =  5.0

     negative rho (up, down):  7.219E-07 0.000E+00

     total cpu time spent up to now is     4148.5 secs

     total energy              =   -7807.01354247 Ry
     estimated scf accuracy    <          2.2E-09 Ry

     iteration # 17     ecut=   100.00 Ry     beta= 0.30
     Davidson diagonalization with overlap
     ethr =  1.00E-13,  avg # of iterations =  6.0

     negative rho (up, down):  5.388E-07 0.000E+00

     total cpu time spent up to now is     4351.3 secs

     total energy              =   -7807.01354247 Ry
     estimated scf accuracy    <          4.5E-10 Ry

     iteration # 18     ecut=   100.00 Ry     beta= 0.30
     Davidson diagonalization with overlap
     ethr =  1.00E-13,  avg # of iterations =  1.0

     total cpu time spent up to now is     4512.1 secs

     End of self-consistent calculation

          k = 0.0000 0.0000 0.0000 (****** PWs)   bands (ev):

   -23.7816 -23.7087 -23.7087 -23.7087 -23.7087 -23.7087 -23.7087 -23.5632
   -23.5632 -23.5632 -23.5632 -23.5632 -23.5632 -23.4906 -23.4906 -23.4906
   -23.4906 -23.4906 -23.4906 -23.2729 -23.2729 -23.2729 -23.2729 -23.2729
   -23.2729 -23.2729 -23.2729 -23.2729 -23.2729 -23.2729 -23.2729 -23.1281
   -23.1281 -23.1281 -23.1281 -23.1281 -23.1281 -22.9114 -22.9114 -22.9114
   -22.9114 -22.9114 -22.9114 -22.8393 -22.8393 -22.8393 -22.8393 -22.8393
   -22.8393 -22.8393 -22.8393 -22.8393 -22.8393 -22.8393 -22.8393 -22.6233
   -22.6233 -22.6233 -22.6233 -22.6233 -22.6233 -22.4081 -22.4081 -22.4081
   -22.4081 -22.4081 -22.4081 -22.4081 -22.4081 -22.4081 -22.4081 -22.4081
   -22.4081 -22.2647 -22.2647 -22.2647 -22.2647 -22.2647 -22.2647 -22.2647
   -22.2647 -22.2647 -22.2647 -22.2647 -22.2647 -21.9790 -21.9790 -21.9790
   -21.9790 -21.9790 -21.9790 -21.8373 -21.8373 -21.8373 -21.8373 -21.8373
   -21.8373 -21.7661 -21.7661 -21.7661 -21.7661 -21.7661 -21.7661 -21.7661
   -21.7661 -21.7661 -21.7661 -21.7661 -21.7661 -21.5531 -21.5531 -21.5531
   -21.5531 -21.5531 -21.5531 -21.5531 -21.5531 -21.5531 -21.5531 -21.5531
   -21.5531 -21.2003 -21.2003 -21.2003 -21.2003 -21.2003 -21.2003 -21.1315
   -21.1315 -21.1315 -21.1315 -21.1315 -21.1315 -21.1315 -21.1315 -21.1315
   -21.1315 -21.1315 -21.1315 -20.9908 -20.9908 -20.9908 -20.9908 -20.9908
   -20.9908 -20.9908 -20.9908 -20.9908 -20.9908 -20.9908 -20.9908 -20.7112
   -20.7112 -20.7112 -20.7112 -20.7112 -20.7112 -20.7112 -20.7112 -20.7112
   -20.7112 -20.7112 -20.7112 -20.3674 -20.3674 -20.3674 -20.3674 -20.3674
   -20.3674 -20.2983 -20.2983 -20.2983 -20.2983 -20.2983 -20.2983 -20.2983
   -20.2983 -20.2983 -20.2983 -20.2983 -20.2983 -20.2966 -20.2966 -20.2966
   -20.2966 -20.2966 -20.2966 -20.0924 -20.0924 -20.0924 -20.0924 -20.0924
   -20.0924 -20.0924 -20.0924 -20.0924 -20.0924 -20.0924 -20.0924 -19.7547
   -19.7547 -19.7547 -19.7547 -19.7547 -19.7547 -19.7547 -19.7547 -19.7547
   -19.7547 -19.7547 -19.7547 -19.4860 -19.4860 -19.4860 -19.4860 -19.4860
   -19.4860 -19.4860 -19.4860 -19.4860 -19.4859 -19.4859 -19.4859 -19.3548
   -19.3548 -19.3548 -19.3548 -19.3548 -19.3548 -19.3548 -19.3548 -19.3548
   -19.3548 -19.3548 -19.3548 -19.2981 -19.2981 -19.2981 -19.2981 -19.2981
   -19.2981 -19.1017 -19.1017 -19.1017 -19.1017 -19.1017 -19.1017 -19.1017
   -19.1017 -19.1017 -19.1017 -19.1017 -19.1017 -18.7646 -18.7646 -18.7646
   -18.7646 -18.7646 -18.7646 -18.7646 -18.7646 -18.7646 -18.7646 -18.7646
   -18.7646 -18.5749 -18.5749 -18.5749 -18.5749 -18.5749 -18.5749 -18.5417
   -18.5417 -18.5417 -18.5204 -18.5204 -18.5204 -18.5204 -18.5204 -18.5204
   -18.5204 -18.5204 -18.5204 -18.5204 -18.5204 -18.5204 -18.3836 -18.3836
   -18.3836 -18.3836 -18.3836 -18.3836 -18.3836 -18.3836 -18.3836 -18.3836
   -18.3836 -18.3836 -18.3546 -18.3546 -18.3546 -18.3546 -18.3546 -18.3546
   -17.7943 -17.7943 -17.7943 -17.7943 -17.7943 -17.7943 -17.6417 -17.6417
   -17.6417 -17.6417 -17.6417 -17.6417 -17.6417 -17.6417 -17.6417 -17.6417
   -17.6417 -17.6417 -17.5074 -17.5074 -17.5074 -17.3247 -17.3247 -17.3247
   -17.3247 -17.3247 -17.3247 -17.1645 -17.1645 -17.1645 -17.1645 -17.1645
   -17.1645 -17.1645 -17.1645 -17.1645 -17.1645 -17.1645 -17.1645 -16.8642
   -16.8642 -16.8642 -16.8642 -16.8438 -16.8438 -16.8438 -16.8438 -16.8438
   -16.8438 -16.8231 -16.8231 -16.8231 -16.8231 -16.8231 -16.8231 -16.8231
   -16.8231 -16.8231 -16.8231 -16.8231 -16.8231 -16.6424 -16.6424 -16.6424
   -16.6424 -16.6424 -16.6424 -16.4756 -16.4756 -16.4756 -16.4756 -16.4756
   -16.4756 -16.4756 -16.4756 -16.4756 -16.4756 -16.4756 -16.4756 -16.3864
   -16.3864 -16.3864 -16.3864 -16.3864 -16.3864 -16.3864 -16.3864 -16.3864
   -16.3864 -16.3864 -16.3864 -16.0566 -16.0566 -16.0566 -16.0566 -16.0566
   -16.0566 -16.0566 -16.0566 -16.0566 -16.0566 -16.0566 -16.0566 -15.9615
   -15.9615 -15.9615 -15.9615 -15.9615 -15.9615 -15.9615 -15.9615 -15.9615
   -15.9615 -15.9615 -15.9615 -15.6738 -15.6738 -15.6738 -15.6738 -15.6738
   -15.6738 -15.6738 -15.6738 -15.6738 -15.6738 -15.6738 -15.6738 -15.5736
   -15.5736 -15.5736 -15.5736 -15.5736 -15.5736 -15.3225 -15.3225 -15.3225
   -15.3225 -15.3225 -15.3225 -15.1856 -15.1856 -15.1856 -15.1856 -15.1856
   -15.1856 -15.1856 -15.1856 -15.1856 -15.1856 -15.1856 -15.1856 -14.9448
   -14.9448 -14.9448 -14.9448 -14.9448 -14.9448 -14.9448 -14.9448 -14.9448
   -14.9448 -14.9448 -14.9448 -14.8294 -14.8294 -14.5890 -14.5890 -14.5890
   -14.5890 -14.5890 -14.5890 -14.5890 -14.5890 -14.5890 -14.5890 -14.5890
   -14.5890 -14.3992 -14.3992 -14.3992 -14.3992 -14.3992 -14.3992 -14.3992
   -14.3992 -14.3992 -14.3992 -14.3992 -14.3992 -14.3851 -14.3851 -14.3851
   -14.3851 -14.3851 -14.3851 -14.3851 -14.3851 -14.3850 -14.3850 -14.3850
   -14.3850 -13.9542 -13.9542 -13.9542 -13.9542 -13.9542 -13.9542 -13.9452
   -13.9452 -13.9452 -13.9452 -13.9452 -13.9452 -13.8991 -13.8991 -13.8991
   -13.8991 -13.8991 -13.8991 -13.8115 -13.8115 -13.8115 -13.8115 -13.8115
   -13.8115 -13.8115 -13.8115 -13.8115 -13.8115 -13.8115 -13.8115 -13.5221
   -13.5221 -13.5221 -13.5221 -13.5221 -13.5221 -13.4172 -13.4172 -13.4172
   -13.4172 -13.4172 -13.4172 -13.4172 -13.4172 -13.4172 -13.4172 -13.4172
   -13.4172 -13.1503 -13.1503 -13.1503 -13.1503 -13.1503 -13.1503 -13.1503
   -13.1503 -13.1503 -13.1503 -13.1503 -13.1503 -13.1452 -13.1452 -13.1452
   -13.1452 -13.1452 -13.1452 -13.1452 -13.1452 -13.1452 -13.1452 -13.1452
   -13.1452 -13.0759 -13.0759 -13.0759 -13.0759 -13.0759 -13.0759 -13.0759
   -13.0759 -13.0759 -13.0759 -13.0759 -13.0759 -12.4852 -12.4852 -12.4852
   -12.4852 -12.4852 -12.4852 -12.4852 -12.4852 -12.4852 -12.4852 -12.4852
   -12.4852 -12.4293 -12.4293 -12.4293 -12.4293 -12.4293 -12.4293 -12.4264
   -12.4264 -12.4264 -12.4264 -12.4264 -12.4264 -12.4264 -12.4264 -12.4264
   -12.4264 -12.4264 -12.4264 -12.4169 -12.4169 -12.4169 -12.4169 -12.4169
   -12.4169 -12.3202 -12.3202 -12.3202 -12.3202 -12.3202 -12.3202 -12.3202
   -12.3202 -12.3202 -12.3202 -12.3202 -12.3202 -12.0334 -12.0334 -12.0334
   -12.0334 -12.0334 -12.0334 -11.9824 -11.9824 -11.9824 -11.9824 -11.9824
   -11.9824 -11.9824 -11.9824 -11.9824 -11.9824 -11.9824 -11.9824 -11.8699
   -11.7826 -11.7826 -11.7826 -11.7826 -11.7826 -11.7826 -11.6999 -11.6999
   -11.6999 -11.6999 -11.6999 -11.6999 -11.6999 -11.6999 -11.6999 -11.6999
   -11.6999 -11.6999 -11.6084 -11.6084 -11.6084 -11.6084 -11.6084 -11.6084
   -11.5894 -11.5894 -11.5894 -11.5894 -11.5894 -11.5894 -11.5216 -11.5216
   -11.5216 -11.5216 -11.5216 -11.5216 -11.5138 -11.5138 -11.5138 -11.5138
   -11.5138 -11.5138 -11.5138 -11.5138 -11.5138 -11.5138 -11.5138 -11.5138
   -11.4483 -11.4483 -11.4483 -11.4483 -11.4483 -11.4483 -11.4483 -11.4483
   -11.4483 -11.4483 -11.4483 -11.4483 -11.2886 -11.2886 -11.2886 -11.2886
   -11.2886 -11.2886 -11.2886 -11.2886 -11.2886 -11.2886 -11.2886 -11.2886
   -11.2621 -11.2621 -11.2621 -11.2621 -11.2621 -11.2621 -11.2621 -11.2621
   -11.2621 -11.2621 -11.2621 -11.2621 -11.1129 -11.1129 -11.1129 -11.1129
   -11.1129 -11.1129 -11.1129 -11.1129 -11.1129 -11.1129 -11.1129 -11.1129
   -11.0901 -11.0901 -11.0901 -11.0901 -11.0901 -11.0901 -10.9677 -10.9677
   -10.9677 -10.9677 -10.9677 -10.9677 -10.9172 -10.9172 -10.9172 -10.9172
   -10.9172 -10.9172 -10.9172 -10.9172 -10.9172 -10.9172 -10.9172 -10.9172
   -10.9170 -10.9170 -10.9170 -10.9170 -10.9170 -10.9170 -10.9170 -10.9170
   -10.9170 -10.9170 -10.9170 -10.9170 -10.8332 -10.8332 -10.8332 -10.8332
   -10.8332 -10.8332 -10.7710 -10.7710 -10.7710 -10.7710 -10.7710 -10.7710
   -10.7710 -10.7710 -10.7710 -10.7710 -10.7710 -10.7710 -10.7483 -10.7483
   -10.7483 -10.7483 -10.7483 -10.7483 -10.7483 -10.7483 -10.7483 -10.7483
   -10.7483 -10.7483 -10.6947 -10.6947 -10.6947 -10.6835 -10.6835 -10.6835
   -10.6835 -10.6835 -10.6835 -10.6219 -10.6219 -10.6219 -10.6219 -10.6219
   -10.6219 -10.4946 -10.4946 -10.4946 -10.4946 -10.4946 -10.4946 -10.4838
   -10.4838 -10.4838 -10.4838 -10.4838 -10.4838 -10.4838 -10.4838 -10.4838
   -10.4838 -10.4838 -10.4838 -10.4061 -10.4061 -10.4061 -10.4061 -10.4061
   -10.4061 -10.4055 -10.4055 -10.4055 -10.4055 -10.4055 -10.4055 -10.4055
   -10.4055 -10.4055 -10.4055 -10.4055 -10.4055 -10.3076 -10.3076 -10.3076
   -10.3076 -10.3076 -10.3076 -10.3076 -10.3076 -10.3076 -10.3076 -10.3076
   -10.3076 -10.2412 -10.2412 -10.2412 -10.2412 -10.2412 -10.2412 -10.2412
   -10.2412 -10.2412 -10.2412 -10.2412 -10.2412 -10.0756 -10.0756 -10.0756
   -10.0756 -10.0756 -10.0756 -10.0756 -10.0756 -10.0756 -10.0756 -10.0756
   -10.0756 -10.0666 -10.0666 -10.0666 -10.0666 -10.0666 -10.0666 -10.0666
   -10.0666 -10.0666 -10.0666 -10.0666 -10.0666 -10.0561 -10.0561 -10.0561
   -10.0561 -10.0561 -10.0561  -9.9752  -9.9752  -9.9752  -9.9752  -9.9752
    -9.9752  -9.7622  -9.7622  -9.7622  -9.7622  -9.7622  -9.7622  -9.7622
    -9.7622  -9.7622  -9.7622  -9.7622  -9.7622  -9.7469  -9.7469  -9.7469
    -9.7469  -9.7469  -9.7469  -9.5919  -9.5919  -9.5919  -9.5919  -9.5919
    -9.5919  -9.5885  -9.5885  -9.5885  -9.5885  -9.5885  -9.5885  -9.5772
    -9.5772  -9.5772  -9.5772  -9.5772  -9.5772  -9.5392  -9.5392  -9.5392
    -9.5392  -9.5392  -9.5392  -9.5392  -9.5392  -9.5392  -9.5392  -9.5392
    -9.5392  -9.4976  -9.4976  -9.4976  -9.4976  -9.4976  -9.4976  -9.4976
    -9.4976  -9.4976  -9.4976  -9.4976  -9.4976  -9.2602  -9.2602  -9.2602
    -9.2602  -9.2602  -9.2602  -9.2602  -9.2602  -9.2602  -9.2602  -9.2602
    -9.2602  -9.0739  -9.0739  -9.0739  -9.0739  -9.0739  -9.0739  -9.0739
    -9.0739  -9.0739  -9.0739  -9.0739  -9.0739  -9.0321  -9.0321  -9.0321
    -9.0321  -9.0321  -9.0321  -9.0194  -9.0194  -9.0194  -9.0194  -9.0194
    -9.0194  -8.9355  -8.9355  -8.9355  -8.9355  -8.9355  -8.9355  -8.9355
    -8.9355  -8.9355  -8.9355  -8.9355  -8.9355  -8.8700  -8.8700  -8.8700
    -8.8700  -8.8700  -8.8700  -8.7715  -8.7715  -8.7715  -8.7715  -8.7715
    -8.7715  -8.7715  -8.7715  -8.7715  -8.7715  -8.7715  -8.7715  -8.6245
    -8.6245  -8.6245  -8.6245  -8.6245  -8.6245  -8.6245  -8.6245  -8.6245
    -8.6245  -8.6245  -8.6245  -8.4350  -8.4350  -8.4350  -8.4350  -8.4350
    -8.4350  -8.4164  -8.4164  -8.4164  -8.4164  -8.4164  -8.4164  -8.3357
    -8.3357  -8.3357  -8.3357  -8.3357  -8.3357  -8.3357  -8.3357  -8.3357
    -8.3357  -8.3357  -8.3357  -8.3132  -8.3132  -8.3132  -8.3132  -8.3132
    -8.3132  -8.3132  -8.3132  -8.3132  -8.3132  -8.3132  -8.3132  -8.1293
    -8.1293  -8.1293  -8.1293  -8.1293  -8.1293  -7.9164  -7.9164  -7.9164
    -7.9164  -7.9164  -7.9164  -7.9162  -7.9162  -7.9162  -7.9162  -7.9162
    -7.9162  -7.8736  -7.8736  -7.8736  -7.8736  -7.8736  -7.8736  -7.8539
    -7.8539  -7.8539  -7.8539  -7.8539  -7.8539  -7.8539  -7.8539  -7.8539
    -7.8539  -7.8539  -7.8539  -7.7706  -7.7706  -7.7706  -7.7706  -7.7706
    -7.7706  -7.6713  -7.6713  -7.6713  -7.6713  -7.6713  -7.6713  -7.6713
    -7.6713  -7.6713  -7.6713  -7.6713  -7.6713  -7.5978  -7.5978  -7.5978
    -7.5978  -7.5978  -7.5978  -7.4567  -7.4567  -7.4567  -7.4567  -7.4567
    -7.4567  -7.3855  -7.3855  -7.3855  -7.3855  -7.3855  -7.3855  -7.3855
    -7.3855  -7.3855  -7.3855  -7.3855  -7.3855  -7.2998  -7.2998  -7.0289
    -7.0289  -7.0289  -7.0289  -7.0289  -7.0289  -6.9710  -6.9710  -6.9710
    -6.9710  -6.9710  -6.9710  -6.9710  -6.9710  -6.9710  -6.9710  -6.9710
    -6.9710  -6.8972  -6.8972  -6.8972  -6.8972  -6.8972  -6.8972  -6.8972
    -6.8972  -6.8972  -6.8972  -6.8972  -6.8972  -6.7748  -6.7748  -6.7748
    -6.7748  -6.7748  -6.7748  -6.7748  -6.7748  -6.7748  -6.7748  -6.7748
    -6.7748  -6.6556  -6.6556  -6.6556  -6.6556  -6.6556  -6.6556  -6.6556
    -6.6556  -6.6556  -6.6556  -6.6556  -6.6556  -6.6048  -6.6048  -6.6048
    -6.3380  -6.3380  -6.3380  -6.3380  -6.3380  -6.3380  -6.1341  -6.1341
    -6.1341  -6.1341  -6.1341  -6.1341  -6.1341  -6.1341  -6.1341  -6.1341
    -6.1341  -6.1341  -6.0422  -6.0422  -6.0422  -6.0422  -6.0422  -6.0422
    -6.0422  -6.0422  -6.0422  -6.0422  -6.0422  -6.0422  -6.0192  -6.0192
    -6.0192  -6.0192  -6.0192  -6.0192  -5.5432  -5.5432  -5.5432  -5.5432
    -5.5432  -5.5432  -5.1427  -5.1427  -5.1427  -5.1427  -5.1427  -5.1427
    -5.1427  -5.1427  -5.1427  -5.1427  -5.1427  -5.1427  -4.2388  -4.2388
    -4.2388  -4.2388  -3.3624  -3.3624  -3.3624  -3.3624  -3.3624  -3.3624
    -3.3624  -3.3624  -3.3624  -3.3624  -3.3624  -3.3624  -3.0721  -3.0721
    -3.0721  -3.0721  -3.0721  -3.0721  -2.6322  -2.6322  -2.6322  -2.6322
    -2.6321  -2.6321  -2.6321  -2.6320  -2.6319  -2.5249

     the Fermi energy is    -4.2199 ev

!    total energy              =   -7807.01354247 Ry
     estimated scf accuracy    <          8.8E-11 Ry
     smearing contrib. (-TS)   =      -0.01312732 Ry
     internal energy E=F+TS    =   -7807.00041516 Ry

     The total energy is F=E-TS. E is the sum of the following terms:
     one-electron contribution =  -88858.53152905 Ry
     hartree contribution      =   44673.26610982 Ry
     xc contribution           =   -2779.60162967 Ry
     ewald contribution        =   39157.86663373 Ry

     convergence has been achieved in  18 iterations

     Writing all to output data dir /home/gregb26/links/scratch/qe_tmp/defect_18x18_p/defect_18x18_p.save/ :
     XML data file, charge density, pseudopotentials, collected wavefunctions

     init_run     :    134.13s CPU    137.37s WALL (       1 calls)
     electrons    :   4338.95s CPU   4377.33s WALL (       1 calls)

     Called by init_run:
     wfcinit      :    125.60s CPU    128.59s WALL (       1 calls)
     potinit      :      0.57s CPU      0.65s WALL (       1 calls)
     hinit0       :      2.47s CPU      2.53s WALL (       1 calls)

     Called by electrons:
     c_bands      :   4032.85s CPU   4064.41s WALL (      18 calls)
     sum_band     :    293.23s CPU    296.18s WALL (      18 calls)
     v_of_rho     :      9.41s CPU     10.38s WALL (      19 calls)
     mix_rho      :      2.28s CPU      2.34s WALL (      18 calls)

     Called by c_bands:
     init_us_2    :      8.04s CPU      8.27s WALL (      37 calls)
     regterg      :   3990.97s CPU   4022.18s WALL (      18 calls)

     Called by *egterg:
     rdiaghg      :     27.30s CPU     27.82s WALL (      98 calls)
     h_psi        :   2832.35s CPU   2855.02s WALL (      99 calls)
     g_psi        :      1.48s CPU      1.49s WALL (      80 calls)

     Called by h_psi:
     h_psi:calbec :    693.68s CPU    697.62s WALL (      99 calls)
     vloc_psi     :   1542.52s CPU   1558.23s WALL (      99 calls)
                                        0.00s GPU  (      99 calls)
     add_vuspsi   :    594.52s CPU    597.54s WALL (      99 calls)

     General routines
     calbec       :    693.68s CPU    697.61s WALL (      99 calls)
     fft          :      8.28s CPU      9.05s WALL (     152 calls)
     ffts         :      0.78s CPU      0.81s WALL (      18 calls)
     fftw         :   1781.93s CPU   1800.01s WALL (   79632 calls)

     Parallel routines

     PWSCF        :   4545.36s CPU   4619.99s WALL


   This run was terminated on:  17:14:42  25Sep2026            

=------------------------------------------------------------------------------=
   JOB DONE.
=------------------------------------------------------------------------------=
