
     Program PWSCF v.7.5 starts on 23Sep2026 at  9:38:18 

     This program is part of the open-source Quantum ESPRESSO suite
     for quantum simulation of materials; please cite
         "P. Giannozzi et al., J. Phys.:Condens. Matter 21 395502 (2009);
         "P. Giannozzi et al., J. Phys.:Condens. Matter 29 465901 (2017);
         "P. Giannozzi et al., J. Chem. Phys. 152 154105 (2020);
          URL http://www.quantum-espresso.org", 
     in publications or presentations arising from this work. More details at
     http://www.quantum-espresso.org/quote

     Parallel version (MPI & OpenMP), running on      64 processor cores
     Number of MPI processes:                64
     Threads/MPI process:                     1

     MPI processes distributed on    22 nodes
     477734 MiB available memory on the printing compute node when the environment starts

     Waiting for input...
     Reading input from standard input

     Current dimensions of program PWSCF are:
     Max number of different atomic species (ntypx) = 10
     Max number of k-points (npk) =  40000
     Max angular momentum in pseudopotentials (lmaxx) =  4

     gamma-point specific algorithms are used

     R & G space division:  proc/nbgrp/npool/nimage =      64
     Subspace diagonalization in iterative solution of the eigenvalue problem:
     one sub-group per band group will be used
     ELPA distributed-memory algorithm (size of sub-group:  4*  4 procs)


     Parallelization info
     --------------------
     sticks:   dense  smooth     PW     G-vecs:    dense   smooth      PW
     Min         934     934    233               119078   119078   14882
     Max         936     936    236               119096   119096   14888
     Sum       59869   59869  14995              7621571  7621571  952577

     Using Slab Decomposition



     bravais-lattice index     =            0
     lattice parameter (alat)  =      46.5978  a.u.
     unit-cell volume          =   56413.5700 (a.u.)^3
     number of atoms/cell      =          199
     number of atomic types    =            1
     number of electrons       =       796.00
     number of Kohn-Sham states=          428
     kinetic-energy cutoff     =     100.0000  Ry
     charge density cutoff     =     400.0000  Ry
     scf convergence threshold =      1.0E-10
     mixing beta               =       0.3000
     number of iterations used =            8  plain     mixing
     energy convergence thresh.=      1.0E-05
     force convergence thresh. =      1.0E-04
     Exchange-correlation= PBE
                           (   1   4   3   4   0   0   0)
     nstep                     =          200


     celldm(1)=  46.597847  celldm(2)=   0.000000  celldm(3)=   0.000000
     celldm(4)=   0.000000  celldm(5)=   0.000000  celldm(6)=   0.000000

     crystal axes: (cart. coord. in units of alat)
               a(1) = (   0.866025  -0.500000   0.000000 )  
               a(2) = (   0.866025   0.500000   0.000000 )  
               a(3) = (   0.000000   0.000000   0.643807 )  

     reciprocal axes: (cart. coord. in units 2 pi/alat)
               b(1) = (  0.577350 -1.000000  0.000000 )  
               b(2) = (  0.577350  1.000000 -0.000000 )  
               b(3) = ( -0.000000  0.000000  1.553262 )  


     PseudoPot. # 1 for C  read from file:
     /home/gregb26/links/projects/rrg-cotemich-ac/gregb26/abinit_processing/pseudo/C.upf
     MD5 check sum: 34a24e64c0a39f27c6c36b90a16ac686
     Pseudo is Norm-conserving + core correction, Zval =  4.0
     Generated using ONCVPSP code by D. R. Hamann
     Using radial grid of 1248 points,  4 beta functions with: 
                l(1) =   0
                l(2) =   0
                l(3) =   1
                l(4) =   1

     atomic species   valence    mass     pseudopotential
     C                 4.00    12.01100     C ( 1.00)

     No symmetry found



   Cartesian axes

     site n.     atom                  positions (alat units)
         1        C      tau(   1) = (   0.0577350  -0.0000000   0.0000000  )
         2        C      tau(   2) = (   0.1154701  -0.0000000   0.0000000  )
         3        C      tau(   3) = (   0.1443376   0.0500000   0.0000000  )
         4        C      tau(   4) = (   0.2020726   0.0500000   0.0000000  )
         5        C      tau(   5) = (   0.2309401   0.1000000   0.0000000  )
         6        C      tau(   6) = (   0.2886751   0.1000000   0.0000000  )
         7        C      tau(   7) = (   0.3175426   0.1500000   0.0000000  )
         8        C      tau(   8) = (   0.3752777   0.1500000   0.0000000  )
         9        C      tau(   9) = (   0.4041452   0.2000000   0.0000000  )
        10        C      tau(  10) = (   0.4618802   0.2000000   0.0000000  )
        11        C      tau(  11) = (   0.4907477   0.2500000   0.0000000  )
        12        C      tau(  12) = (   0.5484828   0.2500000   0.0000000  )
        13        C      tau(  13) = (   0.5773503   0.3000000   0.0000000  )
        14        C      tau(  14) = (   0.6350853   0.3000000   0.0000000  )
        15        C      tau(  15) = (   0.6639528   0.3500000   0.0000000  )
        16        C      tau(  16) = (   0.7216878   0.3500000   0.0000000  )
        17        C      tau(  17) = (   0.7505553   0.4000000   0.0000000  )
        18        C      tau(  18) = (   0.8082904   0.4000000   0.0000000  )
        19        C      tau(  19) = (   0.8371579   0.4500000   0.0000000  )
        20        C      tau(  20) = (   0.8948929   0.4500000   0.0000000  )
        21        C      tau(  21) = (   0.1443376  -0.0500000   0.0000000  )
        22        C      tau(  22) = (   0.2020726  -0.0500000   0.0000000  )
        23        C      tau(  23) = (   0.2309401  -0.0000000   0.0000000  )
        24        C      tau(  24) = (   0.2886751   0.0000000   0.0000000  )
        25        C      tau(  25) = (   0.3175426   0.0500000   0.0000000  )
        26        C      tau(  26) = (   0.3752777   0.0500000   0.0000000  )
        27        C      tau(  27) = (   0.4041452   0.1000000   0.0000000  )
        28        C      tau(  28) = (   0.4618802   0.1000000   0.0000000  )
        29        C      tau(  29) = (   0.4907477   0.1500000   0.0000000  )
        30        C      tau(  30) = (   0.5484828   0.1500000   0.0000000  )
        31        C      tau(  31) = (   0.5773503   0.2000000   0.0000000  )
        32        C      tau(  32) = (   0.6350853   0.2000000   0.0000000  )
        33        C      tau(  33) = (   0.6639528   0.2500000   0.0000000  )
        34        C      tau(  34) = (   0.7216878   0.2500000   0.0000000  )
        35        C      tau(  35) = (   0.7505553   0.3000000   0.0000000  )
        36        C      tau(  36) = (   0.8082904   0.3000000   0.0000000  )
        37        C      tau(  37) = (   0.8371579   0.3500000   0.0000000  )
        38        C      tau(  38) = (   0.8948929   0.3500000   0.0000000  )
        39        C      tau(  39) = (   0.9237604   0.4000000   0.0000000  )
        40        C      tau(  40) = (   0.9814955   0.4000000   0.0000000  )
        41        C      tau(  41) = (   0.2309401  -0.1000000   0.0000000  )
        42        C      tau(  42) = (   0.2886751  -0.1000000   0.0000000  )
        43        C      tau(  43) = (   0.3175426  -0.0500000   0.0000000  )
        44        C      tau(  44) = (   0.3752777  -0.0500000   0.0000000  )
        45        C      tau(  45) = (   0.4041452   0.0000000   0.0000000  )
        46        C      tau(  46) = (   0.4618802  -0.0000000   0.0000000  )
        47        C      tau(  47) = (   0.4907477   0.0500000   0.0000000  )
        48        C      tau(  48) = (   0.5484828   0.0500000   0.0000000  )
        49        C      tau(  49) = (   0.5773503   0.1000000   0.0000000  )
        50        C      tau(  50) = (   0.6350853   0.1000000   0.0000000  )
        51        C      tau(  51) = (   0.6639528   0.1500000   0.0000000  )
        52        C      tau(  52) = (   0.7216878   0.1500000   0.0000000  )
        53        C      tau(  53) = (   0.7505553   0.2000000   0.0000000  )
        54        C      tau(  54) = (   0.8082904   0.2000000   0.0000000  )
        55        C      tau(  55) = (   0.8371579   0.2500000   0.0000000  )
        56        C      tau(  56) = (   0.8948929   0.2500000   0.0000000  )
        57        C      tau(  57) = (   0.9237604   0.3000000   0.0000000  )
        58        C      tau(  58) = (   0.9814955   0.3000000   0.0000000  )
        59        C      tau(  59) = (   1.0103630   0.3500000   0.0000000  )
        60        C      tau(  60) = (   1.0680980   0.3500000   0.0000000  )
        61        C      tau(  61) = (   0.3175426  -0.1500000   0.0000000  )
        62        C      tau(  62) = (   0.3752777  -0.1500000   0.0000000  )
        63        C      tau(  63) = (   0.4041452  -0.1000000   0.0000000  )
        64        C      tau(  64) = (   0.4618802  -0.1000000   0.0000000  )
        65        C      tau(  65) = (   0.4907477  -0.0500000   0.0000000  )
        66        C      tau(  66) = (   0.5484828  -0.0500000   0.0000000  )
        67        C      tau(  67) = (   0.5773503   0.0000000   0.0000000  )
        68        C      tau(  68) = (   0.6350853   0.0000000   0.0000000  )
        69        C      tau(  69) = (   0.6639528   0.0500000   0.0000000  )
        70        C      tau(  70) = (   0.7216878   0.0500000   0.0000000  )
        71        C      tau(  71) = (   0.7505553   0.1000000   0.0000000  )
        72        C      tau(  72) = (   0.8082904   0.1000000   0.0000000  )
        73        C      tau(  73) = (   0.8371579   0.1500000   0.0000000  )
        74        C      tau(  74) = (   0.8948929   0.1500000   0.0000000  )
        75        C      tau(  75) = (   0.9237604   0.2000000   0.0000000  )
        76        C      tau(  76) = (   0.9814955   0.2000000   0.0000000  )
        77        C      tau(  77) = (   1.0103630   0.2500000   0.0000000  )
        78        C      tau(  78) = (   1.0680980   0.2500000   0.0000000  )
        79        C      tau(  79) = (   1.0969655   0.3000000   0.0000000  )
        80        C      tau(  80) = (   1.1547005   0.3000000   0.0000000  )
        81        C      tau(  81) = (   0.4041452  -0.2000000   0.0000000  )
        82        C      tau(  82) = (   0.4618802  -0.2000000   0.0000000  )
        83        C      tau(  83) = (   0.4907477  -0.1500000   0.0000000  )
        84        C      tau(  84) = (   0.5484828  -0.1500000   0.0000000  )
        85        C      tau(  85) = (   0.5773503  -0.1000000   0.0000000  )
        86        C      tau(  86) = (   0.6350853  -0.1000000   0.0000000  )
        87        C      tau(  87) = (   0.6639528  -0.0500000   0.0000000  )
        88        C      tau(  88) = (   0.7216878  -0.0500000   0.0000000  )
        89        C      tau(  89) = (   0.7516090   0.0006083   0.0000000  )
        90        C      tau(  90) = (   0.8361043   0.0493917   0.0000000  )
        91        C      tau(  91) = (   0.8948929   0.0500000   0.0000000  )
        92        C      tau(  92) = (   0.9237604   0.1000000   0.0000000  )
        93        C      tau(  93) = (   0.9814955   0.1000000   0.0000000  )
        94        C      tau(  94) = (   1.0103630   0.1500000   0.0000000  )
        95        C      tau(  95) = (   1.0680980   0.1500000   0.0000000  )
        96        C      tau(  96) = (   1.0969655   0.2000000   0.0000000  )
        97        C      tau(  97) = (   1.1547005   0.2000000   0.0000000  )
        98        C      tau(  98) = (   1.1835681   0.2500000   0.0000000  )
        99        C      tau(  99) = (   1.2413031   0.2500000   0.0000000  )
       100        C      tau( 100) = (   0.4907477  -0.2500000   0.0000000  )
       101        C      tau( 101) = (   0.5484828  -0.2500000   0.0000000  )
       102        C      tau( 102) = (   0.5773503  -0.2000000   0.0000000  )
       103        C      tau( 103) = (   0.6350853  -0.2000000   0.0000000  )
       104        C      tau( 104) = (   0.6639528  -0.1500000   0.0000000  )
       105        C      tau( 105) = (   0.7216878  -0.1500000   0.0000000  )
       106        C      tau( 106) = (   0.7505553  -0.1000000   0.0000000  )
       107        C      tau( 107) = (   0.8082904  -0.1000000   0.0000000  )
       108        C      tau( 108) = (   0.8371579  -0.0500000   0.0000000  )
       109        C      tau( 109) = (   0.8948929  -0.0500000   0.0000000  )
       110        C      tau( 110) = (   0.9237604  -0.0000000   0.0000000  )
       111        C      tau( 111) = (   0.9814955  -0.0000000   0.0000000  )
       112        C      tau( 112) = (   1.0103630   0.0500000   0.0000000  )
       113        C      tau( 113) = (   1.0680980   0.0500000   0.0000000  )
       114        C      tau( 114) = (   1.0969655   0.1000000   0.0000000  )
       115        C      tau( 115) = (   1.1547005   0.1000000   0.0000000  )
       116        C      tau( 116) = (   1.1835681   0.1500000   0.0000000  )
       117        C      tau( 117) = (   1.2413031   0.1500000   0.0000000  )
       118        C      tau( 118) = (   1.2701706   0.2000000   0.0000000  )
       119        C      tau( 119) = (   1.3279056   0.2000000   0.0000000  )
       120        C      tau( 120) = (   0.5773503  -0.3000000   0.0000000  )
       121        C      tau( 121) = (   0.6350853  -0.3000000   0.0000000  )
       122        C      tau( 122) = (   0.6639528  -0.2500000   0.0000000  )
       123        C      tau( 123) = (   0.7216878  -0.2500000   0.0000000  )
       124        C      tau( 124) = (   0.7505553  -0.2000000   0.0000000  )
       125        C      tau( 125) = (   0.8082904  -0.2000000   0.0000000  )
       126        C      tau( 126) = (   0.8371579  -0.1500000   0.0000000  )
       127        C      tau( 127) = (   0.8948929  -0.1500000   0.0000000  )
       128        C      tau( 128) = (   0.9237604  -0.1000000   0.0000000  )
       129        C      tau( 129) = (   0.9814955  -0.1000000   0.0000000  )
       130        C      tau( 130) = (   1.0103630  -0.0500000   0.0000000  )
       131        C      tau( 131) = (   1.0680980  -0.0500000   0.0000000  )
       132        C      tau( 132) = (   1.0969655   0.0000000   0.0000000  )
       133        C      tau( 133) = (   1.1547005   0.0000000   0.0000000  )
       134        C      tau( 134) = (   1.1835681   0.0500000   0.0000000  )
       135        C      tau( 135) = (   1.2413031   0.0500000   0.0000000  )
       136        C      tau( 136) = (   1.2701706   0.1000000   0.0000000  )
       137        C      tau( 137) = (   1.3279056   0.1000000   0.0000000  )
       138        C      tau( 138) = (   1.3567731   0.1500000   0.0000000  )
       139        C      tau( 139) = (   1.4145082   0.1500000   0.0000000  )
       140        C      tau( 140) = (   0.6639528  -0.3500000   0.0000000  )
       141        C      tau( 141) = (   0.7216878  -0.3500000   0.0000000  )
       142        C      tau( 142) = (   0.7505553  -0.3000000   0.0000000  )
       143        C      tau( 143) = (   0.8082904  -0.3000000   0.0000000  )
       144        C      tau( 144) = (   0.8371579  -0.2500000   0.0000000  )
       145        C      tau( 145) = (   0.8948929  -0.2500000   0.0000000  )
       146        C      tau( 146) = (   0.9237604  -0.2000000   0.0000000  )
       147        C      tau( 147) = (   0.9814955  -0.2000000   0.0000000  )
       148        C      tau( 148) = (   1.0103630  -0.1500000   0.0000000  )
       149        C      tau( 149) = (   1.0680980  -0.1500000   0.0000000  )
       150        C      tau( 150) = (   1.0969655  -0.1000000   0.0000000  )
       151        C      tau( 151) = (   1.1547005  -0.1000000   0.0000000  )
       152        C      tau( 152) = (   1.1835681  -0.0500000   0.0000000  )
       153        C      tau( 153) = (   1.2413031  -0.0500000   0.0000000  )
       154        C      tau( 154) = (   1.2701706   0.0000000   0.0000000  )
       155        C      tau( 155) = (   1.3279056  -0.0000000   0.0000000  )
       156        C      tau( 156) = (   1.3567731   0.0500000   0.0000000  )
       157        C      tau( 157) = (   1.4145082   0.0500000   0.0000000  )
       158        C      tau( 158) = (   1.4433757   0.1000000   0.0000000  )
       159        C      tau( 159) = (   1.5011107   0.1000000   0.0000000  )
       160        C      tau( 160) = (   0.7505553  -0.4000000   0.0000000  )
       161        C      tau( 161) = (   0.8082904  -0.4000000   0.0000000  )
       162        C      tau( 162) = (   0.8371579  -0.3500000   0.0000000  )
       163        C      tau( 163) = (   0.8948929  -0.3500000   0.0000000  )
       164        C      tau( 164) = (   0.9237604  -0.3000000   0.0000000  )
       165        C      tau( 165) = (   0.9814955  -0.3000000   0.0000000  )
       166        C      tau( 166) = (   1.0103630  -0.2500000   0.0000000  )
       167        C      tau( 167) = (   1.0680980  -0.2500000   0.0000000  )
       168        C      tau( 168) = (   1.0969655  -0.2000000   0.0000000  )
       169        C      tau( 169) = (   1.1547005  -0.2000000   0.0000000  )
       170        C      tau( 170) = (   1.1835681  -0.1500000   0.0000000  )
       171        C      tau( 171) = (   1.2413031  -0.1500000   0.0000000  )
       172        C      tau( 172) = (   1.2701706  -0.1000000   0.0000000  )
       173        C      tau( 173) = (   1.3279056  -0.1000000   0.0000000  )
       174        C      tau( 174) = (   1.3567731  -0.0500000   0.0000000  )
       175        C      tau( 175) = (   1.4145082  -0.0500000   0.0000000  )
       176        C      tau( 176) = (   1.4433757  -0.0000000   0.0000000  )
       177        C      tau( 177) = (   1.5011107  -0.0000000   0.0000000  )
       178        C      tau( 178) = (   1.5299782   0.0500000   0.0000000  )
       179        C      tau( 179) = (   1.5877132   0.0500000   0.0000000  )
       180        C      tau( 180) = (   0.8371579  -0.4500000   0.0000000  )
       181        C      tau( 181) = (   0.8948929  -0.4500000   0.0000000  )
       182        C      tau( 182) = (   0.9237604  -0.4000000   0.0000000  )
       183        C      tau( 183) = (   0.9814955  -0.4000000   0.0000000  )
       184        C      tau( 184) = (   1.0103630  -0.3500000   0.0000000  )
       185        C      tau( 185) = (   1.0680980  -0.3500000   0.0000000  )
       186        C      tau( 186) = (   1.0969655  -0.3000000   0.0000000  )
       187        C      tau( 187) = (   1.1547005  -0.3000000   0.0000000  )
       188        C      tau( 188) = (   1.1835681  -0.2500000   0.0000000  )
       189        C      tau( 189) = (   1.2413031  -0.2500000   0.0000000  )
       190        C      tau( 190) = (   1.2701706  -0.2000000   0.0000000  )
       191        C      tau( 191) = (   1.3279056  -0.2000000   0.0000000  )
       192        C      tau( 192) = (   1.3567731  -0.1500000   0.0000000  )
       193        C      tau( 193) = (   1.4145082  -0.1500000   0.0000000  )
       194        C      tau( 194) = (   1.4433757  -0.1000000   0.0000000  )
       195        C      tau( 195) = (   1.5011107  -0.1000000   0.0000000  )
       196        C      tau( 196) = (   1.5299782  -0.0500000   0.0000000  )
       197        C      tau( 197) = (   1.5877132  -0.0500000   0.0000000  )
       198        C      tau( 198) = (   1.6165808   0.0000000   0.0000000  )
       199        C      tau( 199) = (   1.6743158   0.0000000   0.0000000  )

     number of k points=     1  Marzari-Vanderbilt smearing, width (Ry)=  0.0100
                       cart. coord. in units 2pi/alat
        k(    1) = (   0.0000000   0.0000000   0.0000000), wk =   2.0000000

     Dense  grid:  3810786 G-vectors     FFT dimensions: ( 300, 300, 192)

     Estimated max dynamical RAM per process >     473.80 MB

     Estimated total dynamical RAM >      29.61 GB
 ----2D----2D----2D----2D----2D----2D----2D----2D----2D----2D----2D----2D
  The code is running with the 2D cutoff
  Please refer to:
  Sohier, T., Calandra, M., & Mauri, F. (2017), 
  Density functional perturbation theory for gated two-dimensional heterostructures:
  Theoretical developments and application to flexural phonons in graphene.
  Physical Review B, 96(7), 75448. https://doi.org/10.1103/PhysRevB.96.075448
 ----2D----2D----2D----2D----2D----2D----2D----2D----2D----2D----2D----2D

     Initial potential from superposition of free atoms

     starting charge     795.9911, renormalised to     796.0000

     negative rho (up, down):  1.513E-04 0.000E+00
     Starting wfcs are  796 randomized atomic wfcs

     total cpu time spent up to now is       11.2 secs

     per-process dynamical memory:   405.9 Mb

     Self-consistent Calculation

     iteration #  1     ecut=   100.00 Ry     beta= 0.30
     Davidson diagonalization with overlap
     ethr =  1.00E-02,  avg # of iterations =  2.0

     negative rho (up, down):  6.978E-07 0.000E+00

     total cpu time spent up to now is       24.6 secs

     WARNING: integrated charge=   796.00033016, expected=   796.00000000

     total energy              =   -2399.07756875 Ry
     estimated scf accuracy    <      17.06940497 Ry

     iteration #  2     ecut=   100.00 Ry     beta= 0.30
     Davidson diagonalization with overlap
     ethr =  2.14E-03,  avg # of iterations =  1.0

     negative rho (up, down):  4.110E-07 0.000E+00

     total cpu time spent up to now is       32.4 secs

     WARNING: integrated charge=   796.00024564, expected=   796.00000000

     total energy              =   -2396.34068707 Ry
     estimated scf accuracy    <      11.06434902 Ry

     iteration #  3     ecut=   100.00 Ry     beta= 0.30
     Davidson diagonalization with overlap
     ethr =  1.39E-03,  avg # of iterations =  2.0

     negative rho (up, down):  2.632E-08 0.000E+00

     total cpu time spent up to now is       42.5 secs

     total energy              =   -2396.17226042 Ry
     estimated scf accuracy    <      10.00620545 Ry

     iteration #  4     ecut=   100.00 Ry     beta= 0.30
     Davidson diagonalization with overlap
     ethr =  1.26E-03,  avg # of iterations =  2.0

     negative rho (up, down):  1.290E-08 0.000E+00

     total cpu time spent up to now is       53.2 secs

     total energy              =   -2397.03473242 Ry
     estimated scf accuracy    <       1.47728716 Ry

     iteration #  5     ecut=   100.00 Ry     beta= 0.30
     Davidson diagonalization with overlap
     ethr =  1.86E-04,  avg # of iterations =  2.0

     total cpu time spent up to now is       62.9 secs

     total energy              =   -2396.94948170 Ry
     estimated scf accuracy    <       0.86125224 Ry

     iteration #  6     ecut=   100.00 Ry     beta= 0.30
     Davidson diagonalization with overlap
     ethr =  1.08E-04,  avg # of iterations =  5.0

     total cpu time spent up to now is       72.8 secs

     total energy              =   -2396.91946103 Ry
     estimated scf accuracy    <       0.32811846 Ry

     iteration #  7     ecut=   100.00 Ry     beta= 0.30
     Davidson diagonalization with overlap
     ethr =  4.12E-05,  avg # of iterations =  6.0

     total cpu time spent up to now is       83.6 secs

     total energy              =   -2396.93351308 Ry
     estimated scf accuracy    <       0.06666348 Ry

     iteration #  8     ecut=   100.00 Ry     beta= 0.30
     Davidson diagonalization with overlap
     ethr =  8.37E-06,  avg # of iterations = 16.0

     total cpu time spent up to now is       97.1 secs

     total energy              =   -2396.93915681 Ry
     estimated scf accuracy    <       0.01345268 Ry

     iteration #  9     ecut=   100.00 Ry     beta= 0.30
     Davidson diagonalization with overlap
     ethr =  1.69E-06,  avg # of iterations = 10.0

     total cpu time spent up to now is      112.8 secs

     total energy              =   -2396.95289160 Ry
     estimated scf accuracy    <       0.26384128 Ry

     iteration # 10     ecut=   100.00 Ry     beta= 0.30
     Davidson diagonalization with overlap
     ethr =  1.69E-06,  avg # of iterations =  1.0

     total cpu time spent up to now is      122.0 secs

     total energy              =   -2396.94308772 Ry
     estimated scf accuracy    <       0.29309433 Ry

     iteration # 11     ecut=   100.00 Ry     beta= 0.30
     Davidson diagonalization with overlap
     ethr =  1.69E-06,  avg # of iterations =  5.0

     total cpu time spent up to now is      132.0 secs

     total energy              =   -2396.93481812 Ry
     estimated scf accuracy    <       0.10718280 Ry

     iteration # 12     ecut=   100.00 Ry     beta= 0.30
     Davidson diagonalization with overlap
     ethr =  1.69E-06,  avg # of iterations =  7.0

     total cpu time spent up to now is      143.1 secs

     total energy              =   -2396.94171011 Ry
     estimated scf accuracy    <       0.00642687 Ry

     iteration # 13     ecut=   100.00 Ry     beta= 0.30
     Davidson diagonalization with overlap
     ethr =  8.07E-07,  avg # of iterations =  2.0

     total cpu time spent up to now is      152.5 secs

     total energy              =   -2396.94194795 Ry
     estimated scf accuracy    <       0.00223443 Ry

     iteration # 14     ecut=   100.00 Ry     beta= 0.30
     Davidson diagonalization with overlap
     ethr =  2.81E-07,  avg # of iterations =  2.0

     total cpu time spent up to now is      162.3 secs

     total energy              =   -2396.94150316 Ry
     estimated scf accuracy    <       0.00565211 Ry

     iteration # 15     ecut=   100.00 Ry     beta= 0.30
     Davidson diagonalization with overlap
     ethr =  2.81E-07,  avg # of iterations =  2.0

     total cpu time spent up to now is      171.6 secs

     total energy              =   -2396.94171830 Ry
     estimated scf accuracy    <       0.00020112 Ry

     iteration # 16     ecut=   100.00 Ry     beta= 0.30
     Davidson diagonalization with overlap
     ethr =  2.53E-08,  avg # of iterations =  5.0

     total cpu time spent up to now is      181.9 secs

     total energy              =   -2396.94172480 Ry
     estimated scf accuracy    <       0.00004729 Ry

     iteration # 17     ecut=   100.00 Ry     beta= 0.30
     Davidson diagonalization with overlap
     ethr =  5.94E-09,  avg # of iterations =  5.0

     total cpu time spent up to now is      192.2 secs

     total energy              =   -2396.94173061 Ry
     estimated scf accuracy    <       0.00001255 Ry

     iteration # 18     ecut=   100.00 Ry     beta= 0.30
     Davidson diagonalization with overlap
     ethr =  1.58E-09,  avg # of iterations =  4.0

     negative rho (up, down):  1.099E-06 0.000E+00

     total cpu time spent up to now is      202.3 secs

     total energy              =   -2396.94173088 Ry
     estimated scf accuracy    <       0.00000364 Ry

     iteration # 19     ecut=   100.00 Ry     beta= 0.30
     Davidson diagonalization with overlap
     ethr =  4.57E-10,  avg # of iterations =  5.0

     negative rho (up, down):  1.501E-06 0.000E+00

     total cpu time spent up to now is      213.0 secs

     total energy              =   -2396.94173129 Ry
     estimated scf accuracy    <       0.00000018 Ry

     iteration # 20     ecut=   100.00 Ry     beta= 0.30
     Davidson diagonalization with overlap
     ethr =  2.21E-11,  avg # of iterations =  6.0

     negative rho (up, down):  7.899E-07 0.000E+00

     total cpu time spent up to now is      230.5 secs

     total energy              =   -2396.94173141 Ry
     estimated scf accuracy    <       0.00000011 Ry

     iteration # 21     ecut=   100.00 Ry     beta= 0.30
     Davidson diagonalization with overlap
     ethr =  1.37E-11,  avg # of iterations =  2.0

     negative rho (up, down):  5.550E-07 0.000E+00

     total cpu time spent up to now is      240.5 secs

     total energy              =   -2396.94173142 Ry
     estimated scf accuracy    <          9.5E-09 Ry

     iteration # 22     ecut=   100.00 Ry     beta= 0.30
     Davidson diagonalization with overlap
     ethr =  1.20E-12,  avg # of iterations =  5.0

     negative rho (up, down):  4.049E-07 0.000E+00

     total cpu time spent up to now is      253.0 secs

     total energy              =   -2396.94173142 Ry
     estimated scf accuracy    <          3.6E-09 Ry

     iteration # 23     ecut=   100.00 Ry     beta= 0.30
     Davidson diagonalization with overlap
     ethr =  4.54E-13,  avg # of iterations =  2.0

     negative rho (up, down):  1.416E-07 0.000E+00

     total cpu time spent up to now is      263.0 secs

     total energy              =   -2396.94173142 Ry
     estimated scf accuracy    <          1.3E-09 Ry

     iteration # 24     ecut=   100.00 Ry     beta= 0.30
     Davidson diagonalization with overlap
     ethr =  1.69E-13,  avg # of iterations =  4.0

     negative rho (up, down):  3.695E-08 0.000E+00

     total cpu time spent up to now is      273.4 secs

     total energy              =   -2396.94173142 Ry
     estimated scf accuracy    <          2.4E-10 Ry

     iteration # 25     ecut=   100.00 Ry     beta= 0.30
     Davidson diagonalization with overlap
     ethr =  1.00E-13,  avg # of iterations =  4.0

     total cpu time spent up to now is      283.2 secs

     End of self-consistent calculation

          k = 0.0000 0.0000 0.0000 (476289 PWs)   bands (ev):

   -23.7934 -23.5819 -23.5816 -23.5595 -23.5592 -23.5563 -23.5125 -23.1139
   -23.1115 -23.0991 -23.0954 -23.0946 -23.0261 -22.8778 -22.8756 -22.8640
   -22.8627 -22.8587 -22.7402 -22.1923 -22.1907 -22.1902 -22.1655 -22.1633
   -22.1625 -22.1610 -22.1594 -22.1587 -22.1583 -22.1561 -21.9661 -21.7183
   -21.7181 -21.7067 -21.6971 -21.6919 -21.5429 -21.0472 -21.0297 -21.0291
   -21.0082 -21.0033 -20.9535 -20.8138 -20.8117 -20.8105 -20.7993 -20.7978
   -20.7968 -20.7932 -20.7927 -20.7914 -20.7651 -20.7534 -20.4763 -20.1397
   -20.1371 -20.1255 -20.1064 -20.1012 -19.9653 -19.5210 -19.4865 -19.4857
   -19.4693 -19.4684 -19.4671 -19.4669 -19.4642 -19.4640 -19.4283 -19.4200
   -19.2953 -19.0825 -19.0748 -19.0731 -19.0699 -19.0685 -19.0624 -19.0576
   -19.0570 -19.0553 -19.0118 -19.0042 -18.7049 -18.5650 -18.5610 -18.3603
   -17.9780 -17.9662 -17.9659 -17.9447 -17.9413 -17.8924 -17.8600 -17.8430
   -17.8425 -17.8151 -17.8137 -17.5970 -17.5023 -17.4979 -17.2994 -16.9862
   -16.9861 -16.9840 -16.9271 -16.9238 -16.8758 -16.6580 -16.6579 -16.6560
   -16.6559 -16.6521 -16.6496 -16.6481 -16.6453 -16.6420 -16.5543 -16.5448
   -16.3674 -16.1720 -16.1501 -16.1499 -16.1221 -16.1197 -15.8718 -15.6247
   -15.6236 -15.6179 -15.5787 -15.5762 -15.4673 -15.2492 -15.2472 -15.2448
   -15.2309 -15.2307 -15.2222 -15.2215 -15.2207 -15.2163 -15.1268 -15.1238
   -14.6720 -14.4694 -14.4691 -14.4581 -14.4448 -14.4287 -14.4248 -14.2800
   -14.2752 -14.2735 -14.2733 -14.2727 -14.2711 -14.2687 -14.2668 -14.2599
   -14.1280 -14.1238 -13.6615 -13.2459 -13.2421 -13.2419 -13.2128 -13.2121
   -13.1695 -13.1476 -13.1475 -13.1442 -13.1061 -13.1002 -13.0997 -13.0456
   -13.0441 -13.0384 -12.9916 -12.9910 -12.8833 -12.8565 -12.8540 -12.8379
   -12.8336 -12.8326 -12.8324 -12.8311 -12.8255 -12.8247 -12.5973 -12.5913
   -12.2110 -11.8768 -11.7782 -11.7770 -11.7740 -11.7695 -11.7688 -11.7649
   -11.7579 -11.7563 -11.7531 -11.7526 -11.7526 -11.7498 -11.7497 -11.7481
   -11.7474 -11.6471 -11.6444 -11.6171 -11.6167 -11.5997 -11.5992 -11.5977
   -11.5356 -11.4555 -11.4369 -11.4113 -11.4093 -11.3911 -11.3908 -11.3905
   -11.3875 -11.3857 -11.3854 -11.2147 -11.2137 -11.0575 -11.0562 -11.0489
   -11.0438 -11.0430 -11.0040 -10.9687 -10.9410 -10.9311 -10.9275 -10.9252
   -10.9251 -10.9220 -10.9146 -10.9133 -10.9128 -10.7835 -10.7827 -10.7815
   -10.7799 -10.7697 -10.7686 -10.7664 -10.7288 -10.6432 -10.6425 -10.6417
   -10.6383 -10.5010 -10.4875 -10.4869 -10.4841 -10.4693 -10.4672 -10.4267
   -10.4250 -10.4203 -10.2484 -10.2479 -10.0762 -10.0172 -10.0070 -10.0067
   -10.0032  -9.9958  -9.9942  -9.9910  -9.9899  -9.9898  -9.9719  -9.9693
    -9.9685  -9.9541  -9.9518  -9.9504  -9.9498  -9.9485  -9.9479  -9.9478
    -9.9464  -9.8667  -9.8666  -9.8249  -9.8166  -9.8138  -9.8135  -9.7807
    -9.7507  -9.6669  -9.6653  -9.5997  -9.5962  -9.5948  -9.4367  -9.4367
    -9.4289  -9.4256  -9.4213  -9.2768  -9.1351  -9.1338  -8.8997  -8.8374
    -8.8267  -8.8197  -8.8152  -8.7726  -8.7719  -8.7529  -8.7493  -8.7473
    -8.6861  -8.6586  -8.6433  -8.6421  -8.6354  -8.6306  -8.5775  -8.4215
    -8.4188  -8.4169  -8.4114  -8.4113  -8.4103  -8.4070  -8.4068  -8.4058
    -8.3987  -8.3987  -8.3983  -8.3904  -8.2414  -8.2403  -8.2332  -8.1218
    -8.0947  -7.9360  -7.9355  -7.8089  -7.7958  -7.7932  -7.7910  -7.7551
    -7.7527  -7.7440  -7.7392  -7.7361  -7.5921  -7.3732  -7.3731  -7.0077
    -6.9756  -6.9754  -6.9695  -6.9692  -6.9655  -6.9649  -6.9638  -6.9626
    -6.9544  -6.9498  -6.8876  -6.7859  -6.7802  -6.7786  -6.7746  -6.7710
    -6.7655  -6.7635  -6.7631  -6.7604  -6.7553  -6.7543  -6.6460  -6.6260
    -6.6237  -6.1076  -5.7737  -5.7682  -5.7680  -5.7579  -5.7557  -5.5107
    -5.3031  -5.2810  -5.2802  -5.2758  -5.2749  -4.6891  -4.5306  -4.4564
    -3.2655  -3.2425  -3.2422  -3.2391  -3.2379  -3.1472  -2.9627  -2.9585
    -2.9577  -2.9471  -2.9433  -2.8005  -2.5657  -2.5618  -2.5024  -2.2013
    -2.1980  -2.1972  -2.1891  -2.1889  -2.1868  -2.1859  -2.1855  -2.1822
    -2.1750  -2.1694  -1.9248  -1.5845

     the Fermi energy is    -4.6034 ev

!    total energy              =   -2396.94173142 Ry
     estimated scf accuracy    <          7.2E-11 Ry
     smearing contrib. (-TS)   =      -0.00331489 Ry
     internal energy E=F+TS    =   -2396.93841653 Ry

     The total energy is F=E-TS. E is the sum of the following terms:
     one-electron contribution =  -27163.31064217 Ry
     hartree contribution      =   13655.75009310 Ry
     xc contribution           =    -852.81492037 Ry
     ewald contribution        =   11963.43705292 Ry

     convergence has been achieved in  25 iterations

     Forces acting on atoms (cartesian axes, Ry/au):

     atom    1 type  1   force =     0.00010154   -0.00000449   -0.00000000
     atom    2 type  1   force =    -0.00003634   -0.00000809   -0.00000003
     atom    3 type  1   force =     0.00007263   -0.00007039   -0.00000003
     atom    4 type  1   force =    -0.00003079    0.00005331   -0.00000002
     atom    5 type  1   force =     0.00002465   -0.00009809    0.00000001
     atom    6 type  1   force =     0.00002516    0.00002740    0.00000004
     atom    7 type  1   force =    -0.00004691   -0.00009021   -0.00000002
     atom    8 type  1   force =     0.00010707    0.00003305   -0.00000000
     atom    9 type  1   force =    -0.00014694   -0.00011643    0.00000000
     atom   10 type  1   force =     0.00032151   -0.00016324    0.00000002
     atom   11 type  1   force =    -0.00002991    0.00002814   -0.00000002
     atom   12 type  1   force =     0.00010291    0.00012948    0.00000000
     atom   13 type  1   force =    -0.00072750    0.00046734   -0.00000002
     atom   14 type  1   force =     0.00126324   -0.00218801   -0.00000003
     atom   15 type  1   force =    -0.00004098    0.00086372   -0.00000002
     atom   16 type  1   force =    -0.00016362   -0.00002443   -0.00000004
     atom   17 type  1   force =    -0.00000933    0.00004002    0.00000002
     atom   18 type  1   force =    -0.00001938   -0.00036000    0.00000003
     atom   19 type  1   force =     0.00017431    0.00006905   -0.00000001
     atom   20 type  1   force =    -0.00008219   -0.00007620    0.00000001
     atom   21 type  1   force =     0.00008483    0.00010207    0.00000002
     atom   22 type  1   force =    -0.00004098   -0.00001577    0.00000003
     atom   23 type  1   force =     0.00001046   -0.00001805    0.00000005
     atom   24 type  1   force =     0.00003408    0.00002765    0.00000002
     atom   25 type  1   force =    -0.00013080   -0.00002244    0.00000002
     atom   26 type  1   force =     0.00020215   -0.00018612   -0.00000001
     atom   27 type  1   force =    -0.00007781   -0.00000316    0.00000000
     atom   28 type  1   force =     0.00019183    0.00022128   -0.00000001
     atom   29 type  1   force =    -0.00082017   -0.00040195   -0.00000001
     atom   30 type  1   force =     0.00163092    0.00051823    0.00000001
     atom   31 type  1   force =    -0.00037808    0.00002062    0.00000005
     atom   32 type  1   force =     0.00144214   -0.00294496   -0.00000011
     atom   33 type  1   force =    -0.00167910    0.00290825   -0.00000004
     atom   34 type  1   force =     0.00182936   -0.00272149    0.00000004
     atom   35 type  1   force =     0.00017118    0.00033769   -0.00000004
     atom   36 type  1   force =    -0.00126429   -0.00115327   -0.00000001
     atom   37 type  1   force =     0.00075825    0.00050928    0.00000003
     atom   38 type  1   force =    -0.00028757   -0.00005549    0.00000002
     atom   39 type  1   force =     0.00004163    0.00006585   -0.00000002
     atom   40 type  1   force =     0.00006011   -0.00026815   -0.00000001
     atom   41 type  1   force =     0.00002764    0.00005919   -0.00000001
     atom   42 type  1   force =     0.00002396   -0.00004144    0.00000003
     atom   43 type  1   force =    -0.00006511    0.00000561   -0.00000000
     atom   44 type  1   force =     0.00014423    0.00020988    0.00000006
     atom   45 type  1   force =    -0.00071014    0.00000552    0.00000003
     atom   46 type  1   force =     0.00079963    0.00011052    0.00000002
     atom   47 type  1   force =    -0.00066367   -0.00035020   -0.00000001
     atom   48 type  1   force =     0.00103212   -0.00085259   -0.00000001
     atom   49 type  1   force =    -0.00094648   -0.00249615   -0.00000003
     atom   50 type  1   force =     0.00754117    0.00521120    0.00000002
     atom   51 type  1   force =    -0.00650947    0.00338625   -0.00000005
     atom   52 type  1   force =     0.00907130   -0.01571199   -0.00000004
     atom   53 type  1   force =     0.00032201    0.00733043   -0.00000005
     atom   54 type  1   force =    -0.00828369   -0.00392525   -0.00000008
     atom   55 type  1   force =     0.00263500   -0.00042848   -0.00000003
     atom   56 type  1   force =     0.00022228   -0.00132020   -0.00000001
     atom   57 type  1   force =     0.00063510    0.00039961   -0.00000007
     atom   58 type  1   force =    -0.00049554   -0.00063724   -0.00000000
     atom   59 type  1   force =     0.00035028    0.00061779    0.00000002
     atom   60 type  1   force =    -0.00025389   -0.00001999    0.00000003
     atom   61 type  1   force =    -0.00005274    0.00009136    0.00000002
     atom   62 type  1   force =     0.00011685    0.00000368   -0.00000000
     atom   63 type  1   force =    -0.00006582   -0.00004239   -0.00000001
     atom   64 type  1   force =     0.00018195   -0.00027118   -0.00000004
     atom   65 type  1   force =    -0.00040728    0.00028194    0.00000001
     atom   66 type  1   force =     0.00077253    0.00095404    0.00000000
     atom   67 type  1   force =    -0.00403434    0.00008118    0.00000002
     atom   68 type  1   force =     0.00514400    0.00116273    0.00000001
     atom   69 type  1   force =    -0.01506213   -0.01763863    0.00000005
     atom   70 type  1   force =     0.08791162   -0.01346712   -0.00000001
     atom   71 type  1   force =    -0.02484232    0.04302809   -0.00000007
     atom   72 type  1   force =    -0.03229396   -0.08286724   -0.00000004
     atom   73 type  1   force =     0.02280692    0.00422472    0.00000003
     atom   74 type  1   force =    -0.00357903   -0.00387340   -0.00000004
     atom   75 type  1   force =     0.00194688    0.00353448   -0.00000003
     atom   76 type  1   force =    -0.00121249   -0.00019203   -0.00000005
     atom   77 type  1   force =    -0.00004052    0.00049367   -0.00000001
     atom   78 type  1   force =     0.00014389   -0.00029315   -0.00000000
     atom   79 type  1   force =     0.00006967    0.00003584    0.00000001
     atom   80 type  1   force =    -0.00006169   -0.00009939    0.00000006
     atom   81 type  1   force =    -0.00008930    0.00011728    0.00000003
     atom   82 type  1   force =     0.00028056    0.00015501    0.00000003
     atom   83 type  1   force =    -0.00082439    0.00045816    0.00000000
     atom   84 type  1   force =     0.00170478   -0.00041400   -0.00000001
     atom   85 type  1   force =    -0.00079483    0.00254156    0.00000002
     atom   86 type  1   force =     0.00760769   -0.00643833   -0.00000002
     atom   87 type  1   force =    -0.01006180    0.02019174    0.00000006
     atom   88 type  1   force =     0.09983125    0.02794235    0.00000003
     atom   89 type  1   force =    -0.07155223   -0.00739977   -0.00000002
     atom   90 type  1   force =     0.04218530    0.05826613   -0.00000002
     atom   91 type  1   force =    -0.07411388   -0.07248582    0.00000004
     atom   92 type  1   force =    -0.01245572    0.01880977    0.00000002
     atom   93 type  1   force =     0.00177196   -0.00980777   -0.00000001
     atom   94 type  1   force =    -0.00180359    0.00195915   -0.00000000
     atom   95 type  1   force =    -0.00049392   -0.00168337   -0.00000002
     atom   96 type  1   force =     0.00001543    0.00094304    0.00000002
     atom   97 type  1   force =    -0.00027453   -0.00016544   -0.00000003
     atom   98 type  1   force =    -0.00005691    0.00013603    0.00000002
     atom   99 type  1   force =     0.00005565   -0.00009640   -0.00000003
     atom  100 type  1   force =    -0.00002440   -0.00005956    0.00000001
     atom  101 type  1   force =     0.00007838   -0.00024433   -0.00000004
     atom  102 type  1   force =    -0.00010730    0.00000036   -0.00000000
     atom  103 type  1   force =     0.00108180    0.00233086   -0.00000006
     atom  104 type  1   force =    -0.00585773   -0.00251047   -0.00000002
     atom  105 type  1   force =     0.00825131    0.01434260   -0.00000003
     atom  106 type  1   force =    -0.02297105   -0.03197726   -0.00000002
     atom  107 type  1   force =    -0.02362089    0.07856393   -0.00000002
     atom  108 type  1   force =     0.03498232   -0.06058903   -0.00000001
     atom  109 type  1   force =    -0.05622815    0.05973794    0.00000003
     atom  110 type  1   force =     0.03917846    0.00390483   -0.00000002
     atom  111 type  1   force =    -0.01654656    0.00002537    0.00000001
     atom  112 type  1   force =     0.00510297    0.00381770   -0.00000002
     atom  113 type  1   force =    -0.00255943    0.00022854   -0.00000001
     atom  114 type  1   force =     0.00005332    0.00009312    0.00000000
     atom  115 type  1   force =     0.00017238   -0.00019007   -0.00000001
     atom  116 type  1   force =     0.00006377   -0.00000867   -0.00000002
     atom  117 type  1   force =    -0.00010272   -0.00001255    0.00000004
     atom  118 type  1   force =    -0.00004634    0.00008034    0.00000001
     atom  119 type  1   force =     0.00006220    0.00008268    0.00000001
     atom  120 type  1   force =    -0.00064626   -0.00032052    0.00000005
     atom  121 type  1   force =     0.00113386    0.00204528    0.00000004
     atom  122 type  1   force =    -0.00166630   -0.00259548   -0.00000001
     atom  123 type  1   force =     0.00175246    0.00251729   -0.00000002
     atom  124 type  1   force =     0.00038289   -0.00679762   -0.00000002
     atom  125 type  1   force =    -0.00801715    0.00317940    0.00000004
     atom  126 type  1   force =     0.02171037   -0.00566621   -0.00000001
     atom  127 type  1   force =    -0.00300074    0.00519730    0.00000005
     atom  128 type  1   force =    -0.00594801   -0.02163476    0.00000008
     atom  129 type  1   force =     0.00125509    0.00853276   -0.00000003
     atom  130 type  1   force =     0.00569543   -0.00373045   -0.00000005
     atom  131 type  1   force =    -0.00305630   -0.00025906   -0.00000001
     atom  132 type  1   force =     0.00308084    0.00014532   -0.00000008
     atom  133 type  1   force =    -0.00233815    0.00004063   -0.00000000
     atom  134 type  1   force =     0.00060073    0.00039944    0.00000002
     atom  135 type  1   force =    -0.00034610   -0.00002483    0.00000002
     atom  136 type  1   force =     0.00000107   -0.00002822    0.00000002
     atom  137 type  1   force =     0.00000694   -0.00001208   -0.00000000
     atom  138 type  1   force =     0.00002393   -0.00001501    0.00000002
     atom  139 type  1   force =     0.00019454    0.00028728    0.00000002
     atom  140 type  1   force =    -0.00000407   -0.00081001    0.00000001
     atom  141 type  1   force =    -0.00019086   -0.00005833    0.00000003
     atom  142 type  1   force =     0.00019723   -0.00021039   -0.00000000
     atom  143 type  1   force =    -0.00126373    0.00115652    0.00000001
     atom  144 type  1   force =     0.00237104    0.00050227   -0.00000002
     atom  145 type  1   force =     0.00050731    0.00137886    0.00000000
     atom  146 type  1   force =     0.00224925   -0.00389573   -0.00000002
     atom  147 type  1   force =    -0.00144775    0.00025007   -0.00000002
     atom  148 type  1   force =    -0.00162052   -0.00180224   -0.00000000
     atom  149 type  1   force =    -0.00036966    0.00167265   -0.00000001
     atom  150 type  1   force =     0.00008354   -0.00027596    0.00000003
     atom  151 type  1   force =     0.00014592    0.00013612    0.00000002
     atom  152 type  1   force =     0.00070353   -0.00040147    0.00000004
     atom  153 type  1   force =    -0.00044324    0.00001348    0.00000002
     atom  154 type  1   force =     0.00040269    0.00003506    0.00000001
     atom  155 type  1   force =    -0.00020871   -0.00001865   -0.00000003
     atom  156 type  1   force =     0.00007731   -0.00013393    0.00000001
     atom  157 type  1   force =     0.00012052    0.00017140   -0.00000000
     atom  158 type  1   force =    -0.00023176   -0.00033120    0.00000005
     atom  159 type  1   force =     0.00020998    0.00039056    0.00000001
     atom  160 type  1   force =    -0.00004585   -0.00000818   -0.00000000
     atom  161 type  1   force =     0.00001155    0.00035775    0.00000001
     atom  162 type  1   force =     0.00074344   -0.00053238    0.00000001
     atom  163 type  1   force =    -0.00027278   -0.00000262    0.00000001
     atom  164 type  1   force =     0.00061103   -0.00029118   -0.00000001
     atom  165 type  1   force =    -0.00043556    0.00075444    0.00000000
     atom  166 type  1   force =    -0.00005335   -0.00067475    0.00000002
     atom  167 type  1   force =     0.00013864    0.00023491    0.00000003
     atom  168 type  1   force =     0.00008935   -0.00090997    0.00000002
     atom  169 type  1   force =    -0.00031565    0.00016883   -0.00000002
     atom  170 type  1   force =     0.00003003    0.00003561    0.00000001
     atom  171 type  1   force =    -0.00006834    0.00002352    0.00000002
     atom  172 type  1   force =     0.00000335   -0.00000779   -0.00000001
     atom  173 type  1   force =     0.00001025   -0.00002856   -0.00000002
     atom  174 type  1   force =     0.00008725    0.00017580    0.00000001
     atom  175 type  1   force =     0.00011834   -0.00020504    0.00000005
     atom  176 type  1   force =    -0.00019590    0.00001236    0.00000002
     atom  177 type  1   force =     0.00001957   -0.00002315    0.00000001
     atom  178 type  1   force =     0.00000510   -0.00000678    0.00000005
     atom  179 type  1   force =     0.00001379    0.00007092    0.00000000
     atom  180 type  1   force =     0.00017859   -0.00004002   -0.00000002
     atom  181 type  1   force =    -0.00008767    0.00008610   -0.00000005
     atom  182 type  1   force =    -0.00001615   -0.00002998    0.00000001
     atom  183 type  1   force =     0.00012933    0.00027144   -0.00000007
     atom  184 type  1   force =     0.00039372   -0.00068193    0.00000001
     atom  185 type  1   force =    -0.00029980    0.00002372   -0.00000001
     atom  186 type  1   force =     0.00003407   -0.00000103   -0.00000005
     atom  187 type  1   force =    -0.00003072    0.00011889    0.00000007
     atom  188 type  1   force =    -0.00005461   -0.00017468   -0.00000002
     atom  189 type  1   force =     0.00005595    0.00006449    0.00000001
     atom  190 type  1   force =    -0.00003684   -0.00006536    0.00000003
     atom  191 type  1   force =     0.00005142   -0.00005493   -0.00000002
     atom  192 type  1   force =    -0.00003356    0.00002887   -0.00000003
     atom  193 type  1   force =     0.00027232   -0.00040214   -0.00000001
     atom  194 type  1   force =    -0.00022429    0.00038840    0.00000001
     atom  195 type  1   force =     0.00021207   -0.00043697   -0.00000000
     atom  196 type  1   force =    -0.00000816    0.00004351    0.00000004
     atom  197 type  1   force =     0.00002181   -0.00007205    0.00000001
     atom  198 type  1   force =     0.00007506   -0.00000073    0.00000002
     atom  199 type  1   force =    -0.00008384   -0.00001621   -0.00000001

     Total force =     0.276941     Total SCF correction =     0.000014

     BFGS Geometry Optimization
     Energy error            =      7.7E-02 Ry
     Gradient error          =      1.0E-01 Ry/Bohr

     number of scf cycles    =   1
     number of bfgs steps    =   0

     energy             new  =   -2396.9417314183 Ry

     new trust radius        =       0.1036680337 bohr
     new conv_thr            =            1.0E-10 Ry


ATOMIC_POSITIONS (crystal)
C                0.0333346878        0.0333344950       -0.0000000000
C                0.0666663901        0.0666660428       -0.0000000009
C                0.0333357438        0.1333327226       -0.0000000009
C                0.0666651412        0.1666674293       -0.0000000007
C                0.0333357437        0.2333315336        0.0000000004
C                0.0666663904        0.2666675665        0.0000000015
C                0.0333346881        0.3333308160       -0.0000000006
C                0.0666672840        0.3666687026       -0.0000000001
C                0.0333340113        0.4333290141        0.0000000000
C                0.0666741534        0.4666671470        0.0000000006
C                0.0333323589        0.5333335664       -0.0000000008
C                0.0666651631        0.5666707204        0.0000000001
C                0.0333142903        0.6333343488       -0.0000000005
C                0.0667292736        0.6666353631       -0.0000000010
C                0.0333142899        0.7333513613       -0.0000000008
C                0.0666651637        0.7666641152       -0.0000000012
C                0.0333323588        0.8333340766        0.0000000008
C                0.0666741523        0.8666587010        0.0000000011
C                0.0333340112        0.9333369749       -0.0000000005
C                0.0666672836        0.9666640132        0.0000000003
C                0.1333321939        0.0333365747        0.0000000006
C                0.1666664974        0.0666658204        0.0000000009
C                0.1333338501        0.1333330755        0.0000000018
C                0.1666664955        0.1666676823        0.0000000005
C                0.1333321944        0.2333312311        0.0000000005
C                0.1666731656        0.2666651772       -0.0000000005
C                0.1333324370        0.3333323015        0.0000000001
C                0.1666642948        0.3666737921       -0.0000000002
C                0.1333317973        0.4333145454       -0.0000000002
C                0.1666757526        0.4666979952        0.0000000003
C                0.1333282064        0.5333290914        0.0000000016
C                0.1667477344        0.5666213355       -0.0000000038
C                0.1332501173        0.6333749409       -0.0000000013
C                0.1667477363        0.6666309289        0.0000000012
C                0.1333282074        0.7333427011       -0.0000000012
C                0.1666757514        0.7666262527       -0.0000000002
C                0.1333317988        0.8333536573        0.0000000009
C                0.1666642945        0.8666619129        0.0000000006
C                0.1333324360        0.9333352622       -0.0000000005
C                0.1666731659        0.9666616570       -0.0000000004
C                0.2333324055        0.0333349461       -0.0000000003
C                0.2666678529        0.0666660743        0.0000000011
C                0.2333324063        0.1333326470       -0.0000000001
C                0.2666639497        0.1666729578        0.0000000020
C                0.2333244160        0.2333246531        0.0000000009
C                0.2666742025        0.2666789459        0.0000000008
C                0.2333326258        0.3333175949       -0.0000000003
C                0.2666977515        0.3666611579       -0.0000000005
C                0.2333751743        0.4332680384       -0.0000000010
C                0.2666482687        0.4668719358        0.0000000006
C                0.2331800110        0.5333253502       -0.0000000017
C                0.2671162435        0.5664418779       -0.0000000013
C                0.2331800104        0.6334946357       -0.0000000015
C                0.2666482680        0.6664797946       -0.0000000026
C                0.2333751763        0.7333567859       -0.0000000009
C                0.2666977526        0.7666410888       -0.0000000004
C                0.2333326265        0.8333497781       -0.0000000024
C                0.2666742022        0.8666468517       -0.0000000000
C                0.2333244154        0.9333509313        0.0000000005
C                0.2666639499        0.9666630920        0.0000000009
C                0.3333307193        0.0333346405        0.0000000007
C                0.3666680355        0.0666681935       -0.0000000000
C                0.3333334275        0.1333316081       -0.0000000005
C                0.3666747406        0.1666631015       -0.0000000014
C                0.3333222365        0.2333343377        0.0000000003
C                0.3666557645        0.2666967122        0.0000000001
C                0.3332816054        0.3332850898        0.0000000006
C                0.3667054486        0.3667553537        0.0000000004
C                0.3335252415        0.4327681836        0.0000000017
C                0.3680449047        0.4674668899       -0.0000000004
C                0.3321021432        0.5339489275       -0.0000000022
C                0.3680448916        0.5644881935       -0.0000000013
C                0.3335252490        0.6337065758        0.0000000010
C                0.3667054463        0.6665391982       -0.0000000014
C                0.3332816044        0.7334333061       -0.0000000009
C                0.3666557648        0.7666475228       -0.0000000016
C                0.3333222370        0.8333434255       -0.0000000002
C                0.3666747407        0.8666621584       -0.0000000001
C                0.3333334274        0.9333349657        0.0000000004
C                0.3666680353        0.9666637694        0.0000000019
C                0.4333297101        0.0333347437        0.0000000010
C                0.4666668164        0.0666734693        0.0000000010
C                0.4333132869        0.1333329513        0.0000000001
C                0.4666966735        0.1666789046       -0.0000000003
C                0.4332689428        0.2333780277        0.0000000008
C                0.4668990944        0.2666227585       -0.0000000006
C                0.4327753478        0.3336419860        0.0000000019
C                0.4673039332        0.3685032311        0.0000000009
C                0.4326055973        0.4335046141       -0.0000000005
C                0.4326056079        0.5338897977       -0.0000000006
C                0.4673039525        0.5641928295        0.0000000013
C                0.4327753444        0.6335826680        0.0000000008
C                0.4668990984        0.6664781445       -0.0000000002
C                0.4332689428        0.7333530306       -0.0000000001
C                0.4666966725        0.7666244215       -0.0000000007
C                0.4333132867        0.8333537623        0.0000000006
C                0.4666668155        0.8666597149       -0.0000000011
C                0.4333297089        0.9333355474        0.0000000006
C                0.4666694250        0.9666652875       -0.0000000010
C                0.5333343093        0.0333317528        0.0000000002
C                0.5666728812        0.0666623943       -0.0000000012
C                0.5333319961        0.1333320115       -0.0000000001
C                0.5666300494        0.1667300911       -0.0000000018
C                0.5333146309        0.2332068806       -0.0000000007
C                0.5664611055        0.2670766964       -0.0000000009
C                0.5337349595        0.3323624816       -0.0000000006
C                0.5646880032        0.3680600015       -0.0000000006
C                0.5350670202        0.4324665126       -0.0000000003
C                0.5646880071        0.4672519857        0.0000000011
C                0.5337349584        0.5339025553       -0.0000000008
C                0.5664611093        0.5664621984        0.0000000003
C                0.5333146308        0.6334784881       -0.0000000005
C                0.5666300507        0.6666398597       -0.0000000004
C                0.5333319955        0.7333359923        0.0000000000
C                0.5666728814        0.7666647237       -0.0000000005
C                0.5333343094        0.8333339374       -0.0000000008
C                0.5666656633        0.8666651247        0.0000000014
C                0.5333310351        0.9333344832        0.0000000002
C                0.5666656630        0.9666692116        0.0000000003
C                0.6333322046        0.0333184476        0.0000000016
C                0.6666368232        0.0667246074        0.0000000012
C                0.6333683874        0.1332569882       -0.0000000003
C                0.6666343581        0.1667424015       -0.0000000005
C                0.6334839557        0.2331921989       -0.0000000006
C                0.6664991030        0.2666355643        0.0000000015
C                0.6337239243        0.3334807281       -0.0000000005
C                0.6665179521        0.3667410226        0.0000000018
C                0.6337239237        0.4327953504        0.0000000028
C                0.6664991024        0.4668653322       -0.0000000009
C                0.6334839564        0.5333238437       -0.0000000016
C                0.6666343584        0.5666232396       -0.0000000002
C                0.6333683866        0.6333746237       -0.0000000026
C                0.6666368250        0.6666385687       -0.0000000001
C                0.6333322044        0.7333493483        0.0000000008
C                0.6666629114        0.7666618457        0.0000000007
C                0.6333339521        0.8333327410        0.0000000007
C                0.6666670119        0.8666664935       -0.0000000000
C                0.6333339518        0.9333333078        0.0000000008
C                0.6666629120        0.9666752422        0.0000000006
C                0.7333506658        0.0333159000        0.0000000004
C                0.7666655537        0.0666630501        0.0000000009
C                0.7333402921        0.1333312620       -0.0000000001
C                0.7666261898        0.1666758282        0.0000000004
C                0.7333519318        0.2333734895       -0.0000000008
C                0.7666433618        0.2667025429        0.0000000000
C                0.7334448049        0.3332775983       -0.0000000007
C                0.7666433624        0.3666540955       -0.0000000007
C                0.7333519314        0.4332745785       -0.0000000001
C                0.7666261912        0.4666979820       -0.0000000002
C                0.7333402906        0.5333284461        0.0000000011
C                0.7666655534        0.5666713959        0.0000000007
C                0.7333506656        0.6333334345        0.0000000014
C                0.7666608857        0.6666614641        0.0000000005
C                0.7333375701        0.7333390751        0.0000000003
C                0.7666644810        0.7666636806       -0.0000000008
C                0.7333371654        0.8333314170        0.0000000002
C                0.7666644816        0.8666718383       -0.0000000001
C                0.7333375695        0.9333233541        0.0000000015
C                0.7666608868        0.9666776499        0.0000000004
C                0.8333329408        0.0333325896       -0.0000000001
C                0.8666591324        0.0666744871        0.0000000003
C                0.8333539694        0.1333311196        0.0000000004
C                0.8666633432        0.1666632308        0.0000000005
C                0.8333471530        0.2333346552       -0.0000000002
C                0.8666450796        0.2666774606        0.0000000000
C                0.8333471526        0.3333181920        0.0000000008
C                0.8666633432        0.3666734256        0.0000000009
C                0.8333539685        0.4333149122        0.0000000006
C                0.8666591327        0.4666663789       -0.0000000008
C                0.8333329412        0.5333344696        0.0000000004
C                0.8666653152        0.5666663248        0.0000000008
C                0.8333335420        0.6333332076       -0.0000000004
C                0.8666674066        0.6666661807       -0.0000000007
C                0.8333306417        0.7333381871        0.0000000005
C                0.8666725330        0.7666637328        0.0000000018
C                0.8333306409        0.8333311712        0.0000000008
C                0.8666674060        0.8666664124        0.0000000002
C                0.8333335419        0.9333332511        0.0000000017
C                0.8666653157        0.9666683595        0.0000000001
C                0.9333364050        0.0333346872       -0.0000000005
C                0.9666637327        0.0666674282       -0.0000000015
C                0.9333337765        0.1333324898        0.0000000004
C                0.9666624440        0.1666740942       -0.0000000024
C                0.9333528459        0.2333235771        0.0000000004
C                0.9666624432        0.2666634611       -0.0000000004
C                0.9333337776        0.3333337334       -0.0000000015
C                0.9666637347        0.3666688374        0.0000000022
C                0.9333364053        0.4333289080       -0.0000000007
C                0.9666659759        0.4666687440        0.0000000003
C                0.9333342794        0.5333314742        0.0000000010
C                0.9666684826        0.5666661250       -0.0000000008
C                0.9333322979        0.6333335371       -0.0000000010
C                0.9666786708        0.6666614106       -0.0000000004
C                0.9333222191        0.7333388896        0.0000000002
C                0.9666786719        0.7666599168       -0.0000000002
C                0.9333322985        0.8333341659        0.0000000012
C                0.9666684831        0.8666653908        0.0000000003
C                0.9333342789        0.9333342476        0.0000000007
C                0.9666659757        0.9666652800       -0.0000000005



     Writing config-only to output data dir /home/gregb26/links/scratch/qe_tmp/vacancy_relaxed/series/10x10/nspin1/vac_10x10_relax_nspin1.save/ :
     XML data file
     NEW-OLD atomic charge density approx. for the potential

     negative rho (up, down):  2.339E-05 0.000E+00

     total cpu time spent up to now is      288.4 secs

     per-process dynamical memory:   450.4 Mb

     Self-consistent Calculation

     iteration #  1     ecut=   100.00 Ry     beta= 0.30
     Davidson diagonalization with overlap
     ethr =  1.00E-06,  avg # of iterations = 13.0

     negative rho (up, down):  1.557E-05 0.000E+00

     total cpu time spent up to now is      318.3 secs

     total energy              =   -2396.96209207 Ry
     estimated scf accuracy    <       0.02446402 Ry

     iteration #  2     ecut=   100.00 Ry     beta= 0.30
     Davidson diagonalization with overlap
     ethr =  3.07E-06,  avg # of iterations = 14.0

     negative rho (up, down):  1.003E-05 0.000E+00

     total cpu time spent up to now is      330.2 secs

     total energy              =   -2396.96300501 Ry
     estimated scf accuracy    <       0.00592435 Ry

     iteration #  3     ecut=   100.00 Ry     beta= 0.30
     Davidson diagonalization with overlap
     ethr =  7.44E-07,  avg # of iterations =  5.0

     negative rho (up, down):  6.884E-06 0.000E+00

     total cpu time spent up to now is      340.8 secs

     total energy              =   -2396.96302328 Ry
     estimated scf accuracy    <       0.00482373 Ry

     iteration #  4     ecut=   100.00 Ry     beta= 0.30
     Davidson diagonalization with overlap
     ethr =  6.06E-07,  avg # of iterations =  5.0

     negative rho (up, down):  3.791E-06 0.000E+00

     total cpu time spent up to now is      351.1 secs

     total energy              =   -2396.96329918 Ry
     estimated scf accuracy    <       0.00161837 Ry

     iteration #  5     ecut=   100.00 Ry     beta= 0.30
     Davidson diagonalization with overlap
     ethr =  2.03E-07,  avg # of iterations =  5.0

     negative rho (up, down):  1.586E-06 0.000E+00

     total cpu time spent up to now is      361.3 secs

     total energy              =   -2396.96343046 Ry
     estimated scf accuracy    <       0.00035079 Ry

     iteration #  6     ecut=   100.00 Ry     beta= 0.30
     Davidson diagonalization with overlap
     ethr =  4.41E-08,  avg # of iterations =  5.0

     negative rho (up, down):  6.481E-07 0.000E+00

     total cpu time spent up to now is      371.9 secs

     total energy              =   -2396.96346690 Ry
     estimated scf accuracy    <       0.00004441 Ry

     iteration #  7     ecut=   100.00 Ry     beta= 0.30
     Davidson diagonalization with overlap
     ethr =  5.58E-09,  avg # of iterations =  5.0

     negative rho (up, down):  2.988E-07 0.000E+00

     total cpu time spent up to now is      383.5 secs

     total energy              =   -2396.96347380 Ry
     estimated scf accuracy    <       0.00000984 Ry

     iteration #  8     ecut=   100.00 Ry     beta= 0.30
     Davidson diagonalization with overlap
     ethr =  1.24E-09,  avg # of iterations =  4.0

     negative rho (up, down):  6.846E-08 0.000E+00

     total cpu time spent up to now is      394.1 secs

     total energy              =   -2396.96347486 Ry
     estimated scf accuracy    <       0.00000249 Ry

     iteration #  9     ecut=   100.00 Ry     beta= 0.30
     Davidson diagonalization with overlap
     ethr =  3.13E-10,  avg # of iterations =  4.0

     total cpu time spent up to now is      404.6 secs

     total energy              =   -2396.96347512 Ry
     estimated scf accuracy    <       0.00000034 Ry

     iteration # 10     ecut=   100.00 Ry     beta= 0.30
     Davidson diagonalization with overlap
     ethr =  4.24E-11,  avg # of iterations =  5.0

     total cpu time spent up to now is      417.2 secs

     total energy              =   -2396.96347517 Ry
     estimated scf accuracy    <       0.00000010 Ry

     iteration # 11     ecut=   100.00 Ry     beta= 0.30
     Davidson diagonalization with overlap
     ethr =  1.28E-11,  avg # of iterations =  5.0

     total cpu time spent up to now is      427.5 secs

     total energy              =   -2396.96347519 Ry
     estimated scf accuracy    <       0.00000003 Ry

     iteration # 12     ecut=   100.00 Ry     beta= 0.30
     Davidson diagonalization with overlap
     ethr =  3.42E-12,  avg # of iterations =  5.0

     total cpu time spent up to now is      438.5 secs

     total energy              =   -2396.96347519 Ry
     estimated scf accuracy    <          5.4E-09 Ry

     iteration # 13     ecut=   100.00 Ry     beta= 0.30
     Davidson diagonalization with overlap
     ethr =  6.81E-13,  avg # of iterations =  4.0

     total cpu time spent up to now is      450.0 secs

     total energy              =   -2396.96347519 Ry
     estimated scf accuracy    <          1.1E-09 Ry

     iteration # 14     ecut=   100.00 Ry     beta= 0.30
     Davidson diagonalization with overlap
     ethr =  1.41E-13,  avg # of iterations =  4.0

     total cpu time spent up to now is      461.8 secs

     total energy              =   -2396.96347519 Ry
     estimated scf accuracy    <          2.8E-10 Ry

     iteration # 15     ecut=   100.00 Ry     beta= 0.30
     Davidson diagonalization with overlap
     ethr =  1.00E-13,  avg # of iterations =  2.0

     total cpu time spent up to now is      471.5 secs

     End of self-consistent calculation

          k = 0.0000 0.0000 0.0000 (476289 PWs)   bands (ev):

   -23.7927 -23.5864 -23.5808 -23.5520 -23.5513 -23.5460 -23.5350 -23.1199
   -23.1106 -23.0951 -23.0941 -23.0913 -23.0335 -22.8771 -22.8714 -22.8622
   -22.8617 -22.8585 -22.7705 -22.2039 -22.1947 -22.1929 -22.1876 -22.1750
   -22.1633 -22.1543 -22.1543 -22.1501 -22.1491 -22.1485 -22.0011 -21.7198
   -21.7144 -21.7100 -21.7043 -21.7022 -21.5789 -21.0521 -21.0483 -21.0280
   -21.0233 -21.0111 -20.9510 -20.8249 -20.8156 -20.8130 -20.8057 -20.8019
   -20.7915 -20.7910 -20.7907 -20.7846 -20.7813 -20.7800 -20.5233 -20.1478
   -20.1312 -20.1292 -20.1200 -20.1189 -19.9942 -19.5390 -19.5355 -19.4836
   -19.4809 -19.4633 -19.4607 -19.4590 -19.4566 -19.4553 -19.4548 -19.4534
   -19.2872 -19.1024 -19.0982 -19.0863 -19.0621 -19.0612 -19.0569 -19.0544
   -19.0537 -19.0485 -19.0409 -19.0367 -18.7145 -18.5711 -18.5686 -18.4382
   -17.9896 -17.9875 -17.9623 -17.9553 -17.9542 -17.8922 -17.8508 -17.8491
   -17.8461 -17.8293 -17.8281 -17.6371 -17.5117 -17.5091 -17.3257 -16.9932
   -16.9875 -16.9871 -16.9386 -16.9366 -16.8519 -16.6980 -16.6959 -16.6749
   -16.6628 -16.6561 -16.6555 -16.6386 -16.6361 -16.6355 -16.5544 -16.5493
   -16.3749 -16.1980 -16.1422 -16.1407 -16.1221 -16.1213 -15.8330 -15.6544
   -15.6526 -15.6464 -15.5704 -15.5703 -15.4682 -15.2802 -15.2555 -15.2545
   -15.2292 -15.2290 -15.2246 -15.2198 -15.2191 -15.2184 -15.1263 -15.1246
   -14.6228 -14.4784 -14.4760 -14.4630 -14.4556 -14.4476 -14.4472 -14.3287
   -14.3181 -14.3147 -14.2796 -14.2688 -14.2665 -14.2657 -14.2651 -14.2642
   -14.0969 -14.0940 -13.6287 -13.2580 -13.2536 -13.2503 -13.2360 -13.2355
   -13.1909 -13.1761 -13.1358 -13.1350 -13.1026 -13.1024 -13.0992 -13.0897
   -13.0657 -13.0645 -12.9834 -12.9825 -12.9131 -12.8966 -12.8463 -12.8451
   -12.8297 -12.8222 -12.8203 -12.8182 -12.8164 -12.8109 -12.5955 -12.5891
   -12.1867 -11.8751 -11.8618 -11.8615 -11.8505 -11.8382 -11.7905 -11.7898
   -11.7659 -11.7641 -11.7537 -11.7506 -11.7440 -11.7432 -11.7402 -11.7388
   -11.7383 -11.6190 -11.6150 -11.6117 -11.6070 -11.5923 -11.5916 -11.5876
   -11.5596 -11.4974 -11.4543 -11.4053 -11.4035 -11.3871 -11.3861 -11.3817
   -11.3803 -11.3802 -11.3684 -11.2234 -11.2216 -11.0615 -11.0546 -11.0431
   -11.0421 -11.0408 -11.0190 -10.9935 -10.9780 -10.9667 -10.9614 -10.9170
   -10.9146 -10.9141 -10.9091 -10.9090 -10.8753 -10.7822 -10.7818 -10.7815
   -10.7768 -10.7674 -10.7667 -10.7658 -10.7219 -10.6729 -10.6690 -10.6689
   -10.6434 -10.5190 -10.5169 -10.5149 -10.4840 -10.4818 -10.4690 -10.4648
   -10.4165 -10.4156 -10.2664 -10.2647 -10.1111 -10.0951 -10.0432 -10.0380
    -9.9935  -9.9893  -9.9885  -9.9884  -9.9844  -9.9844  -9.9782  -9.9722
    -9.9712  -9.9583  -9.9502  -9.9454  -9.9420  -9.9419  -9.9395  -9.9380
    -9.9373  -9.8579  -9.8578  -9.8319  -9.8254  -9.8246  -9.7880  -9.7846
    -9.7616  -9.7093  -9.7092  -9.6125  -9.6123  -9.5758  -9.4434  -9.4389
    -9.4387  -9.4227  -9.4207  -9.3080  -9.1728  -9.1675  -8.9021  -8.8614
    -8.8593  -8.8276  -8.7796  -8.7668  -8.7666  -8.7453  -8.7438  -8.7340
    -8.6604  -8.6586  -8.6578  -8.6527  -8.6284  -8.5798  -8.5753  -8.4468
    -8.4432  -8.4426  -8.4385  -8.4318  -8.4179  -8.4165  -8.4047  -8.4036
    -8.4036  -8.3954  -8.3916  -8.3901  -8.2429  -8.2420  -8.2368  -8.1596
    -7.9400  -7.9384  -7.8555  -7.8288  -7.8072  -7.8067  -7.7661  -7.7621
    -7.7605  -7.7579  -7.7364  -7.7332  -7.6119  -7.3755  -7.3740  -7.0434
    -7.0380  -7.0069  -7.0054  -6.9625  -6.9590  -6.9571  -6.9567  -6.9533
    -6.9519  -6.9452  -6.8790  -6.8070  -6.8044  -6.7707  -6.7699  -6.7696
    -6.7589  -6.7583  -6.7573  -6.7562  -6.7525  -6.7494  -6.6360  -6.6213
    -6.6194  -6.1572  -5.7926  -5.7925  -5.7576  -5.7570  -5.7531  -5.5230
    -5.3034  -5.3031  -5.2842  -5.2763  -5.2758  -4.6679  -4.4330  -4.3367
    -3.3068  -3.2327  -3.2318  -3.2276  -3.2264  -3.1389  -2.9795  -2.9689
    -2.9686  -2.9280  -2.9276  -2.7886  -2.5738  -2.5706  -2.4833  -2.2476
    -2.2449  -2.2293  -2.1993  -2.1991  -2.1709  -2.1700  -2.1694  -2.1678
    -2.1387  -2.1359  -1.8972  -1.6548

     the Fermi energy is    -4.5564 ev

!    total energy              =   -2396.96347519 Ry
     estimated scf accuracy    <          5.5E-11 Ry
     smearing contrib. (-TS)   =      -0.00015104 Ry
     internal energy E=F+TS    =   -2396.96332415 Ry

     The total energy is F=E-TS. E is the sum of the following terms:
     one-electron contribution =  -27163.88177883 Ry
     hartree contribution      =   13655.92591107 Ry
     xc contribution           =    -852.90370247 Ry
     ewald contribution        =   11963.89624608 Ry

     convergence has been achieved in  15 iterations

     Forces acting on atoms (cartesian axes, Ry/au):

     atom    1 type  1   force =    -0.00016738    0.00001461    0.00000000
     atom    2 type  1   force =     0.00003291    0.00000778    0.00000002
     atom    3 type  1   force =    -0.00004716    0.00001877   -0.00000001
     atom    4 type  1   force =     0.00008653   -0.00014985    0.00000001
     atom    5 type  1   force =     0.00000730    0.00005022    0.00000001
     atom    6 type  1   force =    -0.00002320   -0.00002460   -0.00000003
     atom    7 type  1   force =     0.00007112    0.00015223    0.00000002
     atom    8 type  1   force =    -0.00026150   -0.00017175   -0.00000001
     atom    9 type  1   force =     0.00026080    0.00014359   -0.00000000
     atom   10 type  1   force =    -0.00022535   -0.00024970   -0.00000001
     atom   11 type  1   force =     0.00015441   -0.00013742    0.00000002
     atom   12 type  1   force =    -0.00020011    0.00036853   -0.00000000
     atom   13 type  1   force =     0.00096006   -0.00055464    0.00000001
     atom   14 type  1   force =    -0.00117071    0.00202768    0.00000000
     atom   15 type  1   force =     0.00000030   -0.00110878    0.00000002
     atom   16 type  1   force =    -0.00021906    0.00035768    0.00000002
     atom   17 type  1   force =     0.00004169   -0.00020252    0.00000001
     atom   18 type  1   force =     0.00032895    0.00007028   -0.00000001
     atom   19 type  1   force =    -0.00025482   -0.00015406    0.00000001
     atom   20 type  1   force =     0.00027952    0.00014059   -0.00000001
     atom   21 type  1   force =    -0.00007960   -0.00003115   -0.00000001
     atom   22 type  1   force =     0.00010848    0.00010515    0.00000000
     atom   23 type  1   force =    -0.00001282    0.00002207   -0.00000001
     atom   24 type  1   force =    -0.00014520   -0.00004143    0.00000000
     atom   25 type  1   force =     0.00006672    0.00005336   -0.00000001
     atom   26 type  1   force =    -0.00015323   -0.00003439   -0.00000001
     atom   27 type  1   force =     0.00006548   -0.00002759   -0.00000000
     atom   28 type  1   force =    -0.00020106   -0.00051654    0.00000000
     atom   29 type  1   force =     0.00125715    0.00035960   -0.00000001
     atom   30 type  1   force =    -0.00095655   -0.00194165    0.00000000
     atom   31 type  1   force =     0.00137598   -0.00026447   -0.00000001
     atom   32 type  1   force =    -0.00151378    0.00474483    0.00000003
     atom   33 type  1   force =     0.00186077   -0.00322281    0.00000001
     atom   34 type  1   force =    -0.00335235    0.00368346   -0.00000003
     atom   35 type  1   force =    -0.00045892   -0.00132382   -0.00000000
     atom   36 type  1   force =     0.00215985   -0.00014253    0.00000001
     atom   37 type  1   force =    -0.00094009   -0.00090887    0.00000000
     atom   38 type  1   force =     0.00054793   -0.00008414   -0.00000004
     atom   39 type  1   force =    -0.00000887   -0.00007056   -0.00000001
     atom   40 type  1   force =     0.00010636    0.00011557    0.00000001
     atom   41 type  1   force =     0.00002188    0.00001139    0.00000003
     atom   42 type  1   force =    -0.00002738    0.00004728   -0.00000003
     atom   43 type  1   force =    -0.00002082   -0.00001317    0.00000002
     atom   44 type  1   force =    -0.00005292    0.00001841   -0.00000003
     atom   45 type  1   force =     0.00032945   -0.00000257    0.00000002
     atom   46 type  1   force =    -0.00060278   -0.00013715   -0.00000002
     atom   47 type  1   force =    -0.00002831    0.00031772   -0.00000001
     atom   48 type  1   force =    -0.00041779   -0.00151154   -0.00000000
     atom   49 type  1   force =     0.00384073    0.00159368   -0.00000002
     atom   50 type  1   force =     0.00032944   -0.01021238    0.00000002
     atom   51 type  1   force =     0.01046467   -0.00179958    0.00000002
     atom   52 type  1   force =    -0.02177788    0.03772014   -0.00000002
     atom   53 type  1   force =    -0.00367368   -0.00996244   -0.00000001
     atom   54 type  1   force =     0.00867954   -0.00539165    0.00000005
     atom   55 type  1   force =    -0.00330063   -0.00252929    0.00000001
     atom   56 type  1   force =     0.00151798   -0.00039390   -0.00000000
     atom   57 type  1   force =    -0.00026104    0.00018341    0.00000001
     atom   58 type  1   force =     0.00042016    0.00045342   -0.00000002
     atom   59 type  1   force =    -0.00016249   -0.00028665    0.00000001
     atom   60 type  1   force =     0.00001053    0.00005507   -0.00000002
     atom   61 type  1   force =     0.00009520   -0.00016488   -0.00000002
     atom   62 type  1   force =    -0.00026831    0.00013668    0.00000002
     atom   63 type  1   force =     0.00004942    0.00008928    0.00000001
     atom   64 type  1   force =    -0.00014489    0.00063989    0.00000002
     atom   65 type  1   force =    -0.00040794   -0.00020897    0.00000001
     atom   66 type  1   force =     0.00016219    0.00160070    0.00000003
     atom   67 type  1   force =    -0.00225533   -0.00009037   -0.00000004
     atom   68 type  1   force =    -0.00698492   -0.00143700    0.00000002
     atom   69 type  1   force =     0.04301776    0.00939031   -0.00000000
     atom   70 type  1   force =    -0.03498285    0.01982349   -0.00000003
     atom   71 type  1   force =     0.02052527   -0.03555146    0.00000001
     atom   72 type  1   force =     0.00032520    0.04020722   -0.00000001
     atom   73 type  1   force =    -0.02964187   -0.03255922   -0.00000002
     atom   74 type  1   force =     0.00473715    0.00533045    0.00000006
     atom   75 type  1   force =     0.00120583    0.00190788   -0.00000005
     atom   76 type  1   force =    -0.00146733    0.00065988   -0.00000000
     atom   77 type  1   force =     0.00038495    0.00024884    0.00000003
     atom   78 type  1   force =    -0.00048173    0.00044540    0.00000001
     atom   79 type  1   force =    -0.00010214    0.00000179    0.00000000
     atom   80 type  1   force =     0.00001592    0.00030080   -0.00000002
     atom   81 type  1   force =     0.00021703   -0.00015848   -0.00000002
     atom   82 type  1   force =    -0.00015525    0.00026762    0.00000000
     atom   83 type  1   force =     0.00137282   -0.00044955   -0.00000001
     atom   84 type  1   force =    -0.00091778    0.00192764   -0.00000001
     atom   85 type  1   force =     0.00400712   -0.00137682   -0.00000002
     atom   86 type  1   force =     0.00338157    0.01435548    0.00000002
     atom   87 type  1   force =     0.04336198   -0.00776605   -0.00000000
     atom   88 type  1   force =    -0.03390341   -0.01364822    0.00000003
     atom   89 type  1   force =     0.00045736   -0.00738415    0.00000001
     atom   90 type  1   force =     0.00616547   -0.00408807    0.00000003
     atom   91 type  1   force =     0.02877103    0.02253792    0.00000001
     atom   92 type  1   force =    -0.01495505   -0.04143584   -0.00000002
     atom   93 type  1   force =    -0.01412312    0.00424944    0.00000001
     atom   94 type  1   force =    -0.00081131   -0.00415875   -0.00000002
     atom   95 type  1   force =    -0.00121042    0.00175865    0.00000004
     atom   96 type  1   force =    -0.00029712   -0.00141370   -0.00000002
     atom   97 type  1   force =    -0.00015410    0.00026822    0.00000001
     atom   98 type  1   force =     0.00002873   -0.00026723    0.00000001
     atom   99 type  1   force =    -0.00008098    0.00014029    0.00000001
     atom  100 type  1   force =     0.00016673    0.00014292    0.00000001
     atom  101 type  1   force =    -0.00017634   -0.00019424   -0.00000000
     atom  102 type  1   force =     0.00108831    0.00010152    0.00000001
     atom  103 type  1   force =    -0.00100703   -0.00391849   -0.00000001
     atom  104 type  1   force =     0.01010842   -0.00005905   -0.00000000
     atom  105 type  1   force =    -0.01797485   -0.02796868    0.00000001
     atom  106 type  1   force =     0.02332510    0.03047937   -0.00000006
     atom  107 type  1   force =    -0.00462457   -0.03821749    0.00000002
     atom  108 type  1   force =    -0.00198617    0.00343719   -0.00000001
     atom  109 type  1   force =     0.03541103   -0.01510320   -0.00000001
     atom  110 type  1   force =    -0.03805766   -0.00496072   -0.00000004
     atom  111 type  1   force =     0.03320861    0.00158237   -0.00000000
     atom  112 type  1   force =    -0.00500295   -0.00878376    0.00000001
     atom  113 type  1   force =     0.00389694   -0.00108709   -0.00000000
     atom  114 type  1   force =    -0.00063204   -0.00089180   -0.00000000
     atom  115 type  1   force =     0.00025634    0.00005560    0.00000002
     atom  116 type  1   force =    -0.00020714   -0.00007291   -0.00000000
     atom  117 type  1   force =     0.00006501    0.00016685   -0.00000000
     atom  118 type  1   force =     0.00010030   -0.00017380    0.00000002
     atom  119 type  1   force =    -0.00017697    0.00002717    0.00000000
     atom  120 type  1   force =     0.00086908    0.00034207    0.00000000
     atom  121 type  1   force =    -0.00103685   -0.00187964   -0.00000002
     atom  122 type  1   force =     0.00179055    0.00279695   -0.00000001
     atom  123 type  1   force =    -0.00333047   -0.00327103   -0.00000001
     atom  124 type  1   force =    -0.00356037    0.00980129    0.00000001
     atom  125 type  1   force =     0.00787645    0.00497608   -0.00000004
     atom  126 type  1   force =    -0.02515300    0.02992355    0.00000002
     atom  127 type  1   force =     0.00497830   -0.00862224    0.00000004
     atom  128 type  1   force =    -0.01333810    0.03674454   -0.00000002
     atom  129 type  1   force =    -0.00824765   -0.00433313    0.00000003
     atom  130 type  1   force =    -0.00670786    0.00798411   -0.00000001
     atom  131 type  1   force =     0.00449800    0.00124883   -0.00000001
     atom  132 type  1   force =    -0.00331737   -0.00015222    0.00000003
     atom  133 type  1   force =     0.00214615   -0.00004179   -0.00000003
     atom  134 type  1   force =    -0.00073084   -0.00058162   -0.00000001
     atom  135 type  1   force =     0.00035726   -0.00013736    0.00000001
     atom  136 type  1   force =    -0.00013023   -0.00005427   -0.00000000
     atom  137 type  1   force =     0.00006731   -0.00011649    0.00000001
     atom  138 type  1   force =     0.00011208    0.00008560   -0.00000004
     atom  139 type  1   force =    -0.00005967   -0.00037804   -0.00000002
     atom  140 type  1   force =    -0.00006236    0.00104498    0.00000001
     atom  141 type  1   force =    -0.00018583   -0.00025208   -0.00000001
     atom  142 type  1   force =    -0.00047937    0.00119166    0.00000001
     atom  143 type  1   force =     0.00206044    0.00004111    0.00000003
     atom  144 type  1   force =    -0.00273151    0.00223604    0.00000002
     atom  145 type  1   force =     0.00117247    0.00023800   -0.00000002
     atom  146 type  1   force =     0.00053904   -0.00093374    0.00000000
     atom  147 type  1   force =    -0.00079235   -0.00089630    0.00000002
     atom  148 type  1   force =    -0.00057065    0.00348352   -0.00000001
     atom  149 type  1   force =    -0.00106594   -0.00176376    0.00000000
     atom  150 type  1   force =    -0.00079222    0.00101089   -0.00000002
     atom  151 type  1   force =     0.00031128    0.00003488   -0.00000001
     atom  152 type  1   force =    -0.00087379    0.00057643   -0.00000002
     atom  153 type  1   force =     0.00046717    0.00015808    0.00000001
     atom  154 type  1   force =    -0.00025230   -0.00004190   -0.00000001
     atom  155 type  1   force =     0.00012951    0.00002007    0.00000001
     atom  156 type  1   force =    -0.00000206    0.00000362   -0.00000002
     atom  157 type  1   force =    -0.00008222   -0.00010211    0.00000002
     atom  158 type  1   force =     0.00016254    0.00019755   -0.00000000
     atom  159 type  1   force =    -0.00037059   -0.00032549    0.00000000
     atom  160 type  1   force =     0.00008276    0.00018456    0.00000001
     atom  161 type  1   force =     0.00026339   -0.00008324   -0.00000001
     atom  162 type  1   force =    -0.00092077    0.00098098   -0.00000002
     atom  163 type  1   force =     0.00053395    0.00015504    0.00000002
     atom  164 type  1   force =    -0.00019657   -0.00024628   -0.00000001
     atom  165 type  1   force =     0.00037166   -0.00064381   -0.00000002
     atom  166 type  1   force =     0.00031159    0.00004710    0.00000001
     atom  167 type  1   force =    -0.00040121   -0.00038487   -0.00000003
     atom  168 type  1   force =    -0.00038921    0.00128779    0.00000000
     atom  169 type  1   force =    -0.00005950   -0.00026967    0.00000001
     atom  170 type  1   force =    -0.00020127    0.00002060   -0.00000001
     atom  171 type  1   force =     0.00004196   -0.00017656   -0.00000001
     atom  172 type  1   force =    -0.00014896    0.00007967   -0.00000001
     atom  173 type  1   force =     0.00007292    0.00016774    0.00000001
     atom  174 type  1   force =    -0.00001643   -0.00005871    0.00000000
     atom  175 type  1   force =    -0.00007456    0.00012923    0.00000002
     atom  176 type  1   force =     0.00005910   -0.00001518   -0.00000002
     atom  177 type  1   force =    -0.00018169    0.00002070    0.00000002
     atom  178 type  1   force =     0.00000546    0.00016876   -0.00000001
     atom  179 type  1   force =     0.00013194   -0.00012459    0.00000001
     atom  180 type  1   force =    -0.00025374    0.00013670   -0.00000002
     atom  181 type  1   force =     0.00027318   -0.00015169    0.00000002
     atom  182 type  1   force =     0.00006059    0.00006661   -0.00000003
     atom  183 type  1   force =     0.00003834   -0.00011218    0.00000004
     atom  184 type  1   force =    -0.00021373    0.00037011   -0.00000000
     atom  185 type  1   force =     0.00007809   -0.00008931    0.00000002
     atom  186 type  1   force =    -0.00008805   -0.00001916    0.00000002
     atom  187 type  1   force =    -0.00000523   -0.00031236   -0.00000001
     atom  188 type  1   force =     0.00000842    0.00028806    0.00000001
     atom  189 type  1   force =    -0.00007120   -0.00009400   -0.00000002
     atom  190 type  1   force =     0.00006715    0.00013614   -0.00000001
     atom  191 type  1   force =    -0.00016074   -0.00005695    0.00000001
     atom  192 type  1   force =     0.00017240   -0.00012394   -0.00000001
     atom  193 type  1   force =    -0.00013438    0.00051017   -0.00000000
     atom  194 type  1   force =     0.00015219   -0.00026350    0.00000001
     atom  195 type  1   force =    -0.00037464    0.00037153    0.00000001
     atom  196 type  1   force =     0.00002102   -0.00021130    0.00000001
     atom  197 type  1   force =     0.00012978    0.00011082    0.00000000
     atom  198 type  1   force =    -0.00015155    0.00000985    0.00000001
     atom  199 type  1   force =     0.00011705    0.00001467   -0.00000001

     Total force =     0.174854     Total SCF correction =     0.000009
     Energy error            =      2.2E-02 Ry
     Gradient error          =      4.3E-02 Ry/Bohr

     number of scf cycles    =   2
     number of bfgs steps    =   1

     energy             old  =   -2396.9417314183 Ry
     energy             new  =   -2396.9634751901 Ry

     CASE: energy            _new < energy            _old

     new trust radius        =       0.0295557616 bohr
     new conv_thr            =            1.0E-10 Ry


ATOMIC_POSITIONS (crystal)
C                0.0333331573        0.0333333841       -0.0000000000
C                0.0666665294        0.0666663790       -0.0000000005
C                0.0333353113        0.1333325290       -0.0000000014
C                0.0666679886        0.1666660057       -0.0000000005
C                0.0333353111        0.2333321594        0.0000000006
C                0.0666665294        0.2666670912        0.0000000009
C                0.0333331587        0.3333334577       -0.0000000002
C                0.0666676640        0.3666640573       -0.0000000002
C                0.0333341899        0.4333329816       -0.0000000000
C                0.0666767671        0.4666614728        0.0000000004
C                0.0333356693        0.5333328640       -0.0000000004
C                0.0666577022        0.5666749737        0.0000000001
C                0.0333289474        0.6333344535       -0.0000000004
C                0.0666952908        0.6666523541       -0.0000000010
C                0.0333289475        0.7333365990       -0.0000000005
C                0.0666577016        0.7666673247       -0.0000000008
C                0.0333356696        0.8333314666        0.0000000012
C                0.0666767666        0.8666617614        0.0000000010
C                0.0333341893        0.9333328284       -0.0000000002
C                0.0666676638        0.9666682787        0.0000000001
C                0.1333318473        0.0333357631        0.0000000004
C                0.1666658380        0.0666682584        0.0000000011
C                0.1333334618        0.1333332687        0.0000000018
C                0.1666658377        0.1666659037        0.0000000007
C                0.1333318474        0.2333323887        0.0000000003
C                0.1666730539        0.2666631636       -0.0000000008
C                0.1333333260        0.3333323438        0.0000000000
C                0.1666700757        0.3666650256       -0.0000000002
C                0.1333371524        0.4333288757       -0.0000000005
C                0.1666976837        0.4666637871        0.0000000004
C                0.1333436160        0.5333366221        0.0000000014
C                0.1666717984        0.5666747872       -0.0000000035
C                0.1333058940        0.6333470536       -0.0000000012
C                0.1666717985        0.6666534133        0.0000000007
C                0.1333436166        0.7333197617       -0.0000000014
C                0.1666976845        0.7666385287        0.0000000001
C                0.1333371525        0.8333339720        0.0000000010
C                0.1666700757        0.8666648992       -0.0000000002
C                0.1333333254        0.9333343301       -0.0000000007
C                0.1666730530        0.9666637829       -0.0000000003
C                0.2333323238        0.0333354829        0.0000000005
C                0.2666670302        0.0666664847        0.0000000006
C                0.2333323232        0.1333321930        0.0000000005
C                0.2666629174        0.1666734559        0.0000000014
C                0.2333263571        0.2333265423        0.0000000014
C                0.2666718392        0.2666729607        0.0000000004
C                0.2333275127        0.3333204347       -0.0000000005
C                0.2667202697        0.3666341356       -0.0000000006
C                0.2333891089        0.4333184282       -0.0000000016
C                0.2668031139        0.4667430590        0.0000000010
C                0.2332816325        0.5333884445       -0.0000000015
C                0.2664066564        0.5667966695       -0.0000000018
C                0.2332816331        0.6333299215       -0.0000000018
C                0.2668031162        0.6664538244       -0.0000000016
C                0.2333891097        0.7332924612       -0.0000000007
C                0.2667202705        0.7666455940       -0.0000000005
C                0.2333275125        0.8333520515       -0.0000000025
C                0.2666718393        0.8666551995       -0.0000000005
C                0.2333263571        0.9333471005        0.0000000009
C                0.2666629171        0.9666636269        0.0000000005
C                0.3333337508        0.0333331248        0.0000000003
C                0.3666637874        0.0666680841        0.0000000004
C                0.3333325219        0.1333331975       -0.0000000002
C                0.3666647062        0.1666711017       -0.0000000012
C                0.3333206347        0.2333277449        0.0000000005
C                0.3666318626        0.2667255105        0.0000000007
C                0.3332577355        0.3332588721       -0.0000000003
C                0.3666705122        0.3666824901        0.0000000010
C                0.3337788958        0.4332230194        0.0000000019
C                0.3675907466        0.4675478962       -0.0000000012
C                0.3326835023        0.5336582429       -0.0000000022
C                0.3675907530        0.5648613478       -0.0000000017
C                0.3337788962        0.6329980809        0.0000000006
C                0.3666705141        0.6666469975       -0.0000000003
C                0.3332577352        0.7334833913       -0.0000000021
C                0.3666318631        0.7666426264       -0.0000000019
C                0.3333206345        0.8333516208        0.0000000004
C                0.3666647064        0.8666641922        0.0000000002
C                0.3333325215        0.9333342804        0.0000000005
C                0.3666637870        0.9666681293        0.0000000015
C                0.4333335964        0.0333343962        0.0000000008
C                0.4666614463        0.0666768893        0.0000000011
C                0.4333298439        0.1333380820       -0.0000000002
C                0.4666628709        0.1667013033       -0.0000000005
C                0.4333176093        0.2333969892        0.0000000004
C                0.4667372612        0.2668638736       -0.0000000001
C                0.4332094670        0.3339357655        0.0000000020
C                0.4672835886        0.3682011968        0.0000000017
C                0.4326421130        0.4332840840       -0.0000000004
C                0.4326421172        0.5340738085        0.0000000001
C                0.4672835943        0.5645152167        0.0000000018
C                0.4332094698        0.6328547689        0.0000000005
C                0.4667372610        0.6663988647       -0.0000000001
C                0.4333176095        0.7332854006       -0.0000000006
C                0.4666628704        0.7666358260        0.0000000001
C                0.4333298439        0.8333320739        0.0000000001
C                0.4666614465        0.8666616647       -0.0000000010
C                0.4333335956        0.9333320082        0.0000000008
C                0.4666669036        0.9666665485       -0.0000000010
C                0.5333337115        0.0333351878        0.0000000006
C                0.5666749476        0.0666574683       -0.0000000013
C                0.5333397940        0.1333428722        0.0000000001
C                0.5666763971        0.1666691143       -0.0000000023
C                0.5334014855        0.2332802883       -0.0000000009
C                0.5667040623        0.2665429513       -0.0000000009
C                0.5335219499        0.3329199291       -0.0000000021
C                0.5650097073        0.3675944120       -0.0000000003
C                0.5351856222        0.4324071917       -0.0000000005
C                0.5650097158        0.4673958907        0.0000000009
C                0.5335219598        0.5335581198       -0.0000000018
C                0.5667040624        0.5667529836        0.0000000002
C                0.5334014878        0.6333182254       -0.0000000003
C                0.5666763972        0.6666544886       -0.0000000005
C                0.5333397945        0.7333173331       -0.0000000001
C                0.5666749473        0.7666675830       -0.0000000001
C                0.5333337114        0.8333311005       -0.0000000010
C                0.5666636049        0.8666680393        0.0000000015
C                0.5333342797        0.9333328604        0.0000000006
C                0.5666636042        0.9666683564        0.0000000004
C                0.6333344900        0.0333295582        0.0000000019
C                0.6666529054        0.0666935166        0.0000000008
C                0.6333455999        0.1333064769       -0.0000000005
C                0.6666511862        0.1666722947       -0.0000000009
C                0.6333215011        0.2332936978       -0.0000000004
C                0.6664744983        0.2667757810        0.0000000008
C                0.6330961187        0.3337288911       -0.0000000000
C                0.6666751797        0.3666624119        0.0000000029
C                0.6330961235        0.4331749872        0.0000000027
C                0.6664744969        0.4667497206       -0.0000000002
C                0.6333215014        0.5333848016       -0.0000000020
C                0.6666511852        0.5666765189       -0.0000000004
C                0.6333456007        0.6333479230       -0.0000000021
C                0.6666529053        0.6666535778       -0.0000000007
C                0.6333344896        0.7333359517        0.0000000007
C                0.6666676854        0.7666623626        0.0000000011
C                0.6333337037        0.8333307251        0.0000000007
C                0.6666693915        0.8666653044        0.0000000002
C                0.6333337038        0.9333355711       -0.0000000002
C                0.6666676857        0.9666699516        0.0000000002
C                0.7333362448        0.0333292246        0.0000000005
C                0.7666676162        0.0666572403        0.0000000007
C                0.7333189065        0.1333448313        0.0000000000
C                0.7666391227        0.1666953752        0.0000000011
C                0.7332964566        0.2333877729       -0.0000000003
C                0.7666474560        0.2667202215       -0.0000000004
C                0.7334756441        0.3332621781       -0.0000000007
C                0.7666474553        0.3666323240       -0.0000000004
C                0.7332964576        0.4333157697       -0.0000000003
C                0.7666391220        0.4666655022       -0.0000000002
C                0.7333189070        0.5333362620        0.0000000008
C                0.7666676166        0.5666751433        0.0000000005
C                0.7333362455        0.6333345302        0.0000000011
C                0.7666619429        0.6666673507        0.0000000009
C                0.7333364645        0.7333368689        0.0000000000
C                0.7666650690        0.7666647873       -0.0000000007
C                0.7333375077        0.8333312462       -0.0000000002
C                0.7666650688        0.8666701430        0.0000000003
C                0.7333364646        0.9333266669        0.0000000016
C                0.7666619424        0.9666707059        0.0000000006
C                0.8333308362        0.0333360120        0.0000000001
C                0.8666618643        0.0666763716        0.0000000001
C                0.8333333988        0.1333376551        0.0000000000
C                0.8666652936        0.1666698441        0.0000000011
C                0.8333506513        0.2333293740       -0.0000000004
C                0.8666556840        0.2666721578       -0.0000000003
C                0.8333506510        0.3333199749        0.0000000012
C                0.8666652935        0.3666648626        0.0000000002
C                0.8333333990        0.4333289455        0.0000000007
C                0.8666618648        0.4666617642       -0.0000000007
C                0.8333308361        0.5333331512        0.0000000002
C                0.8666681962        0.5666639910        0.0000000007
C                0.8333310668        0.6333330986       -0.0000000007
C                0.8666655924        0.6666692918       -0.0000000005
C                0.8333310925        0.7333376844        0.0000000006
C                0.8666705709        0.7666647144        0.0000000024
C                0.8333310927        0.8333312227        0.0000000003
C                0.8666655923        0.8666651155        0.0000000007
C                0.8333310676        0.9333358341        0.0000000016
C                0.8666681964        0.9666678129        0.0000000003
C                0.9333324678        0.0333346861       -0.0000000010
C                0.9666680800        0.0666676015       -0.0000000013
C                0.9333333476        0.1333339302       -0.0000000002
C                0.9666640118        0.1666735409       -0.0000000018
C                0.9333475180        0.2333262405        0.0000000004
C                0.9666640122        0.2666624471        0.0000000001
C                0.9333333481        0.3333327214       -0.0000000011
C                0.9666680811        0.3666643176        0.0000000022
C                0.9333324681        0.4333328452       -0.0000000004
C                0.9666666986        0.4666669318       -0.0000000001
C                0.9333329138        0.5333339100        0.0000000009
C                0.9666681386        0.5666638086       -0.0000000007
C                0.9333355550        0.6333331913       -0.0000000013
C                0.9666711092        0.6666673635       -0.0000000005
C                0.9333263132        0.7333368432        0.0000000004
C                0.9666711091        0.7666615264        0.0000000001
C                0.9333355551        0.8333312533        0.0000000015
C                0.9666681387        0.8666680531        0.0000000003
C                0.9333329136        0.9333331759        0.0000000010
C                0.9666666985        0.9666663699       -0.0000000007



     Writing config-only to output data dir /home/gregb26/links/scratch/qe_tmp/vacancy_relaxed/series/10x10/nspin1/vac_10x10_relax_nspin1.save/ :
     XML data file
     NEW-OLD atomic charge density approx. for the potential

     negative rho (up, down):  8.229E-06 0.000E+00

     total cpu time spent up to now is      476.5 secs

     per-process dynamical memory:   457.3 Mb

     Self-consistent Calculation

     iteration #  1     ecut=   100.00 Ry     beta= 0.30
     Davidson diagonalization with overlap
     ethr =  1.00E-06,  avg # of iterations =  7.0

     negative rho (up, down):  5.427E-06 0.000E+00

     total cpu time spent up to now is      498.4 secs

     total energy              =   -2396.97156170 Ry
     estimated scf accuracy    <       0.00504239 Ry

     iteration #  2     ecut=   100.00 Ry     beta= 0.30
     Davidson diagonalization with overlap
     ethr =  6.33E-07,  avg # of iterations =  3.0

     negative rho (up, down):  4.365E-06 0.000E+00

     total cpu time spent up to now is      509.1 secs

     total energy              =   -2396.97143431 Ry
     estimated scf accuracy    <       0.00408884 Ry

     iteration #  3     ecut=   100.00 Ry     beta= 0.30
     Davidson diagonalization with overlap
     ethr =  5.14E-07,  avg # of iterations =  5.0

     negative rho (up, down):  2.650E-06 0.000E+00

     total cpu time spent up to now is      519.2 secs

     total energy              =   -2396.97186751 Ry
     estimated scf accuracy    <       0.00247334 Ry

     iteration #  4     ecut=   100.00 Ry     beta= 0.30
     Davidson diagonalization with overlap
     ethr =  3.11E-07,  avg # of iterations =  2.0

     negative rho (up, down):  1.327E-06 0.000E+00

     total cpu time spent up to now is      528.9 secs

     total energy              =   -2396.97197662 Ry
     estimated scf accuracy    <       0.00020754 Ry

     iteration #  5     ecut=   100.00 Ry     beta= 0.30
     Davidson diagonalization with overlap
     ethr =  2.61E-08,  avg # of iterations =  6.0

     negative rho (up, down):  6.006E-07 0.000E+00

     total cpu time spent up to now is      540.1 secs

     total energy              =   -2396.97199809 Ry
     estimated scf accuracy    <       0.00004849 Ry

     iteration #  6     ecut=   100.00 Ry     beta= 0.30
     Davidson diagonalization with overlap
     ethr =  6.09E-09,  avg # of iterations =  5.0

     negative rho (up, down):  2.167E-07 0.000E+00

     total cpu time spent up to now is      550.6 secs

     total energy              =   -2396.97200124 Ry
     estimated scf accuracy    <       0.00001382 Ry

     iteration #  7     ecut=   100.00 Ry     beta= 0.30
     Davidson diagonalization with overlap
     ethr =  1.74E-09,  avg # of iterations =  5.0

     negative rho (up, down):  1.223E-07 0.000E+00

     total cpu time spent up to now is      561.7 secs

     total energy              =   -2396.97200358 Ry
     estimated scf accuracy    <       0.00000240 Ry

     iteration #  8     ecut=   100.00 Ry     beta= 0.30
     Davidson diagonalization with overlap
     ethr =  3.01E-10,  avg # of iterations =  4.0

     negative rho (up, down):  4.126E-08 0.000E+00

     total cpu time spent up to now is      571.8 secs

     total energy              =   -2396.97200372 Ry
     estimated scf accuracy    <       0.00000072 Ry

     iteration #  9     ecut=   100.00 Ry     beta= 0.30
     Davidson diagonalization with overlap
     ethr =  9.01E-11,  avg # of iterations =  4.0

     total cpu time spent up to now is      582.3 secs

     total energy              =   -2396.97200384 Ry
     estimated scf accuracy    <       0.00000018 Ry

     iteration # 10     ecut=   100.00 Ry     beta= 0.30
     Davidson diagonalization with overlap
     ethr =  2.25E-11,  avg # of iterations =  4.0

     total cpu time spent up to now is      592.0 secs

     total energy              =   -2396.97200386 Ry
     estimated scf accuracy    <       0.00000002 Ry

     iteration # 11     ecut=   100.00 Ry     beta= 0.30
     Davidson diagonalization with overlap
     ethr =  3.09E-12,  avg # of iterations =  5.0

     total cpu time spent up to now is      606.5 secs

     total energy              =   -2396.97200386 Ry
     estimated scf accuracy    <       0.00000001 Ry

     iteration # 12     ecut=   100.00 Ry     beta= 0.30
     Davidson diagonalization with overlap
     ethr =  1.39E-12,  avg # of iterations =  2.0

     total cpu time spent up to now is      616.5 secs

     total energy              =   -2396.97200386 Ry
     estimated scf accuracy    <          3.3E-09 Ry

     iteration # 13     ecut=   100.00 Ry     beta= 0.30
     Davidson diagonalization with overlap
     ethr =  4.09E-13,  avg # of iterations =  5.0

     total cpu time spent up to now is      630.2 secs

     total energy              =   -2396.97200386 Ry
     estimated scf accuracy    <          1.1E-09 Ry

     iteration # 14     ecut=   100.00 Ry     beta= 0.30
     Davidson diagonalization with overlap
     ethr =  1.38E-13,  avg # of iterations =  5.0

     total cpu time spent up to now is      640.4 secs

     total energy              =   -2396.97200386 Ry
     estimated scf accuracy    <          5.9E-10 Ry

     iteration # 15     ecut=   100.00 Ry     beta= 0.30
     Davidson diagonalization with overlap
     ethr =  1.00E-13,  avg # of iterations =  3.0

     total cpu time spent up to now is      651.1 secs

     End of self-consistent calculation

          k = 0.0000 0.0000 0.0000 (476289 PWs)   bands (ev):

   -23.7930 -23.5841 -23.5782 -23.5529 -23.5526 -23.5488 -23.5368 -23.1207
   -23.1124 -23.0951 -23.0948 -23.0892 -23.0382 -22.8797 -22.8747 -22.8608
   -22.8595 -22.8592 -22.7771 -22.2130 -22.2031 -22.1896 -22.1892 -22.1684
   -22.1619 -22.1550 -22.1544 -22.1514 -22.1512 -22.1510 -22.0004 -21.7160
   -21.7135 -21.7113 -21.7079 -21.7059 -21.5806 -21.0453 -21.0426 -21.0272
   -21.0253 -21.0197 -20.9515 -20.8224 -20.8222 -20.8090 -20.8019 -20.7995
   -20.7921 -20.7901 -20.7893 -20.7888 -20.7874 -20.7857 -20.5133 -20.1426
   -20.1404 -20.1363 -20.1177 -20.1165 -19.9859 -19.5240 -19.5225 -19.4925
   -19.4691 -19.4674 -19.4610 -19.4608 -19.4605 -19.4579 -19.4552 -19.4549
   -19.2919 -19.1063 -19.1039 -19.0789 -19.0642 -19.0614 -19.0591 -19.0533
   -19.0528 -19.0508 -19.0362 -19.0346 -18.7098 -18.5712 -18.5700 -18.4001
   -17.9847 -17.9754 -17.9743 -17.9545 -17.9539 -17.8914 -17.8587 -17.8477
   -17.8473 -17.8247 -17.8241 -17.6482 -17.5059 -17.5057 -17.3197 -16.9915
   -16.9915 -16.9893 -16.9340 -16.9340 -16.8606 -16.6872 -16.6799 -16.6783
   -16.6587 -16.6564 -16.6553 -16.6414 -16.6391 -16.6384 -16.5563 -16.5544
   -16.3642 -16.1998 -16.1432 -16.1421 -16.1301 -16.1280 -15.8465 -15.6500
   -15.6430 -15.6414 -15.5723 -15.5716 -15.4627 -15.2759 -15.2464 -15.2439
   -15.2408 -15.2406 -15.2313 -15.2203 -15.2193 -15.2187 -15.1331 -15.1325
   -14.6388 -14.4763 -14.4752 -14.4604 -14.4492 -14.4487 -14.4472 -14.3216
   -14.3088 -14.3063 -14.2779 -14.2680 -14.2676 -14.2660 -14.2649 -14.2638
   -14.1109 -14.1109 -13.6345 -13.2627 -13.2597 -13.2558 -13.2337 -13.2331
   -13.1743 -13.1673 -13.1442 -13.1435 -13.1070 -13.1026 -13.0984 -13.0779
   -13.0581 -13.0572 -12.9902 -12.9891 -12.8980 -12.8884 -12.8429 -12.8417
   -12.8330 -12.8324 -12.8319 -12.8217 -12.8214 -12.8171 -12.6020 -12.6019
   -12.1953 -11.8755 -11.8527 -11.8447 -11.8316 -11.8299 -11.7785 -11.7769
   -11.7627 -11.7623 -11.7549 -11.7485 -11.7475 -11.7467 -11.7427 -11.7424
   -11.7416 -11.6293 -11.6243 -11.6172 -11.6130 -11.5933 -11.5929 -11.5902
   -11.5597 -11.5048 -11.4510 -11.4126 -11.4114 -11.3874 -11.3859 -11.3826
   -11.3801 -11.3799 -11.3772 -11.2218 -11.2196 -11.0615 -11.0554 -11.0429
   -11.0426 -11.0398 -11.0148 -10.9972 -10.9814 -10.9538 -10.9483 -10.9198
   -10.9182 -10.9173 -10.9127 -10.9122 -10.8916 -10.7837 -10.7834 -10.7826
   -10.7791 -10.7664 -10.7663 -10.7651 -10.7307 -10.6771 -10.6714 -10.6675
   -10.6337 -10.5180 -10.5127 -10.5101 -10.4798 -10.4769 -10.4737 -10.4424
   -10.4301 -10.4290 -10.2577 -10.2545 -10.0875 -10.0861 -10.0443 -10.0425
    -9.9948  -9.9944  -9.9934  -9.9926  -9.9867  -9.9859  -9.9858  -9.9732
    -9.9683  -9.9679  -9.9534  -9.9490  -9.9432  -9.9428  -9.9409  -9.9403
    -9.9399  -9.8611  -9.8609  -9.8310  -9.8262  -9.8248  -9.7932  -9.7856
    -9.7691  -9.7024  -9.6976  -9.6115  -9.6113  -9.5884  -9.4423  -9.4395
    -9.4323  -9.4273  -9.4248  -9.3080  -9.1707  -9.1693  -8.8799  -8.8523
    -8.8507  -8.8119  -8.8069  -8.7671  -8.7667  -8.7528  -8.7526  -8.7504
    -8.6600  -8.6566  -8.6492  -8.6490  -8.6354  -8.5752  -8.5727  -8.4383
    -8.4351  -8.4330  -8.4294  -8.4192  -8.4181  -8.4175  -8.4045  -8.4027
    -8.4026  -8.4015  -8.4014  -8.3994  -8.2473  -8.2470  -8.2297  -8.1504
    -7.9401  -7.9399  -7.8999  -7.8207  -7.8016  -7.8013  -7.7817  -7.7567
    -7.7561  -7.7480  -7.7476  -7.7469  -7.6058  -7.3741  -7.3736  -7.0136
    -7.0104  -6.9938  -6.9935  -6.9767  -6.9601  -6.9600  -6.9596  -6.9569
    -6.9567  -6.9561  -6.8825  -6.8068  -6.8065  -6.7701  -6.7692  -6.7670
    -6.7654  -6.7646  -6.7640  -6.7559  -6.7554  -6.7548  -6.6385  -6.6243
    -6.6239  -6.1260  -5.7813  -5.7810  -5.7646  -5.7587  -5.7584  -5.5136
    -5.2975  -5.2928  -5.2925  -5.2772  -5.2771  -4.6862  -4.4516  -4.3837
    -3.2926  -3.2388  -3.2373  -3.2336  -3.2336  -3.1464  -2.9733  -2.9671
    -2.9667  -2.9362  -2.9358  -2.7959  -2.5648  -2.5643  -2.4877  -2.2174
    -2.2173  -2.2164  -2.1970  -2.1965  -2.1820  -2.1767  -2.1764  -2.1757
    -2.1519  -2.1517  -1.9021  -1.6323

     the Fermi energy is    -4.5756 ev

!    total energy              =   -2396.97200386 Ry
     estimated scf accuracy    <          5.8E-11 Ry
     smearing contrib. (-TS)   =      -0.00029582 Ry
     internal energy E=F+TS    =   -2396.97170804 Ry

     The total energy is F=E-TS. E is the sum of the following terms:
     one-electron contribution =  -27163.90836375 Ry
     hartree contribution      =   13655.93717305 Ry
     xc contribution           =    -852.90097540 Ry
     ewald contribution        =   11963.90045807 Ry

     convergence has been achieved in  15 iterations

     Forces acting on atoms (cartesian axes, Ry/au):

     atom    1 type  1   force =     0.00004405   -0.00000539   -0.00000001
     atom    2 type  1   force =    -0.00000185    0.00001849    0.00000001
     atom    3 type  1   force =     0.00002974   -0.00003368    0.00000000
     atom    4 type  1   force =    -0.00000070    0.00000117    0.00000002
     atom    5 type  1   force =     0.00001431   -0.00004260   -0.00000000
     atom    6 type  1   force =    -0.00001509    0.00001082   -0.00000001
     atom    7 type  1   force =    -0.00001738   -0.00004081    0.00000001
     atom    8 type  1   force =     0.00004706    0.00006208   -0.00000000
     atom    9 type  1   force =    -0.00002676   -0.00017515    0.00000000
     atom   10 type  1   force =     0.00029616    0.00009337   -0.00000001
     atom   11 type  1   force =    -0.00008459   -0.00002644    0.00000000
     atom   12 type  1   force =     0.00019656   -0.00051448    0.00000000
     atom   13 type  1   force =     0.00017636    0.00030089    0.00000000
     atom   14 type  1   force =    -0.00004089    0.00007087    0.00000001
     atom   15 type  1   force =    -0.00034879   -0.00000230    0.00000000
     atom   16 type  1   force =     0.00034728   -0.00042753    0.00000000
     atom   17 type  1   force =     0.00006520    0.00006006   -0.00000000
     atom   18 type  1   force =    -0.00022899   -0.00020985   -0.00000001
     atom   19 type  1   force =     0.00016511   -0.00006440    0.00000000
     atom   20 type  1   force =    -0.00007732   -0.00000969    0.00000000
     atom   21 type  1   force =     0.00002438   -0.00000519   -0.00000000
     atom   22 type  1   force =     0.00000514    0.00000102    0.00000000
     atom   23 type  1   force =     0.00000152   -0.00000260   -0.00000001
     atom   24 type  1   force =    -0.00000348   -0.00000397    0.00000000
     atom   25 type  1   force =    -0.00000765   -0.00002369    0.00000000
     atom   26 type  1   force =    -0.00007159    0.00003352    0.00000001
     atom   27 type  1   force =    -0.00001127   -0.00009631   -0.00000001
     atom   28 type  1   force =     0.00001875    0.00018679    0.00000000
     atom   29 type  1   force =     0.00030915   -0.00065330    0.00000001
     atom   30 type  1   force =     0.00143280   -0.00002794    0.00000001
     atom   31 type  1   force =    -0.00030953    0.00030778   -0.00000004
     atom   32 type  1   force =    -0.00019291   -0.00074751    0.00000002
     atom   33 type  1   force =    -0.00057289    0.00099212   -0.00000001
     atom   34 type  1   force =     0.00074392   -0.00020667   -0.00000002
     atom   35 type  1   force =    -0.00011184    0.00042195    0.00000002
     atom   36 type  1   force =    -0.00069222   -0.00125482   -0.00000001
     atom   37 type  1   force =     0.00041120   -0.00059437   -0.00000000
     atom   38 type  1   force =    -0.00017116    0.00007713   -0.00000002
     atom   39 type  1   force =     0.00008907   -0.00003839    0.00000001
     atom   40 type  1   force =     0.00000675    0.00007870   -0.00000001
     atom   41 type  1   force =    -0.00000122    0.00003671   -0.00000001
     atom   42 type  1   force =    -0.00000044    0.00000075   -0.00000001
     atom   43 type  1   force =    -0.00003114    0.00001940    0.00000000
     atom   44 type  1   force =    -0.00005309   -0.00004172   -0.00000001
     atom   45 type  1   force =     0.00006240    0.00000191   -0.00000001
     atom   46 type  1   force =    -0.00046508   -0.00004768   -0.00000001
     atom   47 type  1   force =     0.00036116   -0.00013596   -0.00000000
     atom   48 type  1   force =    -0.00072984    0.00199478   -0.00000000
     atom   49 type  1   force =     0.00304370   -0.00318472    0.00000002
     atom   50 type  1   force =     0.00861284   -0.00341851   -0.00000002
     atom   51 type  1   force =    -0.00627390    0.00289063   -0.00000003
     atom   52 type  1   force =     0.00583292   -0.01010279   -0.00000001
     atom   53 type  1   force =     0.00063355    0.00687857    0.00000001
     atom   54 type  1   force =    -0.00134595   -0.00916817   -0.00000000
     atom   55 type  1   force =     0.00123625   -0.00422828   -0.00000000
     atom   56 type  1   force =    -0.00136270    0.00162949   -0.00000001
     atom   57 type  1   force =    -0.00006279   -0.00038073    0.00000001
     atom   58 type  1   force =     0.00027382    0.00037895   -0.00000000
     atom   59 type  1   force =    -0.00003288   -0.00005307   -0.00000001
     atom   60 type  1   force =     0.00006266    0.00002509    0.00000001
     atom   61 type  1   force =    -0.00002470    0.00004278    0.00000000
     atom   62 type  1   force =     0.00005629   -0.00009077    0.00000000
     atom   63 type  1   force =    -0.00000002    0.00012116    0.00000000
     atom   64 type  1   force =     0.00003028   -0.00019638    0.00000002
     atom   65 type  1   force =     0.00035056    0.00019666   -0.00000001
     atom   66 type  1   force =    -0.00082333   -0.00213536    0.00000000
     atom   67 type  1   force =     0.00295052   -0.00011314    0.00000001
     atom   68 type  1   force =     0.01518601    0.00009589    0.00000001
     atom   69 type  1   force =     0.00250628    0.00099690    0.00000001
     atom   70 type  1   force =    -0.00611155   -0.00159366    0.00000004
     atom   71 type  1   force =    -0.00731286    0.01266704   -0.00000004
     atom   72 type  1   force =     0.00443585    0.00449609    0.00000004
     atom   73 type  1   force =    -0.00211635   -0.00167219   -0.00000006
     atom   74 type  1   force =    -0.00767619   -0.01310361   -0.00000000
     atom   75 type  1   force =    -0.00137720   -0.00261180    0.00000001
     atom   76 type  1   force =     0.00226093   -0.00035463   -0.00000001
     atom   77 type  1   force =    -0.00034560   -0.00020530   -0.00000001
     atom   78 type  1   force =     0.00015490   -0.00012439    0.00000000
     atom   79 type  1   force =    -0.00010488    0.00006060   -0.00000000
     atom   80 type  1   force =     0.00005042   -0.00009415   -0.00000000
     atom   81 type  1   force =    -0.00006157    0.00020192   -0.00000001
     atom   82 type  1   force =     0.00036833   -0.00011320   -0.00000000
     atom   83 type  1   force =     0.00032675    0.00075138    0.00000001
     atom   84 type  1   force =     0.00178979   -0.00002996    0.00000002
     atom   85 type  1   force =     0.00436863    0.00408182    0.00000001
     atom   86 type  1   force =     0.01002549    0.00410426   -0.00000000
     atom   87 type  1   force =     0.00329547    0.00038278   -0.00000006
     atom   88 type  1   force =    -0.00837641   -0.00505480   -0.00000002
     atom   89 type  1   force =    -0.00225246    0.00233539    0.00000000
     atom   90 type  1   force =    -0.00089632    0.00311815   -0.00000003
     atom   91 type  1   force =     0.00856578    0.00472678   -0.00000006
     atom   92 type  1   force =    -0.00197932   -0.00266265    0.00000001
     atom   93 type  1   force =    -0.00856696   -0.00663025    0.00000001
     atom   94 type  1   force =    -0.00571925   -0.00174242    0.00000000
     atom   95 type  1   force =    -0.00086895   -0.00156501    0.00000000
     atom   96 type  1   force =    -0.00081407    0.00009272   -0.00000000
     atom   97 type  1   force =    -0.00008615   -0.00037559    0.00000001
     atom   98 type  1   force =    -0.00014408    0.00015426   -0.00000000
     atom   99 type  1   force =     0.00004891   -0.00008472    0.00000002
     atom  100 type  1   force =    -0.00010744    0.00008128    0.00000001
     atom  101 type  1   force =     0.00025162    0.00047911    0.00000003
     atom  102 type  1   force =    -0.00040951   -0.00008075   -0.00000001
     atom  103 type  1   force =     0.00030322    0.00078855    0.00000002
     atom  104 type  1   force =    -0.00513926   -0.00061904   -0.00000002
     atom  105 type  1   force =     0.00611701    0.00987233   -0.00000000
     atom  106 type  1   force =    -0.00674089   -0.01006510    0.00000004
     atom  107 type  1   force =     0.00381445   -0.00543649   -0.00000002
     atom  108 type  1   force =     0.00010609   -0.00018287    0.00000003
     atom  109 type  1   force =     0.00280032   -0.00602185   -0.00000003
     atom  110 type  1   force =     0.01208680    0.00080565   -0.00000000
     atom  111 type  1   force =    -0.01160775   -0.00036126   -0.00000001
     atom  112 type  1   force =     0.00310560    0.00414120    0.00000002
     atom  113 type  1   force =    -0.00083451    0.00013161    0.00000000
     atom  114 type  1   force =     0.00027465    0.00031433   -0.00000001
     atom  115 type  1   force =    -0.00054067    0.00002168    0.00000001
     atom  116 type  1   force =    -0.00001665    0.00013368    0.00000001
     atom  117 type  1   force =    -0.00004018   -0.00003755   -0.00000001
     atom  118 type  1   force =    -0.00002079    0.00003598    0.00000001
     atom  119 type  1   force =     0.00005261    0.00001598    0.00000000
     atom  120 type  1   force =     0.00010366   -0.00034623   -0.00000002
     atom  121 type  1   force =     0.00002800    0.00001330    0.00000001
     atom  122 type  1   force =    -0.00062633   -0.00111997    0.00000000
     atom  123 type  1   force =     0.00067169    0.00093508    0.00000002
     atom  124 type  1   force =     0.00022391   -0.00455245   -0.00000003
     atom  125 type  1   force =    -0.00083934    0.00894207   -0.00000001
     atom  126 type  1   force =    -0.00176177    0.00021427   -0.00000000
     atom  127 type  1   force =    -0.00660731    0.01144385   -0.00000002
     atom  128 type  1   force =     0.00069545    0.00163314    0.00000000
     atom  129 type  1   force =    -0.00732420    0.00519777    0.00000003
     atom  130 type  1   force =     0.00383048   -0.00247014    0.00000004
     atom  131 type  1   force =    -0.00114556   -0.00011420   -0.00000001
     atom  132 type  1   force =     0.00128305   -0.00001758    0.00000002
     atom  133 type  1   force =    -0.00002547   -0.00001762    0.00000001
     atom  134 type  1   force =     0.00024799   -0.00026292    0.00000000
     atom  135 type  1   force =    -0.00010534   -0.00006407    0.00000000
     atom  136 type  1   force =     0.00006560   -0.00000575    0.00000001
     atom  137 type  1   force =    -0.00005500    0.00009528   -0.00000000
     atom  138 type  1   force =    -0.00002782   -0.00005968    0.00000001
     atom  139 type  1   force =     0.00010817    0.00005921    0.00000001
     atom  140 type  1   force =    -0.00036036   -0.00005095   -0.00000000
     atom  141 type  1   force =     0.00033293    0.00050229   -0.00000000
     atom  142 type  1   force =    -0.00007850   -0.00038006    0.00000000
     atom  143 type  1   force =    -0.00059683    0.00120754   -0.00000001
     atom  144 type  1   force =     0.00124369    0.00356896    0.00000002
     atom  145 type  1   force =    -0.00131718   -0.00149017   -0.00000001
     atom  146 type  1   force =    -0.00067577    0.00117048   -0.00000001
     atom  147 type  1   force =     0.00194907    0.00039552    0.00000000
     atom  148 type  1   force =    -0.00371268    0.00070752   -0.00000000
     atom  149 type  1   force =    -0.00074731    0.00112059    0.00000001
     atom  150 type  1   force =     0.00036835   -0.00012202   -0.00000001
     atom  151 type  1   force =    -0.00060151   -0.00003719    0.00000001
     atom  152 type  1   force =     0.00022426    0.00028662   -0.00000002
     atom  153 type  1   force =    -0.00007966    0.00005514   -0.00000001
     atom  154 type  1   force =     0.00000676   -0.00000989    0.00000000
     atom  155 type  1   force =     0.00010877    0.00000936    0.00000001
     atom  156 type  1   force =     0.00005226   -0.00009056   -0.00000001
     atom  157 type  1   force =    -0.00006244   -0.00008950    0.00000000
     atom  158 type  1   force =     0.00000513   -0.00001082   -0.00000001
     atom  159 type  1   force =    -0.00000786    0.00009654    0.00000000
     atom  160 type  1   force =     0.00008200   -0.00008221   -0.00000000
     atom  161 type  1   force =    -0.00021524    0.00024098   -0.00000000
     atom  162 type  1   force =     0.00038900    0.00051051    0.00000001
     atom  163 type  1   force =    -0.00016749    0.00000179   -0.00000001
     atom  164 type  1   force =    -0.00000337    0.00024147    0.00000001
     atom  165 type  1   force =     0.00020758   -0.00035953    0.00000001
     atom  166 type  1   force =    -0.00020744    0.00012363   -0.00000001
     atom  167 type  1   force =     0.00008217    0.00014591   -0.00000000
     atom  168 type  1   force =    -0.00063659   -0.00008162    0.00000000
     atom  169 type  1   force =    -0.00010113    0.00030687    0.00000001
     atom  170 type  1   force =     0.00003026   -0.00011214    0.00000001
     atom  171 type  1   force =    -0.00008661    0.00001907   -0.00000000
     atom  172 type  1   force =     0.00008082    0.00003785    0.00000001
     atom  173 type  1   force =    -0.00007056   -0.00008986    0.00000000
     atom  174 type  1   force =     0.00005684    0.00007227    0.00000001
     atom  175 type  1   force =    -0.00007076    0.00012258   -0.00000001
     atom  176 type  1   force =    -0.00009103   -0.00001309    0.00000000
     atom  177 type  1   force =     0.00011312    0.00001617   -0.00000000
     atom  178 type  1   force =    -0.00007322   -0.00005103   -0.00000001
     atom  179 type  1   force =     0.00002676    0.00008454    0.00000001
     atom  180 type  1   force =     0.00015499    0.00003112    0.00000000
     atom  181 type  1   force =    -0.00006827    0.00003613    0.00000001
     atom  182 type  1   force =     0.00011442   -0.00000519   -0.00000001
     atom  183 type  1   force =    -0.00002763   -0.00005332    0.00000002
     atom  184 type  1   force =    -0.00002378    0.00004123   -0.00000002
     atom  185 type  1   force =     0.00005993   -0.00000274    0.00000001
     atom  186 type  1   force =    -0.00005269   -0.00010168    0.00000002
     atom  187 type  1   force =     0.00000282    0.00007720   -0.00000002
     atom  188 type  1   force =    -0.00010441   -0.00011866    0.00000002
     atom  189 type  1   force =     0.00002288    0.00007357    0.00000001
     atom  190 type  1   force =    -0.00000375   -0.00002640   -0.00000001
     atom  191 type  1   force =     0.00003923   -0.00005311    0.00000000
     atom  192 type  1   force =     0.00001764    0.00006778    0.00000001
     atom  193 type  1   force =     0.00005653   -0.00001519   -0.00000000
     atom  194 type  1   force =     0.00001709   -0.00002964    0.00000001
     atom  195 type  1   force =    -0.00001508   -0.00005653    0.00000002
     atom  196 type  1   force =    -0.00006752    0.00001861   -0.00000001
     atom  197 type  1   force =     0.00002633   -0.00006054    0.00000000
     atom  198 type  1   force =     0.00002476   -0.00000994   -0.00000001
     atom  199 type  1   force =    -0.00007521    0.00001696    0.00000000

     Total force =     0.054317     Total SCF correction =     0.000011
     Energy error            =      8.5E-03 Ry
     Gradient error          =      1.5E-02 Ry/Bohr

     number of scf cycles    =   3
     number of bfgs steps    =   2

     energy             old  =   -2396.9634751901 Ry
     energy             new  =   -2396.9720038633 Ry

     CASE: energy            _new < energy            _old

     new trust radius        =       0.0137895972 bohr
     new conv_thr            =            1.0E-10 Ry


ATOMIC_POSITIONS (crystal)
C                0.0333335601        0.0333336264       -0.0000000005
C                0.0666661526        0.0666667891       -0.0000000003
C                0.0333362583        0.1333321738       -0.0000000013
C                0.0666683646        0.1666658173        0.0000000001
C                0.0333362584        0.2333315676        0.0000000005
C                0.0666661531        0.2666670574        0.0000000007
C                0.0333335607        0.3333328129        0.0000000003
C                0.0666669945        0.3666652202       -0.0000000003
C                0.0333374665        0.4333296876        0.0000000000
C                0.0666786066        0.4666660927        0.0000000001
C                0.0333356756        0.5333312278       -0.0000000003
C                0.0666695311        0.5666673089        0.0000000001
C                0.0333271343        0.6333426779       -0.0000000004
C                0.0666878903        0.6666560548       -0.0000000008
C                0.0333271342        0.7333301869       -0.0000000005
C                0.0666695317        0.7666631597       -0.0000000006
C                0.0333356756        0.8333330965        0.0000000011
C                0.0666786069        0.8666553002        0.0000000007
C                0.0333374663        0.9333328464       -0.0000000001
C                0.0666669934        0.9666677856        0.0000000001
C                0.1333322090        0.0333357904        0.0000000003
C                0.1666657904        0.0666686831        0.0000000013
C                0.1333334730        0.1333332633        0.0000000015
C                0.1666657906        0.1666655257        0.0000000008
C                0.1333322092        0.2333320005        0.0000000003
C                0.1666714223        0.2666627502       -0.0000000005
C                0.1333352930        0.3333302638       -0.0000000002
C                0.1666673009        0.3666677717       -0.0000000001
C                0.1333548883        0.4333213837       -0.0000000001
C                0.1667180098        0.4666750305        0.0000000006
C                0.1333358477        0.5333403403        0.0000000001
C                0.1666733588        0.5666651350       -0.0000000026
C                0.1332875946        0.6333562018       -0.0000000014
C                0.1666733593        0.6666615070       -0.0000000002
C                0.1333358477        0.7333238112       -0.0000000007
C                0.1667180106        0.7666069588       -0.0000000001
C                0.1333548879        0.8333237284        0.0000000010
C                0.1666673013        0.8666649270       -0.0000000008
C                0.1333352928        0.9333344434       -0.0000000005
C                0.1666714222        0.9666658267       -0.0000000005
C                0.2333315611        0.0333362696        0.0000000004
C                0.2666668817        0.0666665588        0.0000000003
C                0.2333315612        0.1333321694        0.0000000006
C                0.2666630397        0.1666719607        0.0000000010
C                0.2333274385        0.2333276915        0.0000000012
C                0.2666669059        0.2666655230        0.0000000000
C                0.2333338609        0.3333225156       -0.0000000006
C                0.2666735729        0.3666626636       -0.0000000007
C                0.2334913632        0.4332970181       -0.0000000010
C                0.2669957966        0.4667544824        0.0000000005
C                0.2331645328        0.5333821992       -0.0000000023
C                0.2665790915        0.5667104529       -0.0000000022
C                0.2331645351        0.6334532643       -0.0000000016
C                0.2669957984        0.6662497179       -0.0000000015
C                0.2334913643        0.7332116176       -0.0000000007
C                0.2666735718        0.7666637627       -0.0000000009
C                0.2333338608        0.8333436233       -0.0000000020
C                0.2666669056        0.8666675706       -0.0000000007
C                0.2333274380        0.9333448700        0.0000000006
C                0.2666630396        0.9666649992        0.0000000007
C                0.3333330339        0.0333334832        0.0000000004
C                0.3666657080        0.0666668587        0.0000000005
C                0.3333299228        0.1333359111       -0.0000000001
C                0.3666675988        0.1666685853       -0.0000000006
C                0.3333206837        0.2333349833        0.0000000004
C                0.3666626567        0.2666757095        0.0000000009
C                0.3332922838        0.3332884330       -0.0000000000
C                0.3668423235        0.3668523814        0.0000000013
C                0.3338200172        0.4333424682        0.0000000024
C                0.3674707990        0.4674435061       -0.0000000001
C                0.3324343620        0.5337828205       -0.0000000036
C                0.3674708038        0.5650856886       -0.0000000006
C                0.3338200209        0.6328375088       -0.0000000013
C                0.3668423260        0.6663052913       -0.0000000003
C                0.3332922848        0.7334192826       -0.0000000019
C                0.3666626566        0.7666616337       -0.0000000023
C                0.3333206841        0.8333443326        0.0000000003
C                0.3666675983        0.8666638160        0.0000000003
C                0.3333299228        0.9333341659        0.0000000005
C                0.3666657073        0.9666674337        0.0000000014
C                0.4333293248        0.0333377274        0.0000000004
C                0.4666673679        0.0666792940        0.0000000011
C                0.4333208763        0.1333579823        0.0000000001
C                0.4666795789        0.1667246769        0.0000000001
C                0.4332932539        0.2335338305        0.0000000006
C                0.4667464836        0.2670993024       -0.0000000000
C                0.4333071291        0.3340182505        0.0000000002
C                0.4672766744        0.3679332854        0.0000000012
C                0.4325826669        0.4332893294       -0.0000000003
C                0.4325826744        0.5341280032       -0.0000000009
C                0.4672766779        0.5647900435       -0.0000000000
C                0.4333071334        0.6326746191        0.0000000007
C                0.4667464859        0.6661542149        0.0000000003
C                0.4332932541        0.7331729151       -0.0000000006
C                0.4666795790        0.7665957439        0.0000000004
C                0.4333208765        0.8333211413       -0.0000000001
C                0.4666673680        0.8666533382       -0.0000000006
C                0.4333293247        0.9333329481        0.0000000007
C                0.4666688300        0.9666655852       -0.0000000004
C                0.5333306902        0.0333360698        0.0000000009
C                0.5666683274        0.0666696065       -0.0000000005
C                0.5333376941        0.1333378909       -0.0000000001
C                0.5666706716        0.1666796368       -0.0000000016
C                0.5333656075        0.2332187526       -0.0000000014
C                0.5666104210        0.2667384964       -0.0000000009
C                0.5336135986        0.3327238957       -0.0000000009
C                0.5652362234        0.3674461695       -0.0000000009
C                0.5351833229        0.4324083473        0.0000000003
C                0.5652362296        0.4673176090       -0.0000000001
C                0.5336135984        0.5336625101       -0.0000000020
C                0.5666104245        0.5666510859       -0.0000000003
C                0.5333656087        0.6334156375        0.0000000004
C                0.5666706730        0.6666496904       -0.0000000004
C                0.5333376932        0.7333244149       -0.0000000002
C                0.5666683270        0.7666620665        0.0000000002
C                0.5333306904        0.8333332399       -0.0000000006
C                0.5666636314        0.8666672164        0.0000000012
C                0.5333337725        0.9333331136        0.0000000010
C                0.5666636316        0.9666691522        0.0000000006
C                0.6333431091        0.0333254231        0.0000000013
C                0.6666555560        0.0666891039        0.0000000011
C                0.6333575117        0.1332839879       -0.0000000006
C                0.6666427368        0.1666887449       -0.0000000004
C                0.6333929630        0.2332190914       -0.0000000012
C                0.6662809072        0.2669679993        0.0000000002
C                0.6329802478        0.3337442786       -0.0000000001
C                0.6663869852        0.3668065060        0.0000000023
C                0.6329802492        0.4332754768        0.0000000027
C                0.6662809111        0.4667510925        0.0000000008
C                0.6333929622        0.5333879451       -0.0000000009
C                0.6666427376        0.5666685184       -0.0000000006
C                0.6333575124        0.6333584997       -0.0000000014
C                0.6666555567        0.6666553400       -0.0000000005
C                0.6333431089        0.7333314668        0.0000000008
C                0.6666684523        0.7666599477        0.0000000011
C                0.6333345526        0.8333311147        0.0000000011
C                0.6666671164        0.8666664421        0.0000000001
C                0.6333345526        0.9333343327       -0.0000000001
C                0.6666684524        0.9666716001        0.0000000004
C                0.7333308396        0.0333259843        0.0000000004
C                0.7666615798        0.0666706814        0.0000000006
C                0.7333227377        0.1333380192        0.0000000002
C                0.7666097332        0.1667155349        0.0000000009
C                0.7332304351        0.2334767214        0.0000000003
C                0.7666632295        0.2666761814       -0.0000000007
C                0.7334464647        0.3332767680       -0.0000000011
C                0.7666632304        0.3666605881       -0.0000000002
C                0.7332304338        0.4332928448       -0.0000000003
C                0.7666097337        0.4666747314        0.0000000000
C                0.7333227375        0.5333392429        0.0000000003
C                0.7666615799        0.5666677381        0.0000000008
C                0.7333308396        0.6333431754        0.0000000006
C                0.7666600997        0.6666684090        0.0000000007
C                0.7333365384        0.7333363688        0.0000000000
C                0.7666662699        0.7666664518       -0.0000000005
C                0.7333399681        0.8333300156       -0.0000000004
C                0.7666662699        0.8666672785        0.0000000005
C                0.7333365384        0.9333270922        0.0000000013
C                0.7666601000        0.9666714913        0.0000000007
C                0.8333332007        0.0333357757       -0.0000000001
C                0.8666548790        0.0666789058       -0.0000000000
C                0.8333244814        0.1333535864        0.0000000003
C                0.8666635926        0.1666688525        0.0000000008
C                0.8333459699        0.2333335288       -0.0000000000
C                0.8666672086        0.2666663955        0.0000000001
C                0.8333459699        0.3333205012        0.0000000008
C                0.8666635931        0.3666675542       -0.0000000000
C                0.8333244819        0.4333219319        0.0000000008
C                0.8666548794        0.4666662143       -0.0000000004
C                0.8333332018        0.5333310231        0.0000000004
C                0.8666671958        0.5666630463        0.0000000006
C                0.8333309071        0.6333348113       -0.0000000004
C                0.8666663386        0.6666670549       -0.0000000004
C                0.8333303845        0.7333396964        0.0000000008
C                0.8666668870        0.7666665566        0.0000000019
C                0.8333303845        0.8333299183        0.0000000003
C                0.8666663389        0.8666666065        0.0000000007
C                0.8333309067        0.9333342814        0.0000000014
C                0.8666671957        0.9666697575        0.0000000007
C                0.9333330824        0.0333371307       -0.0000000010
C                0.9666671684        0.0666675477       -0.0000000010
C                0.9333347383        0.1333353806       -0.0000000006
C                0.9666650453        0.1666719506       -0.0000000012
C                0.9333454069        0.2333272964       -0.0000000003
C                0.9666650454        0.2666630031        0.0000000003
C                0.9333347388        0.3333298807       -0.0000000006
C                0.9666671689        0.3666652830        0.0000000016
C                0.9333330829        0.4333297865        0.0000000001
C                0.9666655736        0.4666684294        0.0000000001
C                0.9333332101        0.5333336833        0.0000000006
C                0.9666696144        0.5666628787       -0.0000000007
C                0.9333348360        0.6333347337       -0.0000000011
C                0.9666708946        0.6666686010       -0.0000000006
C                0.9333278274        0.7333360859        0.0000000008
C                0.9666708942        0.7666605043        0.0000000007
C                0.9333348363        0.8333304295        0.0000000012
C                0.9666696141        0.8666675069        0.0000000005
C                0.9333332100        0.9333331067        0.0000000006
C                0.9666655731        0.9666659966       -0.0000000007



     Writing config-only to output data dir /home/gregb26/links/scratch/qe_tmp/vacancy_relaxed/series/10x10/nspin1/vac_10x10_relax_nspin1.save/ :
     XML data file
     NEW-OLD atomic charge density approx. for the potential

     negative rho (up, down):  3.685E-06 0.000E+00

     total cpu time spent up to now is      656.0 secs

     per-process dynamical memory:   457.3 Mb

     Self-consistent Calculation

     iteration #  1     ecut=   100.00 Ry     beta= 0.30
     Davidson diagonalization with overlap
     ethr =  1.00E-06,  avg # of iterations =  5.0

     negative rho (up, down):  2.408E-06 0.000E+00

     total cpu time spent up to now is      674.0 secs

     total energy              =   -2396.97292260 Ry
     estimated scf accuracy    <       0.00104204 Ry

     iteration #  2     ecut=   100.00 Ry     beta= 0.30
     Davidson diagonalization with overlap
     ethr =  1.31E-07,  avg # of iterations =  5.0

     negative rho (up, down):  1.835E-06 0.000E+00

     total cpu time spent up to now is      685.1 secs

     total energy              =   -2396.97292252 Ry
     estimated scf accuracy    <       0.00059545 Ry

     iteration #  3     ecut=   100.00 Ry     beta= 0.30
     Davidson diagonalization with overlap
     ethr =  7.48E-08,  avg # of iterations =  5.0

     negative rho (up, down):  1.093E-06 0.000E+00

     total cpu time spent up to now is      695.4 secs

     total energy              =   -2396.97293282 Ry
     estimated scf accuracy    <       0.00109357 Ry

     iteration #  4     ecut=   100.00 Ry     beta= 0.30
     Davidson diagonalization with overlap
     ethr =  7.48E-08,  avg # of iterations =  5.0

     negative rho (up, down):  6.987E-07 0.000E+00

     total cpu time spent up to now is      705.4 secs

     total energy              =   -2396.97300823 Ry
     estimated scf accuracy    <       0.00004654 Ry

     iteration #  5     ecut=   100.00 Ry     beta= 0.30
     Davidson diagonalization with overlap
     ethr =  5.85E-09,  avg # of iterations =  5.0

     negative rho (up, down):  2.960E-07 0.000E+00

     total cpu time spent up to now is      716.5 secs

     total energy              =   -2396.97301245 Ry
     estimated scf accuracy    <       0.00001532 Ry

     iteration #  6     ecut=   100.00 Ry     beta= 0.30
     Davidson diagonalization with overlap
     ethr =  1.92E-09,  avg # of iterations =  5.0

     negative rho (up, down):  9.785E-08 0.000E+00

     total cpu time spent up to now is      726.6 secs

     total energy              =   -2396.97301409 Ry
     estimated scf accuracy    <       0.00000199 Ry

     iteration #  7     ecut=   100.00 Ry     beta= 0.30
     Davidson diagonalization with overlap
     ethr =  2.50E-10,  avg # of iterations =  5.0

     negative rho (up, down):  4.812E-08 0.000E+00

     total cpu time spent up to now is      739.1 secs

     total energy              =   -2396.97301444 Ry
     estimated scf accuracy    <       0.00000042 Ry

     iteration #  8     ecut=   100.00 Ry     beta= 0.30
     Davidson diagonalization with overlap
     ethr =  5.33E-11,  avg # of iterations =  5.0

     total cpu time spent up to now is      749.9 secs

     total energy              =   -2396.97301448 Ry
     estimated scf accuracy    <       0.00000014 Ry

     iteration #  9     ecut=   100.00 Ry     beta= 0.30
     Davidson diagonalization with overlap
     ethr =  1.71E-11,  avg # of iterations =  4.0

     total cpu time spent up to now is      761.4 secs

     total energy              =   -2396.97301450 Ry
     estimated scf accuracy    <       0.00000002 Ry

     iteration # 10     ecut=   100.00 Ry     beta= 0.30
     Davidson diagonalization with overlap
     ethr =  2.09E-12,  avg # of iterations =  5.0

     total cpu time spent up to now is      773.7 secs

     total energy              =   -2396.97301450 Ry
     estimated scf accuracy    <          3.9E-09 Ry

     iteration # 11     ecut=   100.00 Ry     beta= 0.30
     Davidson diagonalization with overlap
     ethr =  4.89E-13,  avg # of iterations =  5.0

     total cpu time spent up to now is      786.0 secs

     total energy              =   -2396.97301450 Ry
     estimated scf accuracy    <          1.4E-09 Ry

     iteration # 12     ecut=   100.00 Ry     beta= 0.30
     Davidson diagonalization with overlap
     ethr =  1.80E-13,  avg # of iterations =  5.0

     total cpu time spent up to now is      796.3 secs

     total energy              =   -2396.97301450 Ry
     estimated scf accuracy    <          7.2E-10 Ry

     iteration # 13     ecut=   100.00 Ry     beta= 0.30
     Davidson diagonalization with overlap
     ethr =  1.00E-13,  avg # of iterations =  5.0

     total cpu time spent up to now is      806.6 secs

     total energy              =   -2396.97301450 Ry
     estimated scf accuracy    <          1.9E-10 Ry

     iteration # 14     ecut=   100.00 Ry     beta= 0.30
     Davidson diagonalization with overlap
     ethr =  1.00E-13,  avg # of iterations =  2.0

     total cpu time spent up to now is      816.2 secs

     End of self-consistent calculation

          k = 0.0000 0.0000 0.0000 (476289 PWs)   bands (ev):

   -23.7933 -23.5831 -23.5777 -23.5523 -23.5519 -23.5495 -23.5417 -23.1250
   -23.1186 -23.0939 -23.0938 -23.0865 -23.0391 -22.8817 -22.8780 -22.8613
   -22.8595 -22.8562 -22.7764 -22.2164 -22.2088 -22.1901 -22.1897 -22.1697
   -22.1591 -22.1540 -22.1535 -22.1511 -22.1498 -22.1498 -21.9934 -21.7162
   -21.7160 -21.7094 -21.7080 -21.7070 -21.5708 -21.0448 -21.0439 -21.0291
   -21.0213 -21.0191 -20.9486 -20.8248 -20.8244 -20.8129 -20.7978 -20.7959
   -20.7927 -20.7905 -20.7894 -20.7871 -20.7828 -20.7811 -20.5086 -20.1417
   -20.1414 -20.1396 -20.1158 -20.1146 -19.9736 -19.5242 -19.5237 -19.5055
   -19.4633 -19.4630 -19.4615 -19.4600 -19.4595 -19.4580 -19.4539 -19.4532
   -19.2874 -19.1046 -19.1017 -19.0835 -19.0670 -19.0585 -19.0573 -19.0534
   -19.0528 -19.0501 -19.0342 -19.0322 -18.7098 -18.5714 -18.5697 -18.3963
   -17.9893 -17.9756 -17.9739 -17.9549 -17.9548 -17.8908 -17.8583 -17.8494
   -17.8486 -17.8234 -17.8233 -17.6408 -17.5060 -17.5048 -17.3165 -16.9906
   -16.9903 -16.9875 -16.9346 -16.9337 -16.8598 -16.6824 -16.6807 -16.6805
   -16.6557 -16.6548 -16.6543 -16.6392 -16.6382 -16.6376 -16.5571 -16.5545
   -16.3647 -16.2018 -16.1435 -16.1425 -16.1275 -16.1265 -15.8479 -15.6448
   -15.6414 -15.6393 -15.5732 -15.5732 -15.4636 -15.2706 -15.2482 -15.2462
   -15.2400 -15.2389 -15.2287 -15.2207 -15.2201 -15.2197 -15.1334 -15.1326
   -14.6423 -14.4743 -14.4733 -14.4609 -14.4498 -14.4479 -14.4476 -14.3182
   -14.3074 -14.3041 -14.2709 -14.2669 -14.2661 -14.2650 -14.2645 -14.2640
   -14.1160 -14.1151 -13.6401 -13.2646 -13.2602 -13.2507 -13.2312 -13.2310
   -13.1748 -13.1681 -13.1409 -13.1408 -13.1039 -13.1019 -13.1002 -13.0769
   -13.0587 -13.0574 -12.9884 -12.9876 -12.9024 -12.8905 -12.8429 -12.8412
   -12.8343 -12.8338 -12.8247 -12.8206 -12.8198 -12.8172 -12.6053 -12.6038
   -12.1988 -11.8754 -11.8467 -11.8377 -11.8286 -11.8261 -11.7769 -11.7757
   -11.7653 -11.7641 -11.7565 -11.7469 -11.7458 -11.7454 -11.7412 -11.7411
   -11.7410 -11.6304 -11.6283 -11.6160 -11.6121 -11.5929 -11.5925 -11.5904
   -11.5631 -11.5008 -11.4552 -11.4140 -11.4135 -11.3858 -11.3841 -11.3810
   -11.3806 -11.3804 -11.3761 -11.2220 -11.2205 -11.0643 -11.0598 -11.0419
   -11.0419 -11.0376 -11.0061 -10.9949 -10.9815 -10.9540 -10.9495 -10.9211
   -10.9206 -10.9139 -10.9129 -10.9125 -10.8981 -10.7850 -10.7819 -10.7797
   -10.7784 -10.7665 -10.7650 -10.7638 -10.7303 -10.6756 -10.6691 -10.6685
   -10.6320 -10.5161 -10.5110 -10.5089 -10.4766 -10.4750 -10.4744 -10.4478
   -10.4309 -10.4298 -10.2568 -10.2541 -10.0824 -10.0805 -10.0431 -10.0409
    -9.9952  -9.9947  -9.9941  -9.9933  -9.9890  -9.9863  -9.9858  -9.9749
    -9.9695  -9.9694  -9.9547  -9.9465  -9.9428  -9.9424  -9.9408  -9.9392
    -9.9390  -9.8608  -9.8607  -9.8306  -9.8243  -9.8234  -9.8005  -9.7780
    -9.7743  -9.6963  -9.6941  -9.6094  -9.6088  -9.5831  -9.4398  -9.4378
    -9.4306  -9.4300  -9.4288  -9.2999  -9.1688  -9.1688  -8.8781  -8.8542
    -8.8517  -8.8148  -8.8003  -8.7670  -8.7667  -8.7510  -8.7504  -8.7466
    -8.6548  -8.6523  -8.6482  -8.6481  -8.6424  -8.5804  -8.5728  -8.4335
    -8.4306  -8.4257  -8.4248  -8.4206  -8.4201  -8.4194  -8.4089  -8.4036
    -8.4025  -8.4021  -8.3976  -8.3963  -8.2445  -8.2435  -8.2332  -8.1460
    -7.9405  -7.9401  -7.9073  -7.8158  -7.8052  -7.8036  -7.7759  -7.7568
    -7.7565  -7.7510  -7.7463  -7.7458  -7.5977  -7.3735  -7.3734  -7.0094
    -7.0076  -6.9927  -6.9920  -6.9871  -6.9622  -6.9586  -6.9586  -6.9575
    -6.9558  -6.9557  -6.8779  -6.8070  -6.8052  -6.7709  -6.7684  -6.7679
    -6.7662  -6.7630  -6.7625  -6.7568  -6.7564  -6.7558  -6.6378  -6.6246
    -6.6237  -6.1280  -5.7814  -5.7809  -5.7678  -5.7592  -5.7591  -5.5151
    -5.2979  -5.2943  -5.2941  -5.2770  -5.2770  -4.6780  -4.4562  -4.3878
    -3.2918  -3.2358  -3.2349  -3.2325  -3.2321  -3.1447  -2.9695  -2.9651
    -2.9641  -2.9362  -2.9359  -2.7952  -2.5650  -2.5639  -2.4885  -2.2170
    -2.2164  -2.2096  -2.2019  -2.2014  -2.1787  -2.1750  -2.1746  -2.1731
    -2.1525  -2.1519  -1.9062  -1.6236

     the Fermi energy is    -4.5708 ev

!    total energy              =   -2396.97301450 Ry
     estimated scf accuracy    <          7.3E-11 Ry
     smearing contrib. (-TS)   =      -0.00072258 Ry
     internal energy E=F+TS    =   -2396.97229192 Ry

     The total energy is F=E-TS. E is the sum of the following terms:
     one-electron contribution =  -27164.01871663 Ry
     hartree contribution      =   13656.00808435 Ry
     xc contribution           =    -852.90266947 Ry
     ewald contribution        =   11963.94100983 Ry

     convergence has been achieved in  14 iterations

     Forces acting on atoms (cartesian axes, Ry/au):

     atom    1 type  1   force =     0.00000883    0.00001711   -0.00000000
     atom    2 type  1   force =    -0.00000573   -0.00002113   -0.00000001
     atom    3 type  1   force =     0.00002114   -0.00000340    0.00000000
     atom    4 type  1   force =    -0.00000400    0.00000696    0.00000000
     atom    5 type  1   force =    -0.00000764   -0.00002002    0.00000000
     atom    6 type  1   force =     0.00002118   -0.00000557   -0.00000001
     atom    7 type  1   force =    -0.00001924    0.00000091    0.00000001
     atom    8 type  1   force =     0.00003748   -0.00011778    0.00000001
     atom    9 type  1   force =     0.00014700    0.00003550   -0.00000000
     atom   10 type  1   force =     0.00025733   -0.00040742    0.00000000
     atom   11 type  1   force =     0.00018646   -0.00004572    0.00000000
     atom   12 type  1   force =    -0.00005797    0.00041011   -0.00000001
     atom   13 type  1   force =    -0.00052581   -0.00013306    0.00000001
     atom   14 type  1   force =     0.00022115   -0.00038311    0.00000000
     atom   15 type  1   force =     0.00037818    0.00038885    0.00000001
     atom   16 type  1   force =    -0.00032624    0.00025529   -0.00000000
     atom   17 type  1   force =    -0.00005365   -0.00018437   -0.00000001
     atom   18 type  1   force =     0.00022418   -0.00042653    0.00000001
     atom   19 type  1   force =    -0.00010429   -0.00010957    0.00000000
     atom   20 type  1   force =     0.00008329   -0.00009137   -0.00000001
     atom   21 type  1   force =     0.00004034    0.00004512   -0.00000000
     atom   22 type  1   force =    -0.00002018   -0.00000515   -0.00000000
     atom   23 type  1   force =     0.00000102   -0.00000178   -0.00000000
     atom   24 type  1   force =     0.00001457    0.00001491   -0.00000000
     atom   25 type  1   force =    -0.00005927   -0.00001241    0.00000000
     atom   26 type  1   force =     0.00005513   -0.00001346    0.00000000
     atom   27 type  1   force =    -0.00008258    0.00008236    0.00000001
     atom   28 type  1   force =     0.00016890   -0.00030202    0.00000000
     atom   29 type  1   force =     0.00072028   -0.00014615   -0.00000001
     atom   30 type  1   force =     0.00232595   -0.00172503   -0.00000001
     atom   31 type  1   force =    -0.00044115   -0.00020173   -0.00000001
     atom   32 type  1   force =    -0.00126159    0.00123353    0.00000004
     atom   33 type  1   force =    -0.00021912    0.00037968    0.00000000
     atom   34 type  1   force =    -0.00043762    0.00170921   -0.00000001
     atom   35 type  1   force =     0.00039534    0.00028118    0.00000000
     atom   36 type  1   force =     0.00033092   -0.00287679   -0.00000000
     atom   37 type  1   force =    -0.00023359   -0.00069688   -0.00000002
     atom   38 type  1   force =     0.00017711   -0.00029725    0.00000001
     atom   39 type  1   force =    -0.00003007    0.00011267   -0.00000000
     atom   40 type  1   force =    -0.00001589   -0.00005444    0.00000001
     atom   41 type  1   force =     0.00000950    0.00001340   -0.00000000
     atom   42 type  1   force =     0.00000220   -0.00000375    0.00000001
     atom   43 type  1   force =    -0.00001640   -0.00000155    0.00000001
     atom   44 type  1   force =     0.00001116    0.00003816   -0.00000001
     atom   45 type  1   force =    -0.00035355   -0.00001728   -0.00000000
     atom   46 type  1   force =     0.00065675    0.00008306    0.00000001
     atom   47 type  1   force =    -0.00077890    0.00026959    0.00000001
     atom   48 type  1   force =     0.00259650   -0.00186456    0.00000001
     atom   49 type  1   force =     0.00398835   -0.00034322    0.00000001
     atom   50 type  1   force =    -0.00079230    0.00272355   -0.00000001
     atom   51 type  1   force =     0.00216709   -0.00250354   -0.00000001
     atom   52 type  1   force =    -0.00308039    0.00533541    0.00000001
     atom   53 type  1   force =     0.00108452   -0.00312843    0.00000000
     atom   54 type  1   force =    -0.00196251    0.00204784    0.00000000
     atom   55 type  1   force =    -0.00169699   -0.00362567   -0.00000001
     atom   56 type  1   force =     0.00031659   -0.00318098    0.00000000
     atom   57 type  1   force =     0.00015594    0.00080932    0.00000002
     atom   58 type  1   force =    -0.00040026   -0.00052723    0.00000002
     atom   59 type  1   force =     0.00019172    0.00029751   -0.00000000
     atom   60 type  1   force =    -0.00003862    0.00000943    0.00000001
     atom   61 type  1   force =     0.00000093   -0.00000163    0.00000001
     atom   62 type  1   force =     0.00002257    0.00016491   -0.00000000
     atom   63 type  1   force =    -0.00005779   -0.00012676   -0.00000000
     atom   64 type  1   force =     0.00014477    0.00034676    0.00000000
     atom   65 type  1   force =    -0.00069455   -0.00044866   -0.00000001
     atom   66 type  1   force =     0.00268813    0.00193416   -0.00000001
     atom   67 type  1   force =     0.00720244   -0.00002083    0.00000000
     atom   68 type  1   force =     0.00091903    0.00101192   -0.00000001
     atom   69 type  1   force =    -0.00180703   -0.00256878   -0.00000001
     atom   70 type  1   force =     0.00750831    0.00133492    0.00000001
     atom   71 type  1   force =     0.00061982   -0.00107380    0.00000003
     atom   72 type  1   force =    -0.00491006   -0.00583487    0.00000000
     atom   73 type  1   force =     0.00312823    0.00028047    0.00000000
     atom   74 type  1   force =    -0.00133585   -0.00029005   -0.00000000
     atom   75 type  1   force =    -0.00358327   -0.00624800   -0.00000000
     atom   76 type  1   force =    -0.00301913   -0.00136096    0.00000000
     atom   77 type  1   force =     0.00073580    0.00037720   -0.00000003
     atom   78 type  1   force =    -0.00037267    0.00004797   -0.00000001
     atom   79 type  1   force =     0.00013864   -0.00001333    0.00000001
     atom   80 type  1   force =    -0.00015409    0.00006289   -0.00000000
     atom   81 type  1   force =     0.00022632   -0.00005694   -0.00000000
     atom   82 type  1   force =     0.00023578    0.00049297   -0.00000001
     atom   83 type  1   force =     0.00101477    0.00021339   -0.00000000
     atom   84 type  1   force =     0.00281780    0.00253796    0.00000000
     atom   85 type  1   force =     0.00475690    0.00019735    0.00000000
     atom   86 type  1   force =    -0.00080792   -0.00176578   -0.00000000
     atom   87 type  1   force =    -0.00103431    0.00217567    0.00000002
     atom   88 type  1   force =     0.00762199    0.00086484   -0.00000003
     atom   89 type  1   force =    -0.00564054   -0.00112957   -0.00000001
     atom   90 type  1   force =     0.00379850    0.00431999    0.00000000
     atom   91 type  1   force =    -0.00456004   -0.00616840   -0.00000001
     atom   92 type  1   force =    -0.00136711    0.00198364    0.00000000
     atom   93 type  1   force =     0.00193301   -0.00018323    0.00000000
     atom   94 type  1   force =    -0.00254935   -0.00402089    0.00000000
     atom   95 type  1   force =    -0.00360681   -0.00117129   -0.00000002
     atom   96 type  1   force =    -0.00069218   -0.00077210   -0.00000001
     atom   97 type  1   force =    -0.00054480    0.00004231    0.00000001
     atom   98 type  1   force =    -0.00006384   -0.00022444    0.00000000
     atom   99 type  1   force =    -0.00006479    0.00011220    0.00000001
     atom  100 type  1   force =     0.00027660   -0.00000302   -0.00000001
     atom  101 type  1   force =    -0.00012497   -0.00040466    0.00000001
     atom  102 type  1   force =     0.00022139    0.00024026   -0.00000002
     atom  103 type  1   force =    -0.00102345   -0.00029362   -0.00000000
     atom  104 type  1   force =     0.00301891    0.00293457    0.00000000
     atom  105 type  1   force =    -0.00296638   -0.00475435   -0.00000001
     atom  106 type  1   force =     0.00065007   -0.00017032   -0.00000005
     atom  107 type  1   force =    -0.00236134    0.00599896   -0.00000001
     atom  108 type  1   force =     0.00227741   -0.00394488   -0.00000002
     atom  109 type  1   force =    -0.00401441    0.00504464    0.00000001
     atom  110 type  1   force =    -0.00017730   -0.00064820   -0.00000002
     atom  111 type  1   force =     0.00560031    0.00019176   -0.00000002
     atom  112 type  1   force =    -0.00405064   -0.00114706   -0.00000001
     atom  113 type  1   force =     0.00076602    0.00073958   -0.00000001
     atom  114 type  1   force =    -0.00031869   -0.00007166   -0.00000001
     atom  115 type  1   force =     0.00041293   -0.00009413    0.00000000
     atom  116 type  1   force =    -0.00013567   -0.00024103    0.00000001
     atom  117 type  1   force =     0.00001605   -0.00004071    0.00000000
     atom  118 type  1   force =     0.00001451   -0.00002511    0.00000000
     atom  119 type  1   force =     0.00002722   -0.00003425    0.00000000
     atom  120 type  1   force =    -0.00037094    0.00026498   -0.00000001
     atom  121 type  1   force =     0.00003700    0.00010106    0.00000000
     atom  122 type  1   force =     0.00002747    0.00015762    0.00000002
     atom  123 type  1   force =    -0.00018351   -0.00103397   -0.00000001
     atom  124 type  1   force =     0.00130647    0.00342936   -0.00000000
     atom  125 type  1   force =    -0.00191696   -0.00260709   -0.00000002
     atom  126 type  1   force =     0.00297670    0.00010211    0.00000001
     atom  127 type  1   force =     0.00001467   -0.00002497   -0.00000000
     atom  128 type  1   force =    -0.00157683   -0.00252707   -0.00000002
     atom  129 type  1   force =     0.00321622    0.00035673   -0.00000001
     atom  130 type  1   force =    -0.00362293    0.00058319    0.00000000
     atom  131 type  1   force =     0.00098717   -0.00035808    0.00000002
     atom  132 type  1   force =    -0.00015021    0.00005504    0.00000001
     atom  133 type  1   force =    -0.00010605    0.00001848    0.00000001
     atom  134 type  1   force =    -0.00004395    0.00045378   -0.00000000
     atom  135 type  1   force =     0.00002137   -0.00000503   -0.00000000
     atom  136 type  1   force =    -0.00008624    0.00003140    0.00000000
     atom  137 type  1   force =     0.00005098   -0.00008834   -0.00000000
     atom  138 type  1   force =     0.00001595    0.00009040   -0.00000001
     atom  139 type  1   force =    -0.00000634   -0.00002105   -0.00000001
     atom  140 type  1   force =     0.00038478   -0.00024608    0.00000001
     atom  141 type  1   force =    -0.00031908   -0.00024017   -0.00000002
     atom  142 type  1   force =     0.00030264    0.00035167    0.00000001
     atom  143 type  1   force =     0.00031300    0.00251707   -0.00000000
     atom  144 type  1   force =    -0.00180812    0.00357472    0.00000000
     atom  145 type  1   force =     0.00045488    0.00224075   -0.00000000
     atom  146 type  1   force =    -0.00316466    0.00548135    0.00000002
     atom  147 type  1   force =    -0.00216797    0.00072653    0.00000000
     atom  148 type  1   force =    -0.00219168    0.00335305    0.00000002
     atom  149 type  1   force =    -0.00233635    0.00098748   -0.00000000
     atom  150 type  1   force =    -0.00045585   -0.00008631   -0.00000001
     atom  151 type  1   force =     0.00036756    0.00015623   -0.00000000
     atom  152 type  1   force =     0.00002076   -0.00045627   -0.00000000
     atom  153 type  1   force =    -0.00003890    0.00000165    0.00000001
     atom  154 type  1   force =     0.00014312    0.00002182   -0.00000001
     atom  155 type  1   force =    -0.00007998   -0.00002388    0.00000001
     atom  156 type  1   force =    -0.00005487    0.00009509    0.00000000
     atom  157 type  1   force =     0.00006064    0.00005731    0.00000000
     atom  158 type  1   force =    -0.00009042   -0.00011302   -0.00000001
     atom  159 type  1   force =     0.00001797    0.00003452    0.00000001
     atom  160 type  1   force =    -0.00006777    0.00026342    0.00000000
     atom  161 type  1   force =     0.00023332    0.00034693   -0.00000001
     atom  162 type  1   force =    -0.00021485    0.00066838    0.00000001
     atom  163 type  1   force =     0.00020068    0.00015952   -0.00000001
     atom  164 type  1   force =     0.00005739   -0.00074690    0.00000000
     atom  165 type  1   force =    -0.00027664    0.00047917    0.00000001
     atom  166 type  1   force =     0.00061814   -0.00042317    0.00000000
     atom  167 type  1   force =    -0.00023848   -0.00009401    0.00000000
     atom  168 type  1   force =    -0.00047144    0.00052024   -0.00000001
     atom  169 type  1   force =    -0.00041707   -0.00002860    0.00000000
     atom  170 type  1   force =    -0.00019430    0.00019040    0.00000000
     atom  171 type  1   force =     0.00005307    0.00006888   -0.00000000
     atom  172 type  1   force =    -0.00009326   -0.00005867   -0.00000000
     atom  173 type  1   force =     0.00006391    0.00005771    0.00000000
     atom  174 type  1   force =    -0.00006007   -0.00004715    0.00000000
     atom  175 type  1   force =     0.00007217   -0.00012506   -0.00000000
     atom  176 type  1   force =     0.00007091    0.00002847    0.00000001
     atom  177 type  1   force =    -0.00008198   -0.00002650    0.00000001
     atom  178 type  1   force =     0.00009746    0.00005142   -0.00000002
     atom  179 type  1   force =    -0.00008617   -0.00001149    0.00000001
     atom  180 type  1   force =    -0.00010015    0.00015368    0.00000000
     atom  181 type  1   force =     0.00008358    0.00005508    0.00000000
     atom  182 type  1   force =    -0.00007783   -0.00004749   -0.00000000
     atom  183 type  1   force =     0.00003540    0.00001667    0.00000000
     atom  184 type  1   force =     0.00016674   -0.00028885   -0.00000001
     atom  185 type  1   force =    -0.00003210   -0.00002231   -0.00000000
     atom  186 type  1   force =     0.00008001    0.00004364    0.00000002
     atom  187 type  1   force =    -0.00008947   -0.00004483   -0.00000002
     atom  188 type  1   force =    -0.00008304    0.00016354   -0.00000000
     atom  189 type  1   force =    -0.00002796   -0.00009908    0.00000000
     atom  190 type  1   force =    -0.00001798    0.00000964   -0.00000000
     atom  191 type  1   force =     0.00005858    0.00007004    0.00000001
     atom  192 type  1   force =    -0.00005394   -0.00007920   -0.00000000
     atom  193 type  1   force =     0.00008326   -0.00009932    0.00000001
     atom  194 type  1   force =    -0.00011476    0.00019880    0.00000003
     atom  195 type  1   force =     0.00004437   -0.00012180   -0.00000000
     atom  196 type  1   force =     0.00009557    0.00000713   -0.00000000
     atom  197 type  1   force =    -0.00008995   -0.00001573    0.00000002
     atom  198 type  1   force =     0.00000060    0.00002038   -0.00000001
     atom  199 type  1   force =     0.00009981   -0.00002532    0.00000000

     Total force =     0.032879     Total SCF correction =     0.000014
     Energy error            =      1.0E-03 Ry
     Gradient error          =      7.6E-03 Ry/Bohr

     number of scf cycles    =   4
     number of bfgs steps    =   3

     energy             old  =   -2396.9720038633 Ry
     energy             new  =   -2396.9730145045 Ry

     CASE: energy            _new < energy            _old

     new trust radius        =       0.0062283414 bohr
     new conv_thr            =            7.6E-11 Ry


ATOMIC_POSITIONS (crystal)
C                0.0333334166        0.0333340425       -0.0000000007
C                0.0666663782        0.0666664612       -0.0000000005
C                0.0333367353        0.1333322403       -0.0000000012
C                0.0666683373        0.1666658311        0.0000000002
C                0.0333367356        0.2333310238        0.0000000006
C                0.0666663785        0.2666671601        0.0000000004
C                0.0333334172        0.3333325401        0.0000000006
C                0.0666692511        0.3666637360       -0.0000000001
C                0.0333390208        0.4333311005       -0.0000000001
C                0.0666886289        0.4666625281        0.0000000001
C                0.0333383683        0.5333319250       -0.0000000003
C                0.0666642920        0.5666722401       -0.0000000001
C                0.0333240122        0.6333369686       -0.0000000001
C                0.0666947532        0.6666526229       -0.0000000007
C                0.0333240123        0.7333390188       -0.0000000002
C                0.0666642918        0.7666634673       -0.0000000007
C                0.0333383685        0.8333297062        0.0000000009
C                0.0666886289        0.8666488426        0.0000000009
C                0.0333390206        0.9333298784       -0.0000000000
C                0.0666692506        0.9666670130       -0.0000000001
C                0.1333318971        0.0333369726        0.0000000001
C                0.1666656536        0.0666685331        0.0000000013
C                0.1333335110        0.1333332442        0.0000000014
C                0.1666656538        0.1666658128        0.0000000008
C                0.1333318976        0.2333311296        0.0000000004
C                0.1666718918        0.2666629224       -0.0000000004
C                0.1333335000        0.3333304068       -0.0000000001
C                0.1666736580        0.3666647165        0.0000000000
C                0.1333684083        0.4333245805       -0.0000000003
C                0.1667754262        0.4666703666        0.0000000005
C                0.1333335786        0.5333334532       -0.0000000004
C                0.1666390154        0.5666725651       -0.0000000015
C                0.1332756461        0.6333621771       -0.0000000014
C                0.1666390164        0.6666884173       -0.0000000006
C                0.1333335791        0.7333329678       -0.0000000004
C                0.1667754260        0.7665542067       -0.0000000002
C                0.1333684081        0.8333070109        0.0000000006
C                0.1666736579        0.8666616255       -0.0000000008
C                0.1333334998        0.9333360927       -0.0000000005
C                0.1666718914        0.9666651855       -0.0000000002
C                0.2333312543        0.0333367840        0.0000000003
C                0.2666669263        0.0666665369        0.0000000004
C                0.2333312545        0.1333319611        0.0000000008
C                0.2666624816        0.1666724592        0.0000000006
C                0.2333244504        0.2333241267        0.0000000011
C                0.2666709229        0.2666718037        0.0000000002
C                0.2333227855        0.3333198287       -0.0000000004
C                0.2667218917        0.3666618799       -0.0000000003
C                0.2335591209        0.4333266323       -0.0000000006
C                0.2669857448        0.4667943606        0.0000000000
C                0.2332049315        0.5333607315       -0.0000000027
C                0.2664818824        0.5667590577       -0.0000000020
C                0.2332049319        0.6334343338       -0.0000000015
C                0.2669857481        0.6662198899       -0.0000000014
C                0.2335591224        0.7331142443       -0.0000000011
C                0.2667218923        0.7666162273       -0.0000000009
C                0.2333227853        0.8333573852       -0.0000000015
C                0.2666709230        0.8666572733       -0.0000000003
C                0.2333244502        0.9333514221        0.0000000005
C                0.2666624813        0.9666650590        0.0000000009
C                0.3333329654        0.0333335173        0.0000000007
C                0.3666634354        0.0666696519        0.0000000005
C                0.3333309474        0.1333337718       -0.0000000001
C                0.3666635492        0.1666755649       -0.0000000004
C                0.3333213984        0.2333218459        0.0000000001
C                0.3666621015        0.2667255913        0.0000000006
C                0.3333703536        0.3333646965        0.0000000001
C                0.3668703212        0.3669141484        0.0000000010
C                0.3338617603        0.4333120834        0.0000000023
C                0.3674962606        0.4675255934        0.0000000003
C                0.3324096656        0.5337951680       -0.0000000031
C                0.3674962660        0.5649781429       -0.0000000003
C                0.3338617668        0.6328261497       -0.0000000017
C                0.3668703259        0.6662155243       -0.0000000004
C                0.3333703554        0.7332649470       -0.0000000020
C                0.3666621020        0.7666123058       -0.0000000023
C                0.3333213982        0.8333567555       -0.0000000005
C                0.3666635493        0.8666608855        0.0000000001
C                0.3333309472        0.9333352804        0.0000000007
C                0.3666634350        0.9666669130        0.0000000014
C                0.4333316832        0.0333397041        0.0000000003
C                0.4666624080        0.0666907016        0.0000000010
C                0.4333255572        0.1333760310        0.0000000002
C                0.4666670251        0.1668015595        0.0000000004
C                0.4333323032        0.2336142109        0.0000000008
C                0.4667688110        0.2671163266       -0.0000000001
C                0.4332860584        0.3340714242        0.0000000003
C                0.4673397265        0.3679723901        0.0000000003
C                0.4325292734        0.4332033025       -0.0000000004
C                0.4325292827        0.5342674210       -0.0000000010
C                0.4673397283        0.5646878867       -0.0000000006
C                0.4332860612        0.6326425159        0.0000000008
C                0.4667688125        0.6661148616        0.0000000005
C                0.4333323030        0.7330534863       -0.0000000005
C                0.4666670255        0.7665314156        0.0000000000
C                0.4333255572        0.8332984122       -0.0000000005
C                0.4666624080        0.8666468907       -0.0000000002
C                0.4333316829        0.9333286133        0.0000000008
C                0.4666666445        0.9666666778        0.0000000001
C                0.5333328245        0.0333390046        0.0000000007
C                0.5666726939        0.0666639000        0.0000000000
C                0.5333354796        0.1333433550       -0.0000000006
C                0.5666651075        0.1666658594       -0.0000000015
C                0.5333392863        0.2332864060       -0.0000000015
C                0.5666463258        0.2666608408       -0.0000000013
C                0.5336407066        0.3326908380       -0.0000000019
C                0.5651518032        0.3674934472       -0.0000000013
C                0.5352875119        0.4323562514       -0.0000000001
C                0.5651518076        0.4673547548       -0.0000000000
C                0.5336407078        0.5336684623       -0.0000000026
C                0.5666463277        0.5666928349       -0.0000000011
C                0.5333392880        0.6333743089        0.0000000004
C                0.5666651084        0.6666690325       -0.0000000006
C                0.5333354802        0.7333211652       -0.0000000006
C                0.5666726939        0.7666634061        0.0000000003
C                0.5333328246        0.8333281714       -0.0000000002
C                0.5666644413        0.8666665545        0.0000000012
C                0.5333342918        0.9333328541        0.0000000011
C                0.5666644414        0.9666690042        0.0000000007
C                0.6333367887        0.0333255467        0.0000000009
C                0.6666548992        0.0666899856        0.0000000012
C                0.6333573802        0.1332826933       -0.0000000001
C                0.6666569616        0.1666717487       -0.0000000006
C                0.6333599583        0.2332760005       -0.0000000015
C                0.6662635173        0.2669483186       -0.0000000005
C                0.6329722645        0.3337851476        0.0000000003
C                0.6663283264        0.3668358384        0.0000000022
C                0.6329722688        0.4332425880        0.0000000023
C                0.6662635192        0.4667881649        0.0000000008
C                0.6333599604        0.5333640417       -0.0000000007
C                0.6666569629        0.5666712890       -0.0000000001
C                0.6333573809        0.6333599262       -0.0000000009
C                0.6666548998        0.6666551148       -0.0000000002
C                0.6333367883        0.7333376648        0.0000000008
C                0.6666689910        0.7666595344        0.0000000010
C                0.6333333427        0.8333308353        0.0000000013
C                0.6666687007        0.8666656498        0.0000000001
C                0.6333333425        0.9333358225       -0.0000000003
C                0.6666689913        0.9666714742        0.0000000003
C                0.7333375096        0.0333250497        0.0000000008
C                0.7666612844        0.0666661366        0.0000000002
C                0.7333201116        0.1333458564        0.0000000005
C                0.7665634435        0.1667665266        0.0000000009
C                0.7331361622        0.2335396599        0.0000000005
C                0.7666326560        0.2667102658       -0.0000000008
C                0.7333165247        0.3333417380       -0.0000000008
C                0.7666326558        0.3666570786       -0.0000000002
C                0.7331361643        0.4333241770        0.0000000002
C                0.7665634441        0.4666700293       -0.0000000000
C                0.7333201125        0.5333340310        0.0000000000
C                0.7666612851        0.5666725781        0.0000000008
C                0.7333375100        0.6333374403        0.0000000004
C                0.7666592756        0.6666683704        0.0000000008
C                0.7333376009        0.7333380426       -0.0000000003
C                0.7666661424        0.7666656112       -0.0000000001
C                0.7333383574        0.8333308214       -0.0000000004
C                0.7666661424        0.8666682461        0.0000000006
C                0.7333376009        0.9333243563        0.0000000009
C                0.7666592755        0.9666723536        0.0000000009
C                0.8333284773        0.0333396348        0.0000000000
C                0.8666497588        0.0666877899       -0.0000000003
C                0.8333087037        0.1333664391        0.0000000006
C                0.8666625006        0.1666734755        0.0000000004
C                0.8333584977        0.2333220897        0.0000000002
C                0.8666588120        0.2666705939        0.0000000003
C                0.8333584982        0.3333194121        0.0000000008
C                0.8666625009        0.3666640235        0.0000000001
C                0.8333087043        0.4333248563        0.0000000006
C                0.8666497595        0.4666624505       -0.0000000002
C                0.8333284780        0.5333318869        0.0000000005
C                0.8666663802        0.5666644955        0.0000000005
C                0.8333309034        0.6333332475       -0.0000000003
C                0.8666661076        0.6666682608       -0.0000000002
C                0.8333304378        0.7333387481        0.0000000009
C                0.8666689527        0.7666655234        0.0000000018
C                0.8333304379        0.8333308141        0.0000000006
C                0.8666661076        0.8666656311        0.0000000011
C                0.8333309033        0.9333358489        0.0000000008
C                0.8666663797        0.9666691244        0.0000000010
C                0.9333295281        0.0333393041       -0.0000000010
C                0.9666669305        0.0666693147       -0.0000000009
C                0.9333350731        0.1333341334       -0.0000000007
C                0.9666653354        0.1666722858       -0.0000000010
C                0.9333515702        0.2333242145       -0.0000000007
C                0.9666653357        0.2666623782        0.0000000003
C                0.9333350736        0.3333307926       -0.0000000000
C                0.9666669309        0.3666637543        0.0000000010
C                0.9333295290        0.4333311667        0.0000000001
C                0.9666667642        0.4666667517        0.0000000002
C                0.9333329076        0.5333336620        0.0000000005
C                0.9666693148        0.5666644044       -0.0000000005
C                0.9333355687        0.6333331679       -0.0000000011
C                0.9666732921        0.6666680803       -0.0000000004
C                0.9333236240        0.7333381878        0.0000000016
C                0.9666732920        0.7666586269        0.0000000008
C                0.9333355687        0.8333312631        0.0000000010
C                0.9666693148        0.8666662803        0.0000000010
C                0.9333329072        0.9333334300        0.0000000003
C                0.9666667638        0.9666664840       -0.0000000006



     Writing config-only to output data dir /home/gregb26/links/scratch/qe_tmp/vacancy_relaxed/series/10x10/nspin1/vac_10x10_relax_nspin1.save/ :
     XML data file
     NEW-OLD atomic charge density approx. for the potential

     negative rho (up, down):  1.531E-06 0.000E+00

     total cpu time spent up to now is      821.6 secs

     per-process dynamical memory:   458.2 Mb

     Self-consistent Calculation

     iteration #  1     ecut=   100.00 Ry     beta= 0.30
     Davidson diagonalization with overlap
     ethr =  1.00E-06,  avg # of iterations =  5.0

     Threshold (ethr) on eigenvalues was too large:
     Diagonalizing with lowered threshold

     Davidson diagonalization with overlap
     ethr =  1.22E-08,  avg # of iterations =  6.0

     negative rho (up, down):  9.993E-07 0.000E+00

     total cpu time spent up to now is      852.6 secs

     total energy              =   -2396.97346981 Ry
     estimated scf accuracy    <       0.00013372 Ry

     iteration #  2     ecut=   100.00 Ry     beta= 0.30
     Davidson diagonalization with overlap
     ethr =  1.68E-08,  avg # of iterations =  4.0

     negative rho (up, down):  8.215E-07 0.000E+00

     total cpu time spent up to now is      863.1 secs

     total energy              =   -2396.97346281 Ry
     estimated scf accuracy    <       0.00013433 Ry

     iteration #  3     ecut=   100.00 Ry     beta= 0.30
     Davidson diagonalization with overlap
     ethr =  1.68E-08,  avg # of iterations =  5.0

     negative rho (up, down):  3.934E-07 0.000E+00

     total cpu time spent up to now is      872.9 secs

     total energy              =   -2396.97347416 Ry
     estimated scf accuracy    <       0.00007200 Ry

     iteration #  4     ecut=   100.00 Ry     beta= 0.30
     Davidson diagonalization with overlap
     ethr =  9.05E-09,  avg # of iterations =  2.0

     negative rho (up, down):  1.739E-07 0.000E+00

     total cpu time spent up to now is      882.6 secs

     total energy              =   -2396.97347892 Ry
     estimated scf accuracy    <       0.00000387 Ry

     iteration #  5     ecut=   100.00 Ry     beta= 0.30
     Davidson diagonalization with overlap
     ethr =  4.86E-10,  avg # of iterations =  5.0

     negative rho (up, down):  4.986E-08 0.000E+00

     total cpu time spent up to now is      895.2 secs

     total energy              =   -2396.97347935 Ry
     estimated scf accuracy    <       0.00000134 Ry

     iteration #  6     ecut=   100.00 Ry     beta= 0.30
     Davidson diagonalization with overlap
     ethr =  1.68E-10,  avg # of iterations =  5.0

     negative rho (up, down):  1.525E-08 0.000E+00

     total cpu time spent up to now is      906.5 secs

     total energy              =   -2396.97347957 Ry
     estimated scf accuracy    <       0.00000025 Ry

     iteration #  7     ecut=   100.00 Ry     beta= 0.30
     Davidson diagonalization with overlap
     ethr =  3.13E-11,  avg # of iterations =  5.0

     total cpu time spent up to now is      917.1 secs

     total energy              =   -2396.97347959 Ry
     estimated scf accuracy    <       0.00000007 Ry

     iteration #  8     ecut=   100.00 Ry     beta= 0.30
     Davidson diagonalization with overlap
     ethr =  8.34E-12,  avg # of iterations =  5.0

     total cpu time spent up to now is      928.3 secs

     total energy              =   -2396.97347960 Ry
     estimated scf accuracy    <       0.00000002 Ry

     iteration #  9     ecut=   100.00 Ry     beta= 0.30
     Davidson diagonalization with overlap
     ethr =  2.44E-12,  avg # of iterations =  5.0

     total cpu time spent up to now is      942.2 secs

     total energy              =   -2396.97347960 Ry
     estimated scf accuracy    <       0.00000001 Ry

     iteration # 10     ecut=   100.00 Ry     beta= 0.30
     Davidson diagonalization with overlap
     ethr =  1.32E-12,  avg # of iterations =  3.0

     total cpu time spent up to now is      954.2 secs

     total energy              =   -2396.97347960 Ry
     estimated scf accuracy    <          5.7E-10 Ry

     iteration # 11     ecut=   100.00 Ry     beta= 0.30
     Davidson diagonalization with overlap
     ethr =  1.00E-13,  avg # of iterations =  5.0

     total cpu time spent up to now is      967.3 secs

     total energy              =   -2396.97347960 Ry
     estimated scf accuracy    <          4.7E-10 Ry

     iteration # 12     ecut=   100.00 Ry     beta= 0.30
     Davidson diagonalization with overlap
     ethr =  1.00E-13,  avg # of iterations =  3.0

     total cpu time spent up to now is      977.1 secs

     total energy              =   -2396.97347960 Ry
     estimated scf accuracy    <          1.1E-10 Ry

     iteration # 13     ecut=   100.00 Ry     beta= 0.30
     Davidson diagonalization with overlap
     ethr =  1.00E-13,  avg # of iterations =  2.0

     total cpu time spent up to now is      986.8 secs

     End of self-consistent calculation

          k = 0.0000 0.0000 0.0000 (476289 PWs)   bands (ev):

   -23.7938 -23.5841 -23.5782 -23.5514 -23.5511 -23.5499 -23.5448 -23.1279
   -23.1215 -23.0938 -23.0934 -23.0848 -23.0393 -22.8822 -22.8786 -22.8620
   -22.8600 -22.8546 -22.7773 -22.2181 -22.2104 -22.1914 -22.1909 -22.1721
   -22.1597 -22.1531 -22.1527 -22.1502 -22.1480 -22.1478 -21.9962 -21.7163
   -21.7158 -21.7120 -21.7083 -21.7075 -21.5710 -21.0478 -21.0468 -21.0281
   -21.0224 -21.0204 -20.9480 -20.8253 -20.8250 -20.8152 -20.7984 -20.7970
   -20.7951 -20.7904 -20.7894 -20.7842 -20.7828 -20.7809 -20.5105 -20.1422
   -20.1418 -20.1403 -20.1158 -20.1146 -19.9770 -19.5272 -19.5271 -19.5060
   -19.4661 -19.4643 -19.4620 -19.4595 -19.4585 -19.4569 -19.4531 -19.4525
   -19.2872 -19.1071 -19.1048 -19.0843 -19.0628 -19.0587 -19.0568 -19.0534
   -19.0533 -19.0500 -19.0354 -19.0335 -18.7090 -18.5714 -18.5699 -18.4009
   -17.9928 -17.9758 -17.9743 -17.9543 -17.9539 -17.8901 -17.8578 -17.8487
   -17.8485 -17.8240 -17.8238 -17.6458 -17.5063 -17.5053 -17.3153 -16.9925
   -16.9924 -16.9889 -16.9344 -16.9337 -16.8587 -16.6832 -16.6829 -16.6812
   -16.6559 -16.6555 -16.6542 -16.6391 -16.6376 -16.6371 -16.5584 -16.5558
   -16.3664 -16.2019 -16.1432 -16.1417 -16.1280 -16.1277 -15.8470 -15.6475
   -15.6428 -15.6409 -15.5735 -15.5732 -15.4613 -15.2729 -15.2486 -15.2460
   -15.2417 -15.2412 -15.2299 -15.2212 -15.2207 -15.2202 -15.1331 -15.1322
   -14.6401 -14.4764 -14.4756 -14.4605 -14.4493 -14.4483 -14.4483 -14.3211
   -14.3103 -14.3074 -14.2740 -14.2660 -14.2659 -14.2656 -14.2644 -14.2623
   -14.1143 -14.1136 -13.6381 -13.2662 -13.2618 -13.2544 -13.2319 -13.2316
   -13.1736 -13.1688 -13.1417 -13.1416 -13.1055 -13.1033 -13.1007 -13.0795
   -13.0600 -13.0587 -12.9867 -12.9857 -12.9027 -12.8940 -12.8430 -12.8417
   -12.8331 -12.8325 -12.8263 -12.8201 -12.8195 -12.8165 -12.6060 -12.6049
   -12.1954 -11.8755 -11.8514 -11.8432 -11.8325 -11.8315 -11.7797 -11.7784
   -11.7660 -11.7648 -11.7555 -11.7472 -11.7451 -11.7450 -11.7407 -11.7406
   -11.7405 -11.6298 -11.6269 -11.6164 -11.6122 -11.5921 -11.5917 -11.5899
   -11.5667 -11.5056 -11.4583 -11.4133 -11.4124 -11.3854 -11.3835 -11.3811
   -11.3792 -11.3792 -11.3755 -11.2226 -11.2209 -11.0665 -11.0620 -11.0416
   -11.0413 -11.0361 -11.0100 -10.9921 -10.9818 -10.9576 -10.9533 -10.9206
   -10.9197 -10.9169 -10.9131 -10.9121 -10.8959 -10.7856 -10.7825 -10.7796
   -10.7778 -10.7670 -10.7654 -10.7624 -10.7294 -10.6765 -10.6720 -10.6713
   -10.6316 -10.5172 -10.5128 -10.5107 -10.4778 -10.4759 -10.4737 -10.4479
   -10.4301 -10.4296 -10.2595 -10.2567 -10.0875 -10.0813 -10.0410 -10.0389
    -9.9965  -9.9951  -9.9949  -9.9925  -9.9899  -9.9865  -9.9861  -9.9729
    -9.9708  -9.9705  -9.9564  -9.9468  -9.9420  -9.9417  -9.9401  -9.9376
    -9.9375  -9.8599  -9.8596  -9.8312  -9.8255  -9.8245  -9.7977  -9.7809
    -9.7715  -9.7013  -9.6988  -9.6105  -9.6102  -9.5826  -9.4407  -9.4386
    -9.4320  -9.4299  -9.4286  -9.3004  -9.1691  -9.1684  -8.8825  -8.8542
    -8.8524  -8.8128  -8.8021  -8.7667  -8.7666  -8.7510  -8.7508  -8.7480
    -8.6564  -8.6539  -8.6501  -8.6500  -8.6413  -8.5724  -8.5697  -8.4360
    -8.4329  -8.4301  -8.4280  -8.4221  -8.4205  -8.4197  -8.4076  -8.4029
    -8.4020  -8.4000  -8.3977  -8.3963  -8.2450  -8.2447  -8.2317  -8.1480
    -7.9406  -7.9402  -7.8891  -7.8173  -7.8039  -7.8035  -7.7776  -7.7568
    -7.7567  -7.7514  -7.7463  -7.7458  -7.6001  -7.3735  -7.3734  -7.0128
    -7.0107  -6.9942  -6.9940  -6.9866  -6.9613  -6.9586  -6.9584  -6.9560
    -6.9556  -6.9553  -6.8784  -6.8090  -6.8078  -6.7684  -6.7680  -6.7679
    -6.7656  -6.7638  -6.7633  -6.7563  -6.7559  -6.7548  -6.6373  -6.6240
    -6.6232  -6.1293  -5.7814  -5.7810  -5.7689  -5.7585  -5.7585  -5.5142
    -5.2985  -5.2935  -5.2934  -5.2775  -5.2774  -4.6792  -4.4496  -4.3808
    -3.2915  -3.2372  -3.2357  -3.2321  -3.2319  -3.1460  -2.9701  -2.9661
    -2.9654  -2.9364  -2.9361  -2.7942  -2.5651  -2.5643  -2.4877  -2.2168
    -2.2163  -2.2137  -2.2004  -2.2002  -2.1791  -2.1751  -2.1745  -2.1741
    -2.1522  -2.1514  -1.9049  -1.6263

     the Fermi energy is    -4.5698 ev

!    total energy              =   -2396.97347960 Ry
     estimated scf accuracy    <          4.4E-11 Ry
     smearing contrib. (-TS)   =      -0.00045313 Ry
     internal energy E=F+TS    =   -2396.97302647 Ry

     The total energy is F=E-TS. E is the sum of the following terms:
     one-electron contribution =  -27164.04162677 Ry
     hartree contribution      =   13656.00969091 Ry
     xc contribution           =    -852.90794307 Ry
     ewald contribution        =   11963.96685246 Ry

     convergence has been achieved in  13 iterations

     Forces acting on atoms (cartesian axes, Ry/au):

     atom    1 type  1   force =    -0.00000818   -0.00001360   -0.00000000
     atom    2 type  1   force =     0.00002597    0.00000345   -0.00000001
     atom    3 type  1   force =    -0.00000940   -0.00001841    0.00000001
     atom    4 type  1   force =     0.00001001   -0.00001734   -0.00000002
     atom    5 type  1   force =     0.00002065   -0.00000106   -0.00000000
     atom    6 type  1   force =    -0.00001597   -0.00002076   -0.00000000
     atom    7 type  1   force =     0.00001587    0.00000030   -0.00000001
     atom    8 type  1   force =    -0.00000013    0.00001591    0.00000000
     atom    9 type  1   force =     0.00018306   -0.00012671    0.00000001
     atom   10 type  1   force =     0.00046242   -0.00030149    0.00000001
     atom   11 type  1   force =     0.00006130    0.00001101    0.00000001
     atom   12 type  1   force =    -0.00046082    0.00006486   -0.00000001
     atom   13 type  1   force =     0.00015986   -0.00005401    0.00000000
     atom   14 type  1   force =    -0.00027656    0.00047907    0.00000000
     atom   15 type  1   force =    -0.00003316   -0.00016545    0.00000001
     atom   16 type  1   force =     0.00017428    0.00043149    0.00000002
     atom   17 type  1   force =    -0.00004018   -0.00004758    0.00000002
     atom   18 type  1   force =     0.00002990   -0.00055122   -0.00000002
     atom   19 type  1   force =     0.00001821   -0.00022189   -0.00000000
     atom   20 type  1   force =    -0.00001370    0.00000804   -0.00000000
     atom   21 type  1   force =    -0.00001601    0.00001334    0.00000000
     atom   22 type  1   force =     0.00001518    0.00001354   -0.00000001
     atom   23 type  1   force =    -0.00000166    0.00000288   -0.00000002
     atom   24 type  1   force =    -0.00001933   -0.00000638    0.00000001
     atom   25 type  1   force =    -0.00000356    0.00002056   -0.00000000
     atom   26 type  1   force =    -0.00006332   -0.00000505    0.00000001
     atom   27 type  1   force =     0.00007919   -0.00002717   -0.00000001
     atom   28 type  1   force =     0.00012340    0.00017190   -0.00000001
     atom   29 type  1   force =     0.00146473   -0.00061190    0.00000002
     atom   30 type  1   force =     0.00097138   -0.00115463   -0.00000001
     atom   31 type  1   force =    -0.00001226   -0.00016358   -0.00000000
     atom   32 type  1   force =     0.00009279   -0.00045930    0.00000001
     atom   33 type  1   force =    -0.00002049    0.00003552   -0.00000001
     atom   34 type  1   force =     0.00035145   -0.00030995   -0.00000002
     atom   35 type  1   force =     0.00014780   -0.00007123   -0.00000002
     atom   36 type  1   force =     0.00051431   -0.00141866    0.00000003
     atom   37 type  1   force =    -0.00020242   -0.00157446   -0.00000000
     atom   38 type  1   force =    -0.00021058   -0.00002096    0.00000002
     atom   39 type  1   force =    -0.00001606   -0.00008215   -0.00000000
     atom   40 type  1   force =     0.00003604    0.00005230    0.00000000
     atom   41 type  1   force =     0.00001184    0.00000572    0.00000001
     atom   42 type  1   force =    -0.00000520    0.00000898    0.00000000
     atom   43 type  1   force =    -0.00001088   -0.00000738    0.00000000
     atom   44 type  1   force =    -0.00005282   -0.00002787   -0.00000000
     atom   45 type  1   force =     0.00016124    0.00001594   -0.00000001
     atom   46 type  1   force =    -0.00011722   -0.00004702    0.00000001
     atom   47 type  1   force =     0.00168533   -0.00045059   -0.00000002
     atom   48 type  1   force =     0.00298652   -0.00127444   -0.00000001
     atom   49 type  1   force =     0.00068533   -0.00015190   -0.00000001
     atom   50 type  1   force =     0.00066986   -0.00064351   -0.00000000
     atom   51 type  1   force =     0.00051708    0.00164618   -0.00000000
     atom   52 type  1   force =    -0.00066821    0.00115745   -0.00000000
     atom   53 type  1   force =    -0.00168403    0.00037528    0.00000001
     atom   54 type  1   force =     0.00022245   -0.00090190   -0.00000002
     atom   55 type  1   force =    -0.00021110   -0.00066959    0.00000002
     atom   56 type  1   force =    -0.00038953   -0.00322378    0.00000003
     atom   57 type  1   force =    -0.00045244   -0.00168490    0.00000001
     atom   58 type  1   force =     0.00009929    0.00007796   -0.00000002
     atom   59 type  1   force =    -0.00009440   -0.00013165    0.00000000
     atom   60 type  1   force =     0.00005055    0.00003180   -0.00000000
     atom   61 type  1   force =    -0.00000366    0.00000633    0.00000001
     atom   62 type  1   force =     0.00002966   -0.00002256    0.00000000
     atom   63 type  1   force =     0.00004742    0.00004209    0.00000001
     atom   64 type  1   force =     0.00019056   -0.00025305   -0.00000002
     atom   65 type  1   force =     0.00177574    0.00048265    0.00000002
     atom   66 type  1   force =     0.00328299    0.00116091   -0.00000003
     atom   67 type  1   force =     0.00181837    0.00019716    0.00000002
     atom   68 type  1   force =     0.00064397   -0.00003181    0.00000001
     atom   69 type  1   force =     0.00112458    0.00135904   -0.00000001
     atom   70 type  1   force =     0.00201021    0.00047235   -0.00000001
     atom   71 type  1   force =    -0.00000930    0.00001627    0.00000002
     atom   72 type  1   force =    -0.00141398   -0.00150498   -0.00000004
     atom   73 type  1   force =    -0.00173927   -0.00029434   -0.00000001
     atom   74 type  1   force =    -0.00029430   -0.00057351   -0.00000006
     atom   75 type  1   force =    -0.00108002   -0.00147632    0.00000004
     atom   76 type  1   force =    -0.00264689   -0.00226270   -0.00000001
     atom   77 type  1   force =    -0.00130588   -0.00129658   -0.00000001
     atom   78 type  1   force =     0.00012384   -0.00029157   -0.00000001
     atom   79 type  1   force =    -0.00006015   -0.00002002    0.00000000
     atom   80 type  1   force =     0.00000470   -0.00003698   -0.00000000
     atom   81 type  1   force =     0.00019561    0.00016876    0.00000000
     atom   82 type  1   force =     0.00064477    0.00036913   -0.00000000
     atom   83 type  1   force =     0.00174895    0.00080717   -0.00000002
     atom   84 type  1   force =     0.00147700    0.00129839    0.00000000
     atom   85 type  1   force =     0.00079455    0.00047741    0.00000001
     atom   86 type  1   force =     0.00111335    0.00084649    0.00000000
     atom   87 type  1   force =     0.00075120   -0.00049760    0.00000001
     atom   88 type  1   force =     0.00255505    0.00004174    0.00000000
     atom   89 type  1   force =    -0.00157071   -0.00078131   -0.00000002
     atom   90 type  1   force =     0.00146187    0.00096943    0.00000001
     atom   91 type  1   force =    -0.00131386   -0.00219201   -0.00000002
     atom   92 type  1   force =     0.00005531   -0.00089943    0.00000002
     atom   93 type  1   force =    -0.00128979   -0.00054087    0.00000003
     atom   94 type  1   force =    -0.00081080   -0.00044952    0.00000003
     atom   95 type  1   force =    -0.00186303   -0.00062997    0.00000001
     atom   96 type  1   force =    -0.00157351   -0.00111111   -0.00000000
     atom   97 type  1   force =    -0.00064208   -0.00037383    0.00000001
     atom   98 type  1   force =    -0.00024397   -0.00008505   -0.00000001
     atom   99 type  1   force =     0.00002001   -0.00003468    0.00000001
     atom  100 type  1   force =     0.00004717    0.00003426   -0.00000000
     atom  101 type  1   force =    -0.00019257    0.00012510    0.00000001
     atom  102 type  1   force =     0.00021897    0.00053321    0.00000002
     atom  103 type  1   force =     0.00061910    0.00109548   -0.00000001
     atom  104 type  1   force =     0.00045474   -0.00117830   -0.00000000
     atom  105 type  1   force =    -0.00034019   -0.00106392   -0.00000000
     atom  106 type  1   force =     0.00078569   -0.00001460   -0.00000002
     atom  107 type  1   force =    -0.00127861    0.00145502    0.00000001
     atom  108 type  1   force =     0.00016763   -0.00029039    0.00000001
     atom  109 type  1   force =    -0.00062067    0.00183500   -0.00000000
     atom  110 type  1   force =    -0.00038034   -0.00068775    0.00000003
     atom  111 type  1   force =     0.00109146   -0.00023730   -0.00000000
     atom  112 type  1   force =     0.00079295   -0.00098295   -0.00000003
     atom  113 type  1   force =    -0.00125827    0.00001165    0.00000001
     atom  114 type  1   force =    -0.00057130    0.00007697    0.00000000
     atom  115 type  1   force =    -0.00001203    0.00022933   -0.00000000
     atom  116 type  1   force =    -0.00005330   -0.00002373    0.00000000
     atom  117 type  1   force =    -0.00008469    0.00004397    0.00000000
     atom  118 type  1   force =    -0.00000182    0.00000315   -0.00000001
     atom  119 type  1   force =     0.00000426    0.00009533   -0.00000000
     atom  120 type  1   force =     0.00007431    0.00000560   -0.00000000
     atom  121 type  1   force =    -0.00010438   -0.00012537    0.00000000
     atom  122 type  1   force =     0.00001105    0.00034429   -0.00000000
     atom  123 type  1   force =     0.00046390    0.00083173   -0.00000001
     atom  124 type  1   force =    -0.00130574   -0.00056995    0.00000002
     atom  125 type  1   force =     0.00015933    0.00109379    0.00000001
     atom  126 type  1   force =    -0.00074122    0.00025770   -0.00000004
     atom  127 type  1   force =    -0.00008748    0.00015156   -0.00000004
     atom  128 type  1   force =     0.00014753    0.00077102   -0.00000000
     atom  129 type  1   force =    -0.00102686    0.00040891    0.00000002
     atom  130 type  1   force =     0.00114643    0.00084588    0.00000001
     atom  131 type  1   force =    -0.00095227    0.00001418   -0.00000003
     atom  132 type  1   force =    -0.00030366    0.00016260   -0.00000000
     atom  133 type  1   force =     0.00016072    0.00002772    0.00000001
     atom  134 type  1   force =    -0.00004200   -0.00006155    0.00000001
     atom  135 type  1   force =     0.00008065    0.00008772    0.00000000
     atom  136 type  1   force =     0.00001038   -0.00006622    0.00000000
     atom  137 type  1   force =    -0.00001360    0.00002356   -0.00000000
     atom  138 type  1   force =     0.00005215   -0.00004212    0.00000001
     atom  139 type  1   force =    -0.00011629   -0.00002598    0.00000001
     atom  140 type  1   force =    -0.00002678    0.00008143    0.00000000
     atom  141 type  1   force =     0.00019289   -0.00009266    0.00000002
     atom  142 type  1   force =     0.00011824    0.00030618    0.00000000
     atom  143 type  1   force =     0.00036674    0.00141909   -0.00000002
     atom  144 type  1   force =    -0.00012047    0.00031131   -0.00000000
     atom  145 type  1   force =    -0.00044444    0.00284363   -0.00000001
     atom  146 type  1   force =    -0.00049901    0.00086434    0.00000001
     atom  147 type  1   force =    -0.00224043    0.00180668    0.00000002
     atom  148 type  1   force =    -0.00020935    0.00026011   -0.00000002
     atom  149 type  1   force =    -0.00141230    0.00039195   -0.00000002
     atom  150 type  1   force =    -0.00032425    0.00005072   -0.00000000
     atom  151 type  1   force =    -0.00001619   -0.00021336   -0.00000001
     atom  152 type  1   force =    -0.00005713    0.00006390   -0.00000000
     atom  153 type  1   force =     0.00009244   -0.00007675   -0.00000000
     atom  154 type  1   force =    -0.00004450   -0.00000793    0.00000001
     atom  155 type  1   force =     0.00001594    0.00001132    0.00000000
     atom  156 type  1   force =    -0.00000123    0.00000213   -0.00000000
     atom  157 type  1   force =    -0.00001777   -0.00000817    0.00000000
     atom  158 type  1   force =     0.00002911    0.00003456    0.00000001
     atom  159 type  1   force =     0.00002026   -0.00011844   -0.00000000
     atom  160 type  1   force =    -0.00003835    0.00008657    0.00000001
     atom  161 type  1   force =     0.00002464    0.00053652   -0.00000001
     atom  162 type  1   force =    -0.00015599    0.00137079   -0.00000001
     atom  163 type  1   force =    -0.00023049   -0.00004757    0.00000001
     atom  164 type  1   force =    -0.00031196    0.00126736   -0.00000001
     atom  165 type  1   force =     0.00007584   -0.00013134    0.00000000
     atom  166 type  1   force =    -0.00094158    0.00090387    0.00000002
     atom  167 type  1   force =     0.00015645    0.00017583   -0.00000001
     atom  168 type  1   force =    -0.00110913    0.00082052   -0.00000000
     atom  169 type  1   force =    -0.00047696    0.00024693   -0.00000001
     atom  170 type  1   force =    -0.00005579    0.00007653   -0.00000000
     atom  171 type  1   force =    -0.00009835   -0.00004883   -0.00000000
     atom  172 type  1   force =     0.00000683    0.00006175   -0.00000000
     atom  173 type  1   force =    -0.00001885   -0.00000491    0.00000000
     atom  174 type  1   force =     0.00000322   -0.00002836   -0.00000001
     atom  175 type  1   force =    -0.00002489    0.00004314    0.00000000
     atom  176 type  1   force =     0.00002293   -0.00001698    0.00000000
     atom  177 type  1   force =     0.00001370    0.00001388    0.00000000
     atom  178 type  1   force =    -0.00005689    0.00002495    0.00000001
     atom  179 type  1   force =     0.00009147    0.00006072   -0.00000001
     atom  180 type  1   force =     0.00002632    0.00017603    0.00000000
     atom  181 type  1   force =    -0.00002217    0.00001359    0.00000001
     atom  182 type  1   force =     0.00000364    0.00003417    0.00000000
     atom  183 type  1   force =     0.00001802   -0.00005070    0.00000001
     atom  184 type  1   force =    -0.00006131    0.00010622   -0.00000000
     atom  185 type  1   force =     0.00003490   -0.00004095    0.00000000
     atom  186 type  1   force =    -0.00003140    0.00001394    0.00000002
     atom  187 type  1   force =    -0.00000069    0.00002599    0.00000001
     atom  188 type  1   force =    -0.00016560    0.00006526    0.00000000
     atom  189 type  1   force =    -0.00000067    0.00001098    0.00000000
     atom  190 type  1   force =     0.00001612    0.00001515    0.00000001
     atom  191 type  1   force =    -0.00004259   -0.00008381    0.00000001
     atom  192 type  1   force =     0.00007450    0.00002197    0.00000000
     atom  193 type  1   force =    -0.00014909    0.00008779   -0.00000000
     atom  194 type  1   force =     0.00004925   -0.00008531   -0.00000001
     atom  195 type  1   force =    -0.00000146    0.00017300    0.00000001
     atom  196 type  1   force =    -0.00005626   -0.00005353   -0.00000000
     atom  197 type  1   force =     0.00009388   -0.00000503    0.00000001
     atom  198 type  1   force =    -0.00002115   -0.00000639    0.00000000
     atom  199 type  1   force =    -0.00000918    0.00000606   -0.00000000

     Total force =     0.014312     Total SCF correction =     0.000012
     Energy error            =      4.7E-04 Ry
     Gradient error          =      3.3E-03 Ry/Bohr

     number of scf cycles    =   5
     number of bfgs steps    =   4

     energy             old  =   -2396.9730145045 Ry
     energy             new  =   -2396.9734796036 Ry

     CASE: energy            _new < energy            _old

     new trust radius        =       0.0054270566 bohr
     new conv_thr            =            3.3E-11 Ry


ATOMIC_POSITIONS (crystal)
C                0.0333336349        0.0333336992       -0.0000000010
C                0.0666667593        0.0666669016       -0.0000000009
C                0.0333374073        0.1333315405       -0.0000000008
C                0.0666690711        0.1666654643       -0.0000000005
C                0.0333374077        0.2333310516        0.0000000005
C                0.0666667596        0.2666663388        0.0000000001
C                0.0333336350        0.3333326658        0.0000000006
C                0.0666696434        0.3666636381        0.0000000001
C                0.0333466375        0.4333307660        0.0000000002
C                0.0667091933        0.4666604901        0.0000000006
C                0.0333402059        0.5333333453        0.0000000001
C                0.0666538299        0.5666677802       -0.0000000004
C                0.0333268903        0.6333366454        0.0000000002
C                0.0666782836        0.6666608584       -0.0000000005
C                0.0333268903        0.7333364640        0.0000000003
C                0.0666538306        0.7666783892        0.0000000002
C                0.0333402059        0.8333264484        0.0000000016
C                0.0667091936        0.8666303161       -0.0000000001
C                0.0333466373        0.9333225963       -0.0000000001
C                0.0666696441        0.9666667180       -0.0000000002
C                0.1333311497        0.0333375759        0.0000000001
C                0.1666654429        0.0666691962        0.0000000010
C                0.1333334140        0.1333332929        0.0000000005
C                0.1666654430        0.1666653601        0.0000000011
C                0.1333311497        0.2333312738        0.0000000003
C                0.1666710537        0.2666617095        0.0000000003
C                0.1333350794        0.3333307672       -0.0000000003
C                0.1666731427        0.3666706018       -0.0000000002
C                0.1334174372        0.4333318916        0.0000000005
C                0.1668501501        0.4666522836       -0.0000000001
C                0.1333365773        0.5333263202       -0.0000000009
C                0.1666391195        0.5666636618       -0.0000000007
C                0.1332680356        0.6333659830       -0.0000000017
C                0.1666391205        0.6666972181       -0.0000000020
C                0.1333365798        0.7333371005       -0.0000000012
C                0.1668501536        0.7664975638        0.0000000010
C                0.1334174378        0.8332506705        0.0000000003
C                0.1666731436        0.8666562541       -0.0000000002
C                0.1333350789        0.9333341531       -0.0000000007
C                0.1666710538        0.9666672364        0.0000000001
C                0.2333310738        0.0333374549        0.0000000006
C                0.2666665790        0.0666667103        0.0000000005
C                0.2333310737        0.1333314707        0.0000000009
C                0.2666621549        0.1666708908        0.0000000002
C                0.2333255388        0.2333259014        0.0000000008
C                0.2666714354        0.2666702401        0.0000000005
C                0.2333595494        0.3333338269       -0.0000000013
C                0.2668226817        0.3666768579       -0.0000000007
C                0.2336134070        0.4333437469       -0.0000000008
C                0.2670344100        0.4668032540       -0.0000000003
C                0.2331711741        0.5334081474       -0.0000000031
C                0.2664063505        0.5667968249       -0.0000000021
C                0.2331711765        0.6334206777       -0.0000000011
C                0.2670344162        0.6661623311       -0.0000000023
C                0.2336134123        0.7330428397       -0.0000000005
C                0.2668226876        0.7665004551        0.0000000005
C                0.2333595511        0.8333066212       -0.0000000009
C                0.2666714364        0.8666583226       -0.0000000011
C                0.2333255386        0.9333485595        0.0000000005
C                0.2666621549        0.9666669538        0.0000000009
C                0.3333326613        0.0333336692        0.0000000014
C                0.3666637845        0.0666704993        0.0000000006
C                0.3333306472        0.1333352009        0.0000000004
C                0.3666724566        0.1666741522       -0.0000000009
C                0.3333370716        0.2333602642        0.0000000008
C                0.3666855627        0.2668284428       -0.0000000009
C                0.3334289078        0.3334332359        0.0000000011
C                0.3669108851        0.3669658957        0.0000000015
C                0.3338690121        0.4333746231        0.0000000021
C                0.3675146655        0.4676016472       -0.0000000001
C                0.3323751226        0.5338124421       -0.0000000021
C                0.3675146821        0.5648836814       -0.0000000017
C                0.3338690181        0.6327563587       -0.0000000023
C                0.3669108904        0.6661232164       -0.0000000031
C                0.3334289127        0.7331378467       -0.0000000000
C                0.3666855631        0.7664859923       -0.0000000026
C                0.3333370730        0.8333026616       -0.0000000014
C                0.3666724570        0.8666533898       -0.0000000005
C                0.3333306472        0.9333341516        0.0000000008
C                0.3666637845        0.9666657158        0.0000000013
C                0.4333306353        0.0333488990        0.0000000004
C                0.4666610251        0.0667168314        0.0000000008
C                0.4333324534        0.1334373762       -0.0000000006
C                0.4666505759        0.1668969081        0.0000000006
C                0.4333453790        0.2336884482        0.0000000014
C                0.4667714814        0.2671950160        0.0000000001
C                0.4333189305        0.3341077356        0.0000000008
C                0.4674095590        0.3680106319        0.0000000002
C                0.4324933041        0.4331090643       -0.0000000012
C                0.4324933178        0.5343976193       -0.0000000008
C                0.4674095607        0.5645798055       -0.0000000022
C                0.4333189347        0.6325733297        0.0000000018
C                0.4667714803        0.6660335028        0.0000000019
C                0.4333453811        0.7329661684        0.0000000009
C                0.4666505765        0.7664525136        0.0000000004
C                0.4333324549        0.8332301692       -0.0000000009
C                0.4666610247        0.8666221436        0.0000000006
C                0.4333306354        0.9333204656        0.0000000005
C                0.4666672604        0.9666663694        0.0000000007
C                0.5333331580        0.0333420901        0.0000000005
C                0.5666670885        0.0666631591        0.0000000010
C                0.5333228939        0.1333640647       -0.0000000001
C                0.5666418293        0.1667021901       -0.0000000018
C                0.5333676139        0.2332814652       -0.0000000019
C                0.5666788854        0.2666068543       -0.0000000017
C                0.5336734454        0.3326731462       -0.0000000032
C                0.5650709874        0.3675183345       -0.0000000011
C                0.5353552655        0.4323223738        0.0000000003
C                0.5650709877        0.4674106912       -0.0000000002
C                0.5336734448        0.5336534140       -0.0000000015
C                0.5666788853        0.5667142628       -0.0000000016
C                0.5333676130        0.6333509218       -0.0000000010
C                0.5666418280        0.6666559822       -0.0000000003
C                0.5333228942        0.7333130405       -0.0000000007
C                0.5666670888        0.7666697531        0.0000000003
C                0.5333331577        0.8333247518        0.0000000001
C                0.5666620703        0.8666661066        0.0000000012
C                0.5333343738        0.9333328132        0.0000000010
C                0.5666620703        0.9666718230        0.0000000007
C                0.6333362603        0.0333266526        0.0000000006
C                0.6666568712        0.0666843879        0.0000000013
C                0.6333487489        0.1332902170        0.0000000000
C                0.6666457791        0.1666972332       -0.0000000009
C                0.6333469138        0.2332541465       -0.0000000009
C                0.6662057218        0.2669971233       -0.0000000005
C                0.6329277711        0.3338042968       -0.0000000015
C                0.6662704636        0.3668647715        0.0000000004
C                0.6329277706        0.4332679402        0.0000000021
C                0.6662057243        0.4667971573        0.0000000017
C                0.6333469150        0.5333989415        0.0000000001
C                0.6666457787        0.5666569881       -0.0000000013
C                0.6333487495        0.6333610352       -0.0000000007
C                0.6666568707        0.6666587401        0.0000000004
C                0.6333362601        0.7333370877        0.0000000012
C                0.6666681795        0.7666629219        0.0000000011
C                0.6333350076        0.8333290003        0.0000000015
C                0.6666682493        0.8666658754       -0.0000000000
C                0.6333350079        0.9333359918       -0.0000000001
C                0.6666681799        0.9666688981        0.0000000008
C                0.7333366980        0.0333263479        0.0000000010
C                0.7666663852        0.0666661247        0.0000000006
C                0.7333122990        0.1333592306        0.0000000007
C                0.7665071977        0.1668361864       -0.0000000002
C                0.7330794357        0.2335818616        0.0000000004
C                0.7665334106        0.2667937969       -0.0000000014
C                0.7332296927        0.3333851544       -0.0000000003
C                0.7665334111        0.3666727925        0.0000000006
C                0.7330794355        0.4333387051       -0.0000000004
C                0.7665071987        0.4666566161       -0.0000000011
C                0.7333122997        0.5333284705       -0.0000000003
C                0.7666663856        0.5666674898        0.0000000004
C                0.7333366983        0.6333369536        0.0000000003
C                0.7666624430        0.6666678766        0.0000000007
C                0.7333375381        0.7333377017        0.0000000002
C                0.7666661533        0.7666660350        0.0000000002
C                0.7333379236        0.8333310383       -0.0000000005
C                0.7666661539        0.8666678107        0.0000000009
C                0.7333375385        0.9333247596        0.0000000012
C                0.7666624431        0.9666696800        0.0000000010
C                0.8333236794        0.0333430634        0.0000000006
C                0.8666320445        0.0667074520       -0.0000000007
C                0.8332594479        0.1334099774        0.0000000002
C                0.8666594538        0.1666701759        0.0000000009
C                0.8333218775        0.2333488818       -0.0000000003
C                0.8666617051        0.2666691478        0.0000000006
C                0.8333218778        0.3333292407        0.0000000016
C                0.8666594541        0.3666703702       -0.0000000004
C                0.8332594477        0.4333305751        0.0000000005
C                0.8666320450        0.4666605029       -0.0000000004
C                0.8333236794        0.5333332572        0.0000000005
C                0.8666657659        0.5666619143        0.0000000002
C                0.8333291874        0.6333346726       -0.0000000005
C                0.8666658930        0.6666681155       -0.0000000001
C                0.8333312363        0.7333378485        0.0000000006
C                0.8666677561        0.7666661219        0.0000000018
C                0.8333312363        0.8333309147        0.0000000008
C                0.8666658931        0.8666659915        0.0000000014
C                0.8333291875        0.9333361395        0.0000000009
C                0.8666657663        0.9666723191        0.0000000007
C                0.9333235165        0.0333459073       -0.0000000010
C                0.9666660484        0.0666700512       -0.0000000006
C                0.9333344342        0.1333348430       -0.0000000006
C                0.9666673061        0.1666711453       -0.0000000006
C                0.9333498201        0.2333250899       -0.0000000009
C                0.9666673062        0.2666615483        0.0000000004
C                0.9333344343        0.3333307224        0.0000000010
C                0.9666660488        0.3666638998        0.0000000010
C                0.9333235164        0.4333305765        0.0000000002
C                0.9666668085        0.4666665178        0.0000000005
C                0.9333326306        0.5333343618        0.0000000009
C                0.9666710481        0.5666617750       -0.0000000000
C                0.9333364445        0.6333345516       -0.0000000011
C                0.9666692086        0.6666681290       -0.0000000004
C                0.9333253405        0.7333373298        0.0000000016
C                0.9666692093        0.7666626619        0.0000000011
C                0.9333364447        0.8333290040        0.0000000008
C                0.9666710484        0.8666671763        0.0000000015
C                0.9333326308        0.9333330072        0.0000000003
C                0.9666668085        0.9666666733       -0.0000000008



     Writing config-only to output data dir /home/gregb26/links/scratch/qe_tmp/vacancy_relaxed/series/10x10/nspin1/vac_10x10_relax_nspin1.save/ :
     XML data file
     NEW-OLD atomic charge density approx. for the potential

     negative rho (up, down):  1.699E-06 0.000E+00

     total cpu time spent up to now is      992.3 secs

     per-process dynamical memory:   458.2 Mb

     Self-consistent Calculation

     iteration #  1     ecut=   100.00 Ry     beta= 0.30
     Davidson diagonalization with overlap
     ethr =  1.00E-06,  avg # of iterations =  4.0

     Threshold (ethr) on eigenvalues was too large:
     Diagonalizing with lowered threshold

     Davidson diagonalization with overlap
     ethr =  1.12E-08,  avg # of iterations =  5.0

     negative rho (up, down):  1.110E-06 0.000E+00

     total cpu time spent up to now is     1024.8 secs

     total energy              =   -2396.97366693 Ry
     estimated scf accuracy    <       0.00011846 Ry

     iteration #  2     ecut=   100.00 Ry     beta= 0.30
     Davidson diagonalization with overlap
     ethr =  1.49E-08,  avg # of iterations =  5.0

     negative rho (up, down):  9.232E-07 0.000E+00

     total cpu time spent up to now is     1035.4 secs

     total energy              =   -2396.97366182 Ry
     estimated scf accuracy    <       0.00013233 Ry

     iteration #  3     ecut=   100.00 Ry     beta= 0.30
     Davidson diagonalization with overlap
     ethr =  1.49E-08,  avg # of iterations =  5.0

     negative rho (up, down):  4.422E-07 0.000E+00

     total cpu time spent up to now is     1045.9 secs

     total energy              =   -2396.97367266 Ry
     estimated scf accuracy    <       0.00004902 Ry

     iteration #  4     ecut=   100.00 Ry     beta= 0.30
     Davidson diagonalization with overlap
     ethr =  6.16E-09,  avg # of iterations =  2.0

     negative rho (up, down):  1.635E-07 0.000E+00

     total cpu time spent up to now is     1055.7 secs

     total energy              =   -2396.97367552 Ry
     estimated scf accuracy    <       0.00000409 Ry

     iteration #  5     ecut=   100.00 Ry     beta= 0.30
     Davidson diagonalization with overlap
     ethr =  5.14E-10,  avg # of iterations =  5.0

     negative rho (up, down):  5.103E-08 0.000E+00

     total cpu time spent up to now is     1067.5 secs

     total energy              =   -2396.97367603 Ry
     estimated scf accuracy    <       0.00000081 Ry

     iteration #  6     ecut=   100.00 Ry     beta= 0.30
     Davidson diagonalization with overlap
     ethr =  1.01E-10,  avg # of iterations =  4.0

     negative rho (up, down):  1.453E-08 0.000E+00

     total cpu time spent up to now is     1078.4 secs

     total energy              =   -2396.97367614 Ry
     estimated scf accuracy    <       0.00000012 Ry

     iteration #  7     ecut=   100.00 Ry     beta= 0.30
     Davidson diagonalization with overlap
     ethr =  1.54E-11,  avg # of iterations =  5.0

     total cpu time spent up to now is     1092.0 secs

     total energy              =   -2396.97367617 Ry
     estimated scf accuracy    <       0.00000004 Ry

     iteration #  8     ecut=   100.00 Ry     beta= 0.30
     Davidson diagonalization with overlap
     ethr =  4.47E-12,  avg # of iterations =  5.0

     total cpu time spent up to now is     1103.1 secs

     total energy              =   -2396.97367617 Ry
     estimated scf accuracy    <       0.00000001 Ry

     iteration #  9     ecut=   100.00 Ry     beta= 0.30
     Davidson diagonalization with overlap
     ethr =  1.30E-12,  avg # of iterations =  5.0

     total cpu time spent up to now is     1114.7 secs

     total energy              =   -2396.97367617 Ry
     estimated scf accuracy    <          2.6E-09 Ry

     iteration # 10     ecut=   100.00 Ry     beta= 0.30
     Davidson diagonalization with overlap
     ethr =  3.23E-13,  avg # of iterations =  5.0

     total cpu time spent up to now is     1125.7 secs

     total energy              =   -2396.97367617 Ry
     estimated scf accuracy    <          3.9E-10 Ry

     iteration # 11     ecut=   100.00 Ry     beta= 0.30
     Davidson diagonalization with overlap
     ethr =  1.00E-13,  avg # of iterations =  4.0

     total cpu time spent up to now is     1136.1 secs

     total energy              =   -2396.97367617 Ry
     estimated scf accuracy    <          1.2E-10 Ry

     iteration # 12     ecut=   100.00 Ry     beta= 0.30
     Davidson diagonalization with overlap
     ethr =  1.00E-13,  avg # of iterations =  1.0

     total cpu time spent up to now is     1144.0 secs

     total energy              =   -2396.97367617 Ry
     estimated scf accuracy    <          4.6E-11 Ry

     iteration # 13     ecut=   100.00 Ry     beta= 0.30
     Davidson diagonalization with overlap
     ethr =  1.00E-13,  avg # of iterations =  1.0

     total cpu time spent up to now is     1152.5 secs

     End of self-consistent calculation

          k = 0.0000 0.0000 0.0000 (476289 PWs)   bands (ev):

   -23.7944 -23.5853 -23.5791 -23.5527 -23.5501 -23.5494 -23.5460 -23.1303
   -23.1240 -23.0937 -23.0932 -23.0829 -23.0397 -22.8821 -22.8787 -22.8626
   -22.8607 -22.8536 -22.7782 -22.2198 -22.2126 -22.1937 -22.1934 -22.1737
   -22.1610 -22.1521 -22.1517 -22.1480 -22.1463 -22.1455 -21.9986 -21.7166
   -21.7161 -21.7139 -21.7080 -21.7075 -21.5726 -21.0496 -21.0485 -21.0288
   -21.0234 -21.0217 -20.9467 -20.8269 -20.8267 -20.8152 -20.8001 -20.7974
   -20.7947 -20.7901 -20.7895 -20.7827 -20.7824 -20.7808 -20.5113 -20.1429
   -20.1418 -20.1406 -20.1167 -20.1156 -19.9793 -19.5290 -19.5289 -19.5082
   -19.4673 -19.4654 -19.4612 -19.4584 -19.4573 -19.4572 -19.4520 -19.4515
   -19.2887 -19.1090 -19.1072 -19.0858 -19.0608 -19.0588 -19.0564 -19.0522
   -19.0521 -19.0506 -19.0368 -19.0353 -18.7094 -18.5715 -18.5702 -18.4019
   -17.9943 -17.9773 -17.9760 -17.9545 -17.9542 -17.8884 -17.8564 -17.8487
   -17.8483 -17.8245 -17.8244 -17.6516 -17.5062 -17.5055 -17.3148 -16.9942
   -16.9940 -16.9908 -16.9342 -16.9337 -16.8581 -16.6856 -16.6844 -16.6832
   -16.6559 -16.6550 -16.6539 -16.6380 -16.6367 -16.6359 -16.5586 -16.5565
   -16.3672 -16.2041 -16.1423 -16.1406 -16.1287 -16.1285 -15.8475 -15.6496
   -15.6435 -15.6420 -15.5726 -15.5721 -15.4593 -15.2747 -15.2508 -15.2486
   -15.2431 -15.2424 -15.2298 -15.2212 -15.2211 -15.2207 -15.1326 -15.1317
   -14.6402 -14.4790 -14.4783 -14.4602 -14.4500 -14.4474 -14.4473 -14.3236
   -14.3124 -14.3102 -14.2736 -14.2657 -14.2645 -14.2641 -14.2639 -14.2621
   -14.1147 -14.1141 -13.6383 -13.2682 -13.2646 -13.2575 -13.2329 -13.2326
   -13.1750 -13.1719 -13.1415 -13.1415 -13.1062 -13.1041 -13.0995 -13.0794
   -13.0599 -13.0588 -12.9876 -12.9865 -12.9028 -12.8966 -12.8432 -12.8419
   -12.8336 -12.8332 -12.8256 -12.8194 -12.8190 -12.8140 -12.6071 -12.6065
   -12.1946 -11.8757 -11.8571 -11.8505 -11.8381 -11.8335 -11.7796 -11.7787
   -11.7664 -11.7652 -11.7564 -11.7459 -11.7444 -11.7440 -11.7396 -11.7393
   -11.7386 -11.6316 -11.6290 -11.6170 -11.6125 -11.5910 -11.5905 -11.5893
   -11.5706 -11.5110 -11.4595 -11.4150 -11.4142 -11.3842 -11.3818 -11.3801
   -11.3783 -11.3782 -11.3734 -11.2231 -11.2209 -11.0684 -11.0639 -11.0413
   -11.0409 -11.0346 -11.0122 -10.9936 -10.9822 -10.9591 -10.9555 -10.9211
   -10.9204 -10.9176 -10.9122 -10.9112 -10.8952 -10.7857 -10.7828 -10.7799
   -10.7777 -10.7675 -10.7658 -10.7615 -10.7291 -10.6776 -10.6738 -10.6731
   -10.6317 -10.5184 -10.5150 -10.5133 -10.4781 -10.4763 -10.4721 -10.4473
   -10.4306 -10.4300 -10.2586 -10.2554 -10.0904 -10.0816 -10.0417 -10.0401
    -9.9983  -9.9957  -9.9953  -9.9920  -9.9914  -9.9867  -9.9863  -9.9727
    -9.9724  -9.9720  -9.9575  -9.9479  -9.9411  -9.9408  -9.9383  -9.9362
    -9.9357  -9.8603  -9.8597  -9.8305  -9.8259  -9.8248  -9.7969  -9.7831
    -9.7714  -9.7029  -9.7005  -9.6092  -9.6091  -9.5829  -9.4408  -9.4390
    -9.4335  -9.4296  -9.4284  -9.3017  -9.1713  -9.1702  -8.8851  -8.8546
    -8.8530  -8.8107  -8.8033  -8.7662  -8.7659  -8.7522  -8.7520  -8.7476
    -8.6578  -8.6554  -8.6509  -8.6507  -8.6415  -8.5714  -8.5648  -8.4375
    -8.4346  -8.4300  -8.4277  -8.4218  -8.4215  -8.4206  -8.4058  -8.4029
    -8.4024  -8.3987  -8.3978  -8.3963  -8.2446  -8.2439  -8.2308  -8.1485
    -7.9415  -7.9410  -7.8760  -7.8156  -7.8050  -7.8039  -7.7773  -7.7580
    -7.7578  -7.7508  -7.7464  -7.7457  -7.6017  -7.3734  -7.3728  -7.0154
    -7.0131  -6.9948  -6.9944  -6.9875  -6.9610  -6.9582  -6.9579  -6.9565
    -6.9541  -6.9536  -6.8799  -6.8106  -6.8100  -6.7686  -6.7682  -6.7675
    -6.7645  -6.7639  -6.7638  -6.7555  -6.7551  -6.7549  -6.6369  -6.6236
    -6.6229  -6.1289  -5.7822  -5.7819  -5.7682  -5.7586  -5.7586  -5.5132
    -5.2976  -5.2942  -5.2940  -5.2776  -5.2774  -4.6816  -4.4440  -4.3771
    -3.2940  -3.2370  -3.2357  -3.2317  -3.2317  -3.1475  -2.9717  -2.9665
    -2.9658  -2.9359  -2.9357  -2.7947  -2.5652  -2.5647  -2.4866  -2.2172
    -2.2168  -2.2147  -2.2005  -2.2001  -2.1792  -2.1749  -2.1745  -2.1734
    -2.1514  -2.1510  -1.9032  -1.6276

     the Fermi energy is    -4.5703 ev

!    total energy              =   -2396.97367617 Ry
     estimated scf accuracy    <          1.3E-11 Ry
     smearing contrib. (-TS)   =      -0.00020596 Ry
     internal energy E=F+TS    =   -2396.97347021 Ry

     The total energy is F=E-TS. E is the sum of the following terms:
     one-electron contribution =  -27164.02749438 Ry
     hartree contribution      =   13655.99358781 Ry
     xc contribution           =    -852.91197154 Ry
     ewald contribution        =   11963.97240790 Ry

     convergence has been achieved in  13 iterations

     Forces acting on atoms (cartesian axes, Ry/au):

     atom    1 type  1   force =    -0.00002529    0.00000666    0.00000000
     atom    2 type  1   force =    -0.00003573   -0.00000224    0.00000000
     atom    3 type  1   force =     0.00002903   -0.00001743    0.00000000
     atom    4 type  1   force =    -0.00000320    0.00000554    0.00000001
     atom    5 type  1   force =     0.00000058   -0.00003384   -0.00000000
     atom    6 type  1   force =     0.00001979    0.00002981    0.00000000
     atom    7 type  1   force =     0.00000687    0.00002523   -0.00000000
     atom    8 type  1   force =     0.00008375   -0.00003516   -0.00000000
     atom    9 type  1   force =     0.00037331   -0.00013867    0.00000000
     atom   10 type  1   force =     0.00075740   -0.00048105   -0.00000000
     atom   11 type  1   force =    -0.00039036   -0.00013840   -0.00000000
     atom   12 type  1   force =     0.00039334   -0.00039033    0.00000000
     atom   13 type  1   force =    -0.00033463    0.00018854   -0.00000001
     atom   14 type  1   force =     0.00012085   -0.00020935   -0.00000000
     atom   15 type  1   force =     0.00000407    0.00038406   -0.00000000
     atom   16 type  1   force =     0.00014138   -0.00053583    0.00000000
     atom   17 type  1   force =     0.00031504    0.00026884   -0.00000001
     atom   18 type  1   force =     0.00003790   -0.00089646    0.00000001
     atom   19 type  1   force =    -0.00006655   -0.00039264   -0.00000001
     atom   20 type  1   force =    -0.00001146   -0.00009007   -0.00000000
     atom   21 type  1   force =     0.00003350    0.00000772   -0.00000000
     atom   22 type  1   force =    -0.00000596   -0.00000434   -0.00000000
     atom   23 type  1   force =     0.00000163   -0.00000285    0.00000001
     atom   24 type  1   force =     0.00000676    0.00000301    0.00000000
     atom   25 type  1   force =    -0.00002342   -0.00002515    0.00000000
     atom   26 type  1   force =     0.00016444   -0.00002936   -0.00000000
     atom   27 type  1   force =     0.00022392   -0.00003711    0.00000000
     atom   28 type  1   force =     0.00148879   -0.00079589   -0.00000000
     atom   29 type  1   force =     0.00031779   -0.00023042    0.00000000
     atom   30 type  1   force =     0.00021802    0.00028983    0.00000000
     atom   31 type  1   force =     0.00005422   -0.00041706    0.00000001
     atom   32 type  1   force =     0.00012279    0.00096449   -0.00000002
     atom   33 type  1   force =    -0.00001302    0.00002245   -0.00000001
     atom   34 type  1   force =    -0.00089663    0.00037588   -0.00000000
     atom   35 type  1   force =     0.00033408   -0.00025542    0.00000001
     atom   36 type  1   force =    -0.00036003   -0.00004388   -0.00000001
     atom   37 type  1   force =     0.00004065   -0.00039049   -0.00000000
     atom   38 type  1   force =    -0.00005512   -0.00168727    0.00000000
     atom   39 type  1   force =    -0.00007980   -0.00021253    0.00000001
     atom   40 type  1   force =    -0.00005681   -0.00015708   -0.00000001
     atom   41 type  1   force =     0.00000864    0.00002627   -0.00000000
     atom   42 type  1   force =     0.00000877   -0.00001519   -0.00000001
     atom   43 type  1   force =    -0.00002706    0.00000566   -0.00000000
     atom   44 type  1   force =     0.00017120    0.00005876    0.00000001
     atom   45 type  1   force =    -0.00002099   -0.00003907   -0.00000000
     atom   46 type  1   force =     0.00145408   -0.00003215   -0.00000000
     atom   47 type  1   force =     0.00188779   -0.00029814    0.00000001
     atom   48 type  1   force =     0.00026427    0.00057869   -0.00000000
     atom   49 type  1   force =     0.00061127   -0.00098428    0.00000000
     atom   50 type  1   force =     0.00079164    0.00126126   -0.00000001
     atom   51 type  1   force =    -0.00037896   -0.00024946    0.00000002
     atom   52 type  1   force =     0.00032603   -0.00056460    0.00000000
     atom   53 type  1   force =     0.00040550    0.00020347   -0.00000001
     atom   54 type  1   force =    -0.00148815   -0.00005495    0.00000000
     atom   55 type  1   force =     0.00054687   -0.00102142   -0.00000000
     atom   56 type  1   force =    -0.00063341    0.00006058   -0.00000001
     atom   57 type  1   force =    -0.00068571   -0.00178400    0.00000001
     atom   58 type  1   force =    -0.00069919   -0.00127530    0.00000000
     atom   59 type  1   force =     0.00004431   -0.00000141   -0.00000000
     atom   60 type  1   force =    -0.00013648   -0.00011889    0.00000001
     atom   61 type  1   force =     0.00002668   -0.00004620   -0.00000001
     atom   62 type  1   force =     0.00005527    0.00004059    0.00000000
     atom   63 type  1   force =     0.00029456   -0.00000383   -0.00000000
     atom   64 type  1   force =     0.00160433    0.00089976    0.00000001
     atom   65 type  1   force =     0.00205058    0.00023848   -0.00000000
     atom   66 type  1   force =     0.00030033   -0.00015783    0.00000002
     atom   67 type  1   force =     0.00112770   -0.00000715   -0.00000001
     atom   68 type  1   force =     0.00143083    0.00032181    0.00000001
     atom   69 type  1   force =     0.00144012    0.00023310   -0.00000002
     atom   70 type  1   force =    -0.00145101   -0.00010682    0.00000000
     atom   71 type  1   force =     0.00000346   -0.00000601    0.00000002
     atom   72 type  1   force =     0.00081798    0.00120345   -0.00000001
     atom   73 type  1   force =    -0.00092192   -0.00113064   -0.00000002
     atom   74 type  1   force =    -0.00099431   -0.00107831    0.00000002
     atom   75 type  1   force =    -0.00055742   -0.00097999   -0.00000002
     atom   76 type  1   force =    -0.00001352   -0.00033911    0.00000003
     atom   77 type  1   force =    -0.00123183   -0.00165660    0.00000000
     atom   78 type  1   force =    -0.00158134   -0.00093951   -0.00000000
     atom   79 type  1   force =    -0.00014398   -0.00025705   -0.00000000
     atom   80 type  1   force =    -0.00006277   -0.00002756   -0.00000000
     atom   81 type  1   force =     0.00050608    0.00015809    0.00000000
     atom   82 type  1   force =     0.00088846    0.00065397   -0.00000000
     atom   83 type  1   force =     0.00064424    0.00020094    0.00000001
     atom   84 type  1   force =     0.00022719   -0.00013820   -0.00000001
     atom   85 type  1   force =     0.00094186    0.00105370   -0.00000002
     atom   86 type  1   force =     0.00064647   -0.00072789    0.00000000
     atom   87 type  1   force =     0.00140889   -0.00023546    0.00000001
     atom   88 type  1   force =    -0.00162824   -0.00088926   -0.00000000
     atom   89 type  1   force =     0.00214355    0.00021988   -0.00000001
     atom   90 type  1   force =    -0.00126241   -0.00174678   -0.00000001
     atom   91 type  1   force =     0.00158413    0.00096575    0.00000002
     atom   92 type  1   force =    -0.00050047   -0.00133791   -0.00000002
     atom   93 type  1   force =     0.00030712   -0.00092393   -0.00000000
     atom   94 type  1   force =    -0.00138340   -0.00028864   -0.00000001
     atom   95 type  1   force =     0.00000614   -0.00026582   -0.00000001
     atom   96 type  1   force =    -0.00049622   -0.00045745    0.00000001
     atom   97 type  1   force =    -0.00101057   -0.00044247   -0.00000001
     atom   98 type  1   force =    -0.00038995   -0.00035922    0.00000000
     atom   99 type  1   force =    -0.00002984    0.00005174    0.00000000
     atom  100 type  1   force =    -0.00011012    0.00026227    0.00000000
     atom  101 type  1   force =     0.00049938    0.00063463   -0.00000001
     atom  102 type  1   force =     0.00048266    0.00061641    0.00000000
     atom  103 type  1   force =     0.00005487   -0.00076362    0.00000001
     atom  104 type  1   force =     0.00009001    0.00046417    0.00000000
     atom  105 type  1   force =     0.00069367    0.00062211   -0.00000000
     atom  106 type  1   force =    -0.00016268   -0.00017923    0.00000002
     atom  107 type  1   force =     0.00081427   -0.00106316   -0.00000001
     atom  108 type  1   force =    -0.00139987    0.00242459   -0.00000002
     atom  109 type  1   force =     0.00051340   -0.00123692    0.00000000
     atom  110 type  1   force =     0.00023662    0.00005131    0.00000001
     atom  111 type  1   force =    -0.00088558   -0.00028966    0.00000001
     atom  112 type  1   force =    -0.00044693    0.00015415    0.00000001
     atom  113 type  1   force =     0.00063387   -0.00042943   -0.00000000
     atom  114 type  1   force =    -0.00077509   -0.00010973    0.00000001
     atom  115 type  1   force =    -0.00079933   -0.00011516   -0.00000000
     atom  116 type  1   force =    -0.00017205    0.00022652   -0.00000000
     atom  117 type  1   force =     0.00003496   -0.00002299    0.00000000
     atom  118 type  1   force =    -0.00000798    0.00001381   -0.00000000
     atom  119 type  1   force =     0.00000244   -0.00004177    0.00000000
     atom  120 type  1   force =    -0.00011556    0.00004586   -0.00000000
     atom  121 type  1   force =     0.00018417    0.00041593   -0.00000001
     atom  122 type  1   force =     0.00020817    0.00043962   -0.00000000
     atom  123 type  1   force =    -0.00088365   -0.00060981    0.00000000
     atom  124 type  1   force =     0.00049833    0.00002594    0.00000000
     atom  125 type  1   force =    -0.00069220    0.00015433   -0.00000001
     atom  126 type  1   force =    -0.00080084    0.00096251    0.00000000
     atom  127 type  1   force =    -0.00045922    0.00079540   -0.00000001
     atom  128 type  1   force =    -0.00043316    0.00117469    0.00000000
     atom  129 type  1   force =     0.00021244    0.00067669   -0.00000002
     atom  130 type  1   force =    -0.00027164   -0.00041853   -0.00000001
     atom  131 type  1   force =     0.00097003    0.00046036    0.00000001
     atom  132 type  1   force =    -0.00048492    0.00003955    0.00000001
     atom  133 type  1   force =    -0.00045219    0.00004848   -0.00000001
     atom  134 type  1   force =     0.00001803    0.00012297   -0.00000000
     atom  135 type  1   force =    -0.00010361   -0.00008091    0.00000000
     atom  136 type  1   force =     0.00000891    0.00016893   -0.00000001
     atom  137 type  1   force =    -0.00000436    0.00000755    0.00000000
     atom  138 type  1   force =    -0.00015075    0.00007676    0.00000001
     atom  139 type  1   force =     0.00012189    0.00004930   -0.00000001
     atom  140 type  1   force =     0.00004504   -0.00002825    0.00000000
     atom  141 type  1   force =     0.00016094    0.00058457    0.00000000
     atom  142 type  1   force =     0.00021401    0.00049343   -0.00000001
     atom  143 type  1   force =    -0.00032325   -0.00011779    0.00000002
     atom  144 type  1   force =     0.00045921    0.00118145   -0.00000001
     atom  145 type  1   force =    -0.00037568   -0.00034198    0.00000001
     atom  146 type  1   force =    -0.00042989    0.00074461    0.00000001
     atom  147 type  1   force =     0.00048405    0.00015442   -0.00000000
     atom  148 type  1   force =    -0.00125278    0.00019291    0.00000000
     atom  149 type  1   force =     0.00026365    0.00022107    0.00000002
     atom  150 type  1   force =    -0.00053434    0.00006139   -0.00000000
     atom  151 type  1   force =    -0.00058672    0.00015292   -0.00000000
     atom  152 type  1   force =     0.00000194   -0.00005311    0.00000001
     atom  153 type  1   force =    -0.00010576    0.00007220   -0.00000001
     atom  154 type  1   force =     0.00001382    0.00001092   -0.00000000
     atom  155 type  1   force =    -0.00001591   -0.00001123   -0.00000000
     atom  156 type  1   force =     0.00001042   -0.00001807    0.00000002
     atom  157 type  1   force =     0.00001770    0.00000820   -0.00000000
     atom  158 type  1   force =    -0.00001636   -0.00000652   -0.00000001
     atom  159 type  1   force =    -0.00000964    0.00012769    0.00000000
     atom  160 type  1   force =     0.00027026   -0.00003420   -0.00000000
     atom  161 type  1   force =     0.00002477    0.00078681    0.00000001
     atom  162 type  1   force =    -0.00007944    0.00043529   -0.00000000
     atom  163 type  1   force =    -0.00003251    0.00140058   -0.00000001
     atom  164 type  1   force =    -0.00068230    0.00157087    0.00000001
     atom  165 type  1   force =    -0.00054365    0.00094158    0.00000000
     atom  166 type  1   force =    -0.00101924    0.00137633   -0.00000001
     atom  167 type  1   force =    -0.00119668    0.00072846    0.00000002
     atom  168 type  1   force =    -0.00033724    0.00028640   -0.00000001
     atom  169 type  1   force =    -0.00069377    0.00037198    0.00000001
     atom  170 type  1   force =    -0.00010553   -0.00025118   -0.00000000
     atom  171 type  1   force =     0.00000908    0.00004507    0.00000000
     atom  172 type  1   force =     0.00001058   -0.00014693    0.00000001
     atom  173 type  1   force =    -0.00000388   -0.00003424   -0.00000000
     atom  174 type  1   force =     0.00000563    0.00004364   -0.00000000
     atom  175 type  1   force =     0.00002748   -0.00004760   -0.00000001
     atom  176 type  1   force =    -0.00004058    0.00001693    0.00000001
     atom  177 type  1   force =     0.00003157   -0.00001377   -0.00000001
     atom  178 type  1   force =     0.00012197   -0.00008262   -0.00000000
     atom  179 type  1   force =    -0.00004357    0.00001470    0.00000000
     atom  180 type  1   force =    -0.00007295    0.00036120    0.00000000
     atom  181 type  1   force =     0.00000332    0.00003023    0.00000000
     atom  182 type  1   force =    -0.00007406    0.00012373    0.00000001
     atom  183 type  1   force =    -0.00003937    0.00012755    0.00000000
     atom  184 type  1   force =     0.00003822   -0.00006618    0.00000001
     atom  185 type  1   force =    -0.00009078    0.00009786    0.00000000
     atom  186 type  1   force =    -0.00007011    0.00012601   -0.00000000
     atom  187 type  1   force =    -0.00002784    0.00001225    0.00000000
     atom  188 type  1   force =    -0.00027636    0.00024374    0.00000000
     atom  189 type  1   force =     0.00001487   -0.00002249    0.00000000
     atom  190 type  1   force =    -0.00005725   -0.00002489    0.00000000
     atom  191 type  1   force =    -0.00000435    0.00005842    0.00000000
     atom  192 type  1   force =    -0.00017457   -0.00003678    0.00000001
     atom  193 type  1   force =     0.00014007   -0.00009284    0.00000001
     atom  194 type  1   force =    -0.00004097    0.00007098   -0.00000001
     atom  195 type  1   force =     0.00001035   -0.00016769    0.00000000
     atom  196 type  1   force =     0.00011911    0.00013279    0.00000001
     atom  197 type  1   force =    -0.00004841    0.00003300   -0.00000000
     atom  198 type  1   force =     0.00005019    0.00003714    0.00000001
     atom  199 type  1   force =     0.00001205   -0.00002410    0.00000000

     Total force =     0.011803     Total SCF correction =     0.000005
     Energy error            =      2.0E-04 Ry
     Gradient error          =      2.4E-03 Ry/Bohr

     number of scf cycles    =   6
     number of bfgs steps    =   5

     energy             old  =   -2396.9734796036 Ry
     energy             new  =   -2396.9736761708 Ry

     CASE: energy            _new < energy            _old

     new trust radius        =       0.0046790387 bohr
     new conv_thr            =            2.0E-11 Ry


ATOMIC_POSITIONS (crystal)
C                0.0333332201        0.0333334236       -0.0000000010
C                0.0666665354        0.0666665173       -0.0000000010
C                0.0333386151        0.1333312062       -0.0000000005
C                0.0666692288        0.1666653854       -0.0000000004
C                0.0333386153        0.2333301785        0.0000000003
C                0.0666665356        0.2666669470       -0.0000000000
C                0.0333332197        0.3333333564        0.0000000006
C                0.0666721554        0.3666636929        0.0000000002
C                0.0333588507        0.4333326104        0.0000000005
C                0.0667421287        0.4666579948        0.0000000007
C                0.0333394304        0.5333255104        0.0000000001
C                0.0666628313        0.5666625374       -0.0000000005
C                0.0333186518        0.6333355424        0.0000000000
C                0.0666782958        0.6666608523       -0.0000000005
C                0.0333186525        0.7333458058        0.0000000005
C                0.0666628332        0.7666746300        0.0000000007
C                0.0333394312        0.8333350581        0.0000000016
C                0.0667421290        0.8665998759       -0.0000000004
C                0.0333588511        0.9333085384       -0.0000000003
C                0.0666721554        0.9666641514       -0.0000000004
C                0.1333310305        0.0333386886        0.0000000001
C                0.1666653458        0.0666692933        0.0000000008
C                0.1333334657        0.1333332668        0.0000000004
C                0.1666653459        0.1666653604        0.0000000014
C                0.1333310305        0.2333302806        0.0000000004
C                0.1666736550        0.2666627252        0.0000000005
C                0.1333394781        0.3333331183       -0.0000000003
C                0.1667130061        0.3666744213       -0.0000000004
C                0.1334524691        0.4333346032        0.0000000009
C                0.1668905523        0.4666531185       -0.0000000003
C                0.1333480822        0.5333127683       -0.0000000007
C                0.1666127657        0.5666849036       -0.0000000008
C                0.1332615228        0.6333692388       -0.0000000021
C                0.1666127680        0.6667023303       -0.0000000028
C                0.1333480841        0.7333391486       -0.0000000012
C                0.1668905569        0.7664563259        0.0000000011
C                0.1334524715        0.8332129251        0.0000000001
C                0.1667130075        0.8666125709        0.0000000001
C                0.1333394792        0.9333274023       -0.0000000005
C                0.1666736549        0.9666636192        0.0000000001
C                0.2333304307        0.0333385942        0.0000000007
C                0.2666669034        0.0666665481        0.0000000004
C                0.2333304306        0.1333309744        0.0000000009
C                0.2666628673        0.1666739413        0.0000000004
C                0.2333262139        0.2333249585        0.0000000004
C                0.2666928804        0.2666895454        0.0000000005
C                0.2334078466        0.3333586759       -0.0000000014
C                0.2668669549        0.3667014005       -0.0000000008
C                0.2336821808        0.4333412447       -0.0000000008
C                0.2670377777        0.4668548874       -0.0000000008
C                0.2331612322        0.5334154965       -0.0000000028
C                0.2663772281        0.5668113879       -0.0000000021
C                0.2331612350        0.6334232716       -0.0000000012
C                0.2670377847        0.6661073291       -0.0000000025
C                0.2336821869        0.7329765694       -0.0000000004
C                0.2668669597        0.7664316379        0.0000000009
C                0.2334078501        0.8332334727       -0.0000000003
C                0.2666928811        0.8666175726       -0.0000000013
C                0.2333262148        0.9333488260        0.0000000003
C                0.2666628675        0.9666631907        0.0000000012
C                0.3333339477        0.0333330259        0.0000000013
C                0.3666634106        0.0666730461        0.0000000008
C                0.3333347608        0.1333394749        0.0000000005
C                0.3666766563        0.1667177228       -0.0000000008
C                0.3333668771        0.2334098272        0.0000000010
C                0.3667046669        0.2668843179       -0.0000000009
C                0.3334848702        0.3334931977        0.0000000013
C                0.3669480120        0.3670289874        0.0000000020
C                0.3338925032        0.4334239581        0.0000000013
C                0.3675095957        0.4676261249       -0.0000000001
C                0.3323515604        0.5338242242       -0.0000000007
C                0.3675096113        0.5648642781       -0.0000000026
C                0.3338925099        0.6326835326       -0.0000000033
C                0.3669480173        0.6660229943       -0.0000000035
C                0.3334848752        0.7330219271        0.0000000001
C                0.3667046692        0.7664110096       -0.0000000018
C                0.3333668787        0.8332232921       -0.0000000018
C                0.3666766574        0.8666056194       -0.0000000008
C                0.3333347614        0.9333257629        0.0000000009
C                0.3666634109        0.9666635429        0.0000000011
C                0.4333336415        0.0333641910        0.0000000006
C                0.4666563244        0.0667584703        0.0000000005
C                0.4333403397        0.1334826742       -0.0000000007
C                0.4666474975        0.1669538199        0.0000000002
C                0.4333453554        0.2337750405        0.0000000009
C                0.4668028786        0.2672274944        0.0000000002
C                0.4333553904        0.3341463113        0.0000000013
C                0.4674506456        0.3679886941       -0.0000000001
C                0.4324918402        0.4330873790       -0.0000000020
C                0.4324918616        0.5344207526       -0.0000000012
C                0.4674506389        0.5645606586       -0.0000000024
C                0.4333553967        0.6324982926        0.0000000017
C                0.4668028789        0.6659696243        0.0000000025
C                0.4333453550        0.7328796030        0.0000000011
C                0.4666474983        0.7663986804        0.0000000002
C                0.4333403406        0.8331769835       -0.0000000010
C                0.4666563246        0.8665852051        0.0000000006
C                0.4333336415        0.9333021672        0.0000000004
C                0.4666655924        0.9666672038        0.0000000011
C                0.5333259283        0.0333486976        0.0000000005
C                0.5666569086        0.0666838474        0.0000000011
C                0.5333086202        0.1333956948        0.0000000002
C                0.5666486421        0.1666999464       -0.0000000016
C                0.5333662161        0.2333014732       -0.0000000019
C                0.5666929784        0.2665968931       -0.0000000020
C                0.5336965042        0.3326498557       -0.0000000033
C                0.5650583764        0.3675228290       -0.0000000014
C                0.5353253877        0.4323373114       -0.0000000002
C                0.5650583758        0.4674188055       -0.0000000002
C                0.5336965028        0.5336536473       -0.0000000006
C                0.5666929771        0.5667101319       -0.0000000018
C                0.5333662144        0.6333323131       -0.0000000014
C                0.5666486420        0.6666514118       -0.0000000004
C                0.5333086202        0.7332956860       -0.0000000005
C                0.5666569086        0.7666592444        0.0000000002
C                0.5333259278        0.8333253743        0.0000000003
C                0.5666621216        0.8666657064        0.0000000012
C                0.5333340448        0.9333329775        0.0000000008
C                0.5666621218        0.9666721720        0.0000000008
C                0.6333324092        0.0333266262        0.0000000001
C                0.6666503565        0.0666942888        0.0000000011
C                0.6333373151        0.1333064141        0.0000000001
C                0.6666450748        0.1666803101       -0.0000000009
C                0.6333428808        0.2332595097       -0.0000000005
C                0.6661612021        0.2670122803       -0.0000000009
C                0.6328730376        0.3338307026       -0.0000000022
C                0.6662056740        0.3668971675       -0.0000000008
C                0.6328730376        0.4332962682        0.0000000019
C                0.6661612030        0.4668265225        0.0000000015
C                0.6333428805        0.5333976133        0.0000000003
C                0.6666450750        0.5666746172       -0.0000000016
C                0.6333373136        0.6333562716       -0.0000000003
C                0.6666503567        0.6666553553        0.0000000006
C                0.6333324094        0.7333409645        0.0000000013
C                0.6666683770        0.7666610921        0.0000000012
C                0.6333317286        0.8333322239        0.0000000014
C                0.6666680241        0.8666659880        0.0000000000
C                0.6333317289        0.9333360473        0.0000000003
C                0.6666683771        0.9666705314        0.0000000008
C                0.7333386649        0.0333266830        0.0000000012
C                0.7666570374        0.0666815545        0.0000000009
C                0.7332995952        0.1333812125        0.0000000006
C                0.7664715268        0.1668698747       -0.0000000001
C                0.7330156586        0.2336466687       -0.0000000000
C                0.7664851956        0.2668246119       -0.0000000012
C                0.7331442280        0.3334278871        0.0000000004
C                0.7664851955        0.3666901944        0.0000000008
C                0.7330156609        0.4333376730       -0.0000000004
C                0.7664715277        0.4666585998       -0.0000000010
C                0.7332995955        0.5333191929       -0.0000000006
C                0.7666570376        0.5666614084        0.0000000000
C                0.7333386646        0.6333346521        0.0000000005
C                0.7666606247        0.6666678940        0.0000000005
C                0.7333376118        0.7333382574        0.0000000002
C                0.7666661972        0.7666656293        0.0000000003
C                0.7333380496        0.8333309751        0.0000000000
C                0.7666661974        0.8666681734        0.0000000010
C                0.7333376125        0.9333241299        0.0000000008
C                0.7666606250        0.9666714808        0.0000000011
C                0.8333252035        0.0333481522        0.0000000008
C                0.8666046079        0.0667370206       -0.0000000007
C                0.8332224845        0.1334417349        0.0000000000
C                0.8666242842        0.1667020054        0.0000000007
C                0.8332602608        0.2333874459       -0.0000000003
C                0.8666321181        0.2666839409        0.0000000009
C                0.8332602612        0.3333522940        0.0000000016
C                0.8666242842        0.3666737107       -0.0000000000
C                0.8332224851        0.4333357806        0.0000000000
C                0.8666046078        0.4666583720       -0.0000000000
C                0.8333252034        0.5333266440        0.0000000004
C                0.8666643864        0.5666621302        0.0000000002
C                0.8333320097        0.6333317756       -0.0000000003
C                0.8666665253        0.6666673464       -0.0000000001
C                0.8333306574        0.7333384008        0.0000000003
C                0.8666689969        0.7666655015        0.0000000016
C                0.8333306579        0.8333309416        0.0000000012
C                0.8666665254        0.8666661279        0.0000000013
C                0.8333320100        0.9333362145        0.0000000007
C                0.8666643866        0.9666734830        0.0000000006
C                0.9333106194        0.0333569086       -0.0000000008
C                0.9666649052        0.0666714380       -0.0000000004
C                0.9333302686        0.1333368968       -0.0000000001
C                0.9666647292        0.1666731245       -0.0000000003
C                0.9333520642        0.2333239681       -0.0000000008
C                0.9666647296        0.2666621458        0.0000000005
C                0.9333302687        0.3333328345        0.0000000015
C                0.9666649053        0.3666636567        0.0000000011
C                0.9333106195        0.4333324716        0.0000000003
C                0.9666677423        0.4666658293        0.0000000007
C                0.9333322668        0.5333333059        0.0000000011
C                0.9666703839        0.5666621132        0.0000000002
C                0.9333354402        0.6333317109       -0.0000000009
C                0.9666718086        0.6666677779       -0.0000000001
C                0.9333232375        0.7333383815        0.0000000014
C                0.9666718085        0.7666604138        0.0000000014
C                0.9333354403        0.8333328487        0.0000000009
C                0.9666703839        0.8666675028        0.0000000017
C                0.9333322672        0.9333344269        0.0000000004
C                0.9666677422        0.9666664284       -0.0000000007



     Writing config-only to output data dir /home/gregb26/links/scratch/qe_tmp/vacancy_relaxed/series/10x10/nspin1/vac_10x10_relax_nspin1.save/ :
     XML data file
     NEW-OLD atomic charge density approx. for the potential

     negative rho (up, down):  1.275E-06 0.000E+00

     total cpu time spent up to now is     1157.4 secs

     per-process dynamical memory:   458.2 Mb

     Self-consistent Calculation

     iteration #  1     ecut=   100.00 Ry     beta= 0.30
     Davidson diagonalization with overlap
     ethr =  1.00E-06,  avg # of iterations =  3.0

     Threshold (ethr) on eigenvalues was too large:
     Diagonalizing with lowered threshold

     Davidson diagonalization with overlap
     ethr =  4.43E-09,  avg # of iterations =  6.0

     negative rho (up, down):  8.304E-07 0.000E+00

     total cpu time spent up to now is     1191.8 secs

     total energy              =   -2396.97378570 Ry
     estimated scf accuracy    <       0.00005593 Ry

     iteration #  2     ecut=   100.00 Ry     beta= 0.30
     Davidson diagonalization with overlap
     ethr =  7.03E-09,  avg # of iterations =  4.0

     negative rho (up, down):  5.871E-07 0.000E+00

     total cpu time spent up to now is     1201.8 secs

     total energy              =   -2396.97378517 Ry
     estimated scf accuracy    <       0.00002588 Ry

     iteration #  3     ecut=   100.00 Ry     beta= 0.30
     Davidson diagonalization with overlap
     ethr =  3.25E-09,  avg # of iterations =  5.0

     negative rho (up, down):  3.443E-07 0.000E+00

     total cpu time spent up to now is     1211.8 secs

     total energy              =   -2396.97378491 Ry
     estimated scf accuracy    <       0.00002908 Ry

     iteration #  4     ecut=   100.00 Ry     beta= 0.30
     Davidson diagonalization with overlap
     ethr =  3.25E-09,  avg # of iterations =  4.0

     negative rho (up, down):  1.195E-07 0.000E+00

     total cpu time spent up to now is     1221.9 secs

     total energy              =   -2396.97378692 Ry
     estimated scf accuracy    <       0.00000441 Ry

     iteration #  5     ecut=   100.00 Ry     beta= 0.30
     Davidson diagonalization with overlap
     ethr =  5.54E-10,  avg # of iterations =  5.0

     negative rho (up, down):  4.993E-08 0.000E+00

     total cpu time spent up to now is     1231.8 secs

     total energy              =   -2396.97378737 Ry
     estimated scf accuracy    <       0.00000068 Ry

     iteration #  6     ecut=   100.00 Ry     beta= 0.30
     Davidson diagonalization with overlap
     ethr =  8.55E-11,  avg # of iterations =  5.0

     negative rho (up, down):  1.570E-08 0.000E+00

     total cpu time spent up to now is     1243.1 secs

     total energy              =   -2396.97378747 Ry
     estimated scf accuracy    <       0.00000016 Ry

     iteration #  7     ecut=   100.00 Ry     beta= 0.30
     Davidson diagonalization with overlap
     ethr =  2.05E-11,  avg # of iterations =  5.0

     total cpu time spent up to now is     1254.2 secs

     total energy              =   -2396.97378750 Ry
     estimated scf accuracy    <       0.00000003 Ry

     iteration #  8     ecut=   100.00 Ry     beta= 0.30
     Davidson diagonalization with overlap
     ethr =  3.71E-12,  avg # of iterations =  5.0

     total cpu time spent up to now is     1267.4 secs

     total energy              =   -2396.97378750 Ry
     estimated scf accuracy    <          8.3E-09 Ry

     iteration #  9     ecut=   100.00 Ry     beta= 0.30
     Davidson diagonalization with overlap
     ethr =  1.04E-12,  avg # of iterations =  5.0

     total cpu time spent up to now is     1279.9 secs

     total energy              =   -2396.97378750 Ry
     estimated scf accuracy    <          1.8E-09 Ry

     iteration # 10     ecut=   100.00 Ry     beta= 0.30
     Davidson diagonalization with overlap
     ethr =  2.24E-13,  avg # of iterations =  5.0

     total cpu time spent up to now is     1291.4 secs

     total energy              =   -2396.97378750 Ry
     estimated scf accuracy    <          5.3E-10 Ry

     iteration # 11     ecut=   100.00 Ry     beta= 0.30
     Davidson diagonalization with overlap
     ethr =  1.00E-13,  avg # of iterations =  5.0

     total cpu time spent up to now is     1301.6 secs

     total energy              =   -2396.97378750 Ry
     estimated scf accuracy    <          9.1E-11 Ry

     iteration # 12     ecut=   100.00 Ry     beta= 0.30
     Davidson diagonalization with overlap
     ethr =  1.00E-13,  avg # of iterations =  1.0

     total cpu time spent up to now is     1310.4 secs

     total energy              =   -2396.97378750 Ry
     estimated scf accuracy    <          2.5E-11 Ry

     iteration # 13     ecut=   100.00 Ry     beta= 0.30
     Davidson diagonalization with overlap
     ethr =  1.00E-13,  avg # of iterations =  1.0

     total cpu time spent up to now is     1319.4 secs

     End of self-consistent calculation

          k = 0.0000 0.0000 0.0000 (476289 PWs)   bands (ev):

   -23.7948 -23.5863 -23.5802 -23.5548 -23.5490 -23.5483 -23.5458 -23.1314
   -23.1253 -23.0937 -23.0931 -23.0820 -23.0400 -22.8817 -22.8786 -22.8627
   -22.8610 -22.8537 -22.7784 -22.2211 -22.2145 -22.1951 -22.1949 -22.1749
   -22.1610 -22.1518 -22.1512 -22.1459 -22.1453 -22.1442 -21.9982 -21.7168
   -21.7166 -21.7140 -21.7080 -21.7074 -21.5727 -21.0499 -21.0492 -21.0301
   -21.0234 -21.0216 -20.9462 -20.8269 -20.8267 -20.8163 -20.8005 -20.7979
   -20.7941 -20.7896 -20.7892 -20.7829 -20.7819 -20.7802 -20.5119 -20.1432
   -20.1421 -20.1406 -20.1166 -20.1155 -19.9785 -19.5303 -19.5302 -19.5102
   -19.4682 -19.4664 -19.4600 -19.4575 -19.4564 -19.4560 -19.4517 -19.4508
   -19.2885 -19.1095 -19.1080 -19.0866 -19.0605 -19.0578 -19.0557 -19.0522
   -19.0520 -19.0504 -19.0366 -19.0353 -18.7083 -18.5715 -18.5702 -18.4033
   -17.9974 -17.9769 -17.9756 -17.9542 -17.9540 -17.8866 -17.8555 -17.8481
   -17.8479 -17.8248 -17.8245 -17.6530 -17.5062 -17.5055 -17.3152 -16.9946
   -16.9944 -16.9904 -16.9345 -16.9338 -16.8579 -16.6864 -16.6841 -16.6831
   -16.6556 -16.6555 -16.6541 -16.6373 -16.6356 -16.6351 -16.5596 -16.5574
   -16.3675 -16.2047 -16.1421 -16.1400 -16.1292 -16.1288 -15.8484 -15.6499
   -15.6432 -15.6417 -15.5731 -15.5728 -15.4598 -15.2739 -15.2508 -15.2489
   -15.2432 -15.2427 -15.2299 -15.2218 -15.2210 -15.2206 -15.1336 -15.1326
   -14.6405 -14.4801 -14.4794 -14.4598 -14.4496 -14.4469 -14.4469 -14.3238
   -14.3130 -14.3109 -14.2732 -14.2656 -14.2646 -14.2639 -14.2637 -14.2616
   -14.1152 -14.1145 -13.6392 -13.2687 -13.2653 -13.2572 -13.2334 -13.2331
   -13.1752 -13.1721 -13.1423 -13.1422 -13.1055 -13.1037 -13.0982 -13.0801
   -13.0601 -13.0590 -12.9874 -12.9865 -12.9028 -12.8968 -12.8442 -12.8432
   -12.8329 -12.8325 -12.8257 -12.8186 -12.8181 -12.8146 -12.6076 -12.6071
   -12.1952 -11.8758 -11.8572 -11.8513 -11.8403 -11.8342 -11.7803 -11.7793
   -11.7670 -11.7658 -11.7562 -11.7462 -11.7443 -11.7442 -11.7387 -11.7383
   -11.7377 -11.6315 -11.6293 -11.6176 -11.6131 -11.5902 -11.5895 -11.5887
   -11.5728 -11.5125 -11.4609 -11.4163 -11.4153 -11.3833 -11.3806 -11.3790
   -11.3776 -11.3776 -11.3726 -11.2237 -11.2216 -11.0691 -11.0648 -11.0412
   -11.0407 -11.0338 -11.0123 -10.9922 -10.9824 -10.9593 -10.9559 -10.9214
   -10.9207 -10.9180 -10.9122 -10.9114 -10.8957 -10.7855 -10.7828 -10.7801
   -10.7776 -10.7675 -10.7661 -10.7615 -10.7289 -10.6777 -10.6738 -10.6737
   -10.6320 -10.5179 -10.5147 -10.5132 -10.4778 -10.4762 -10.4730 -10.4482
   -10.4309 -10.4304 -10.2587 -10.2553 -10.0901 -10.0808 -10.0415 -10.0401
    -9.9993  -9.9954  -9.9953  -9.9935  -9.9919  -9.9869  -9.9865  -9.9735
    -9.9730  -9.9723  -9.9584  -9.9478  -9.9408  -9.9404  -9.9367  -9.9354
    -9.9347  -9.8601  -9.8595  -9.8312  -9.8260  -9.8249  -9.7968  -9.7828
    -9.7714  -9.7033  -9.7013  -9.6095  -9.6094  -9.5816  -9.4406  -9.4390
    -9.4335  -9.4299  -9.4288  -9.3017  -9.1714  -9.1703  -8.8850  -8.8539
    -8.8524  -8.8122  -8.8032  -8.7659  -8.7658  -8.7521  -8.7518  -8.7476
    -8.6579  -8.6556  -8.6509  -8.6508  -8.6424  -8.5709  -8.5639  -8.4377
    -8.4351  -8.4312  -8.4288  -8.4226  -8.4213  -8.4205  -8.4054  -8.4026
    -8.4022  -8.3991  -8.3971  -8.3958  -8.2438  -8.2437  -8.2311  -8.1490
    -7.9418  -7.9406  -7.8758  -7.8156  -7.8050  -7.8046  -7.7770  -7.7576
    -7.7575  -7.7506  -7.7469  -7.7464  -7.6011  -7.3733  -7.3728  -7.0157
    -7.0135  -6.9956  -6.9953  -6.9891  -6.9600  -6.9576  -6.9574  -6.9559
    -6.9540  -6.9535  -6.8796  -6.8112  -6.8106  -6.7688  -6.7677  -6.7668
    -6.7649  -6.7641  -6.7638  -6.7554  -6.7551  -6.7548  -6.6359  -6.6235
    -6.6226  -6.1303  -5.7817  -5.7815  -5.7697  -5.7584  -5.7584  -5.5122
    -5.2979  -5.2933  -5.2931  -5.2782  -5.2782  -4.6835  -4.4433  -4.3770
    -3.2933  -3.2380  -3.2367  -3.2309  -3.2307  -3.1484  -2.9711  -2.9665
    -2.9659  -2.9366  -2.9364  -2.7940  -2.5651  -2.5646  -2.4872  -2.2171
    -2.2167  -2.2142  -2.2004  -2.2002  -2.1795  -2.1748  -2.1743  -2.1733
    -2.1523  -2.1517  -1.9040  -1.6270

     the Fermi energy is    -4.5716 ev

!    total energy              =   -2396.97378750 Ry
     estimated scf accuracy    <          6.6E-12 Ry
     smearing contrib. (-TS)   =      -0.00013380 Ry
     internal energy E=F+TS    =   -2396.97365370 Ry

     The total energy is F=E-TS. E is the sum of the following terms:
     one-electron contribution =  -27163.95987987 Ry
     hartree contribution      =   13655.95643573 Ry
     xc contribution           =    -852.91122342 Ry
     ewald contribution        =   11963.94101386 Ry

     convergence has been achieved in  13 iterations

     Forces acting on atoms (cartesian axes, Ry/au):

     atom    1 type  1   force =    -0.00004075   -0.00003493    0.00000000
     atom    2 type  1   force =    -0.00000986   -0.00000903    0.00000000
     atom    3 type  1   force =    -0.00004850    0.00006485   -0.00000000
     atom    4 type  1   force =     0.00000667   -0.00001156    0.00000001
     atom    5 type  1   force =    -0.00003191    0.00007442    0.00000000
     atom    6 type  1   force =     0.00001276    0.00000405    0.00000000
     atom    7 type  1   force =     0.00005062    0.00001780   -0.00000001
     atom    8 type  1   force =     0.00033178   -0.00006407    0.00000000
     atom    9 type  1   force =     0.00039874   -0.00012116    0.00000001
     atom   10 type  1   force =    -0.00004587   -0.00021830    0.00000001
     atom   11 type  1   force =     0.00040655   -0.00022400    0.00000000
     atom   12 type  1   force =    -0.00018183   -0.00021372    0.00000000
     atom   13 type  1   force =     0.00023206   -0.00027933    0.00000000
     atom   14 type  1   force =    -0.00017858    0.00030932   -0.00000001
     atom   15 type  1   force =     0.00012588   -0.00034063    0.00000000
     atom   16 type  1   force =     0.00027601    0.00005063   -0.00000000
     atom   17 type  1   force =    -0.00000926   -0.00046406   -0.00000000
     atom   18 type  1   force =     0.00021201   -0.00006949    0.00000001
     atom   19 type  1   force =    -0.00009444   -0.00040590    0.00000000
     atom   20 type  1   force =    -0.00011039   -0.00031939   -0.00000000
     atom   21 type  1   force =    -0.00006138   -0.00008697   -0.00000000
     atom   22 type  1   force =     0.00000953   -0.00000650   -0.00000000
     atom   23 type  1   force =    -0.00000227    0.00000394    0.00000001
     atom   24 type  1   force =     0.00000086   -0.00001149   -0.00000000
     atom   25 type  1   force =     0.00010601    0.00000966    0.00000000
     atom   26 type  1   force =     0.00019778    0.00002595   -0.00000000
     atom   27 type  1   force =     0.00112551   -0.00031161    0.00000000
     atom   28 type  1   force =     0.00079588   -0.00060262   -0.00000000
     atom   29 type  1   force =     0.00032073   -0.00032582   -0.00000000
     atom   30 type  1   force =     0.00000787   -0.00023739   -0.00000001
     atom   31 type  1   force =     0.00051559    0.00017881    0.00000000
     atom   32 type  1   force =     0.00018336   -0.00015717   -0.00000001
     atom   33 type  1   force =    -0.00023669    0.00041002    0.00000001
     atom   34 type  1   force =     0.00004440   -0.00023734    0.00000001
     atom   35 type  1   force =    -0.00041263   -0.00035714    0.00000001
     atom   36 type  1   force =     0.00020164   -0.00012548   -0.00000002
     atom   37 type  1   force =     0.00012180   -0.00044064    0.00000001
     atom   38 type  1   force =     0.00012395   -0.00099062    0.00000000
     atom   39 type  1   force =    -0.00029291   -0.00113050    0.00000000
     atom   40 type  1   force =    -0.00012134   -0.00015834   -0.00000000
     atom   41 type  1   force =    -0.00005059   -0.00008870    0.00000001
     atom   42 type  1   force =     0.00001556   -0.00002695    0.00000001
     atom   43 type  1   force =     0.00010211   -0.00000054   -0.00000000
     atom   44 type  1   force =     0.00021632   -0.00008953   -0.00000001
     atom   45 type  1   force =     0.00126827   -0.00000405    0.00000000
     atom   46 type  1   force =     0.00117868   -0.00005234   -0.00000000
     atom   47 type  1   force =     0.00080232   -0.00022778    0.00000001
     atom   48 type  1   force =     0.00070247   -0.00001870    0.00000000
     atom   49 type  1   force =    -0.00002045    0.00078993    0.00000001
     atom   50 type  1   force =     0.00032157   -0.00038783    0.00000000
     atom   51 type  1   force =    -0.00004986    0.00099953    0.00000001
     atom   52 type  1   force =     0.00066673   -0.00115489   -0.00000001
     atom   53 type  1   force =    -0.00084071    0.00054300   -0.00000002
     atom   54 type  1   force =     0.00017513   -0.00047233    0.00000000
     atom   55 type  1   force =    -0.00067396    0.00041268    0.00000001
     atom   56 type  1   force =    -0.00033494   -0.00061765   -0.00000001
     atom   57 type  1   force =    -0.00020391   -0.00080865    0.00000000
     atom   58 type  1   force =    -0.00054402   -0.00104701    0.00000001
     atom   59 type  1   force =    -0.00063061   -0.00110035   -0.00000000
     atom   60 type  1   force =    -0.00003065   -0.00023212   -0.00000001
     atom   61 type  1   force =     0.00001861   -0.00003224   -0.00000000
     atom   62 type  1   force =     0.00039768    0.00003138    0.00000000
     atom   63 type  1   force =     0.00122564    0.00034519   -0.00000001
     atom   64 type  1   force =     0.00099599    0.00056086    0.00000001
     atom   65 type  1   force =     0.00086597    0.00035972   -0.00000001
     atom   66 type  1   force =     0.00081720    0.00009366    0.00000002
     atom   67 type  1   force =    -0.00031025    0.00024057   -0.00000001
     atom   68 type  1   force =     0.00083619   -0.00005270    0.00000000
     atom   69 type  1   force =     0.00043558    0.00069161   -0.00000001
     atom   70 type  1   force =    -0.00077544   -0.00062259    0.00000001
     atom   71 type  1   force =     0.00011006   -0.00019041   -0.00000003
     atom   72 type  1   force =     0.00092647    0.00036018    0.00000000
     atom   73 type  1   force =    -0.00081658   -0.00003145   -0.00000001
     atom   74 type  1   force =    -0.00037233   -0.00075044    0.00000003
     atom   75 type  1   force =    -0.00005337    0.00038890   -0.00000002
     atom   76 type  1   force =    -0.00048959   -0.00066075    0.00000002
     atom   77 type  1   force =    -0.00074448   -0.00057009    0.00000000
     atom   78 type  1   force =    -0.00098378   -0.00058213    0.00000000
     atom   79 type  1   force =    -0.00091174   -0.00088884   -0.00000000
     atom   80 type  1   force =    -0.00022604   -0.00032871   -0.00000000
     atom   81 type  1   force =     0.00045135    0.00015972   -0.00000000
     atom   82 type  1   force =     0.00015932    0.00025204   -0.00000001
     atom   83 type  1   force =     0.00033382    0.00043130   -0.00000000
     atom   84 type  1   force =     0.00022063    0.00024747   -0.00000001
     atom   85 type  1   force =    -0.00026169   -0.00049200   -0.00000001
     atom   86 type  1   force =     0.00040289    0.00026331   -0.00000000
     atom   87 type  1   force =     0.00044832   -0.00041686   -0.00000001
     atom   88 type  1   force =    -0.00104154    0.00009653   -0.00000000
     atom   89 type  1   force =     0.00281049    0.00006857    0.00000000
     atom   90 type  1   force =    -0.00146466   -0.00239960   -0.00000000
     atom   91 type  1   force =     0.00043749    0.00094992    0.00000002
     atom   92 type  1   force =     0.00013667   -0.00059652   -0.00000002
     atom   93 type  1   force =    -0.00042937   -0.00021724   -0.00000001
     atom   94 type  1   force =     0.00055691   -0.00001951   -0.00000000
     atom   95 type  1   force =    -0.00032463   -0.00006730   -0.00000001
     atom   96 type  1   force =    -0.00054037   -0.00007342    0.00000000
     atom   97 type  1   force =    -0.00029800   -0.00001197   -0.00000001
     atom   98 type  1   force =    -0.00036401   -0.00031103    0.00000000
     atom   99 type  1   force =    -0.00004172    0.00007224    0.00000000
     atom  100 type  1   force =     0.00051936    0.00036400   -0.00000000
     atom  101 type  1   force =     0.00012756    0.00044178   -0.00000001
     atom  102 type  1   force =     0.00041421    0.00000871   -0.00000000
     atom  103 type  1   force =     0.00047730    0.00034864    0.00000001
     atom  104 type  1   force =    -0.00000460   -0.00078886    0.00000001
     atom  105 type  1   force =     0.00071808    0.00082212   -0.00000000
     atom  106 type  1   force =     0.00025464    0.00021379    0.00000001
     atom  107 type  1   force =     0.00061192   -0.00033971   -0.00000001
     atom  108 type  1   force =    -0.00153319    0.00265582   -0.00000000
     atom  109 type  1   force =    -0.00001179   -0.00069995   -0.00000000
     atom  110 type  1   force =    -0.00031263   -0.00011352   -0.00000002
     atom  111 type  1   force =    -0.00107096   -0.00021081    0.00000002
     atom  112 type  1   force =     0.00068547   -0.00039047    0.00000002
     atom  113 type  1   force =    -0.00054057   -0.00023898   -0.00000000
     atom  114 type  1   force =    -0.00021469   -0.00035441    0.00000000
     atom  115 type  1   force =    -0.00044638    0.00011042    0.00000000
     atom  116 type  1   force =    -0.00057490   -0.00026780    0.00000001
     atom  117 type  1   force =    -0.00016802    0.00014166   -0.00000000
     atom  118 type  1   force =    -0.00002159    0.00003743   -0.00000000
     atom  119 type  1   force =    -0.00003869    0.00021633   -0.00000000
     atom  120 type  1   force =     0.00028051    0.00041975    0.00000001
     atom  121 type  1   force =     0.00001026    0.00013837    0.00000000
     atom  122 type  1   force =    -0.00024080   -0.00036661   -0.00000001
     atom  123 type  1   force =     0.00014107    0.00041571    0.00000001
     atom  124 type  1   force =    -0.00040679   -0.00065659    0.00000000
     atom  125 type  1   force =     0.00027583    0.00055678    0.00000001
     atom  126 type  1   force =    -0.00052460    0.00028470    0.00000000
     atom  127 type  1   force =    -0.00037672    0.00065235    0.00000001
     atom  128 type  1   force =     0.00001570    0.00059670   -0.00000002
     atom  129 type  1   force =    -0.00062009    0.00003948   -0.00000000
     atom  130 type  1   force =     0.00077200    0.00002400   -0.00000001
     atom  131 type  1   force =    -0.00043057    0.00008569    0.00000001
     atom  132 type  1   force =     0.00043796    0.00002522   -0.00000000
     atom  133 type  1   force =    -0.00012504    0.00006031    0.00000000
     atom  134 type  1   force =    -0.00050376   -0.00003302   -0.00000000
     atom  135 type  1   force =    -0.00002111    0.00011728    0.00000000
     atom  136 type  1   force =    -0.00006502   -0.00005572   -0.00000001
     atom  137 type  1   force =    -0.00002951    0.00005110   -0.00000001
     atom  138 type  1   force =     0.00008078    0.00002845    0.00000000
     atom  139 type  1   force =    -0.00009103    0.00007689   -0.00000001
     atom  140 type  1   force =     0.00010726    0.00045626   -0.00000000
     atom  141 type  1   force =     0.00023107    0.00014974    0.00000000
     atom  142 type  1   force =    -0.00030296    0.00006695    0.00000000
     atom  143 type  1   force =     0.00012997    0.00036352    0.00000002
     atom  144 type  1   force =    -0.00030461   -0.00051861   -0.00000000
     atom  145 type  1   force =    -0.00028210    0.00061622    0.00000001
     atom  146 type  1   force =     0.00028341   -0.00049085   -0.00000002
     atom  147 type  1   force =    -0.00039260    0.00055236   -0.00000000
     atom  148 type  1   force =     0.00060145    0.00000461    0.00000001
     atom  149 type  1   force =    -0.00037984    0.00006919    0.00000001
     atom  150 type  1   force =     0.00009350    0.00029587   -0.00000000
     atom  151 type  1   force =    -0.00024523   -0.00012524   -0.00000001
     atom  152 type  1   force =    -0.00044876    0.00013524   -0.00000001
     atom  153 type  1   force =    -0.00001490   -0.00006711   -0.00000000
     atom  154 type  1   force =    -0.00010829   -0.00000809    0.00000001
     atom  155 type  1   force =     0.00002761    0.00001043   -0.00000001
     atom  156 type  1   force =     0.00000201   -0.00000348   -0.00000000
     atom  157 type  1   force =    -0.00002285   -0.00001871   -0.00000001
     atom  158 type  1   force =     0.00006115    0.00008978    0.00000001
     atom  159 type  1   force =     0.00006557   -0.00002065   -0.00000000
     atom  160 type  1   force =    -0.00001910    0.00047603   -0.00000000
     atom  161 type  1   force =     0.00013524    0.00010901    0.00000000
     atom  162 type  1   force =     0.00011707    0.00032233   -0.00000000
     atom  163 type  1   force =     0.00003957    0.00085979   -0.00000002
     atom  164 type  1   force =    -0.00006917    0.00050099    0.00000001
     atom  165 type  1   force =    -0.00049346    0.00085474   -0.00000001
     atom  166 type  1   force =    -0.00039930    0.00031038   -0.00000001
     atom  167 type  1   force =    -0.00076437    0.00039561   -0.00000000
     atom  168 type  1   force =    -0.00033766    0.00005980   -0.00000001
     atom  169 type  1   force =    -0.00016203   -0.00006265    0.00000001
     atom  170 type  1   force =    -0.00040268    0.00025458   -0.00000001
     atom  171 type  1   force =    -0.00012322   -0.00013501   -0.00000000
     atom  172 type  1   force =    -0.00006964    0.00006099    0.00000000
     atom  173 type  1   force =    -0.00003772   -0.00001955   -0.00000000
     atom  174 type  1   force =     0.00000105   -0.00001825    0.00000000
     atom  175 type  1   force =    -0.00003192    0.00005528   -0.00000000
     atom  176 type  1   force =     0.00001526   -0.00001003    0.00000000
     atom  177 type  1   force =     0.00003582    0.00002289    0.00000000
     atom  178 type  1   force =    -0.00001802    0.00009080    0.00000000
     atom  179 type  1   force =     0.00017854    0.00003920    0.00000000
     atom  180 type  1   force =    -0.00009511    0.00032331    0.00000000
     atom  181 type  1   force =    -0.00012076    0.00023511   -0.00000000
     atom  182 type  1   force =    -0.00024948    0.00094475    0.00000001
     atom  183 type  1   force =    -0.00011446    0.00007043   -0.00000000
     atom  184 type  1   force =    -0.00050804    0.00087993    0.00000001
     atom  185 type  1   force =    -0.00000376    0.00013436    0.00000000
     atom  186 type  1   force =    -0.00069343    0.00068842   -0.00000001
     atom  187 type  1   force =    -0.00014324    0.00022214   -0.00000000
     atom  188 type  1   force =    -0.00023243    0.00024406    0.00000000
     atom  189 type  1   force =    -0.00003045   -0.00008294    0.00000000
     atom  190 type  1   force =    -0.00003739    0.00001990   -0.00000001
     atom  191 type  1   force =    -0.00019252   -0.00008304    0.00000000
     atom  192 type  1   force =     0.00007948   -0.00001569    0.00000001
     atom  193 type  1   force =    -0.00022805    0.00013620    0.00000001
     atom  194 type  1   force =     0.00006171   -0.00010690   -0.00000000
     atom  195 type  1   force =    -0.00000390    0.00026557   -0.00000000
     atom  196 type  1   force =    -0.00002615   -0.00007668    0.00000001
     atom  197 type  1   force =     0.00016819    0.00012518   -0.00000000
     atom  198 type  1   force =     0.00000146    0.00004234    0.00000000
     atom  199 type  1   force =     0.00008705   -0.00001512    0.00000000

     Total force =     0.009454     Total SCF correction =     0.000003
     Energy error            =      1.1E-04 Ry
     Gradient error          =      2.8E-03 Ry/Bohr

     number of scf cycles    =   7
     number of bfgs steps    =   6

     energy             old  =   -2396.9736761708 Ry
     energy             new  =   -2396.9737875017 Ry

     CASE: energy            _new < energy            _old

     new trust radius        =       0.0046107979 bohr
     new conv_thr            =            1.1E-11 Ry


ATOMIC_POSITIONS (crystal)
C                0.0333332416        0.0333315071       -0.0000000010
C                0.0666665508        0.0666657266       -0.0000000010
C                0.0333367130        0.1333320995       -0.0000000004
C                0.0666697931        0.1666651033        0.0000000001
C                0.0333367133        0.2333311871        0.0000000003
C                0.0666665501        0.2666677231       -0.0000000001
C                0.0333332415        0.3333352508        0.0000000001
C                0.0666822079        0.3666673106        0.0000000005
C                0.0333786818        0.4333376434        0.0000000010
C                0.0667739799        0.4666478363        0.0000000012
C                0.0333534030        0.5333205045        0.0000000003
C                0.0666707325        0.5666501742       -0.0000000005
C                0.0333248870        0.6333288349        0.0000000000
C                0.0666669082        0.6666665461       -0.0000000008
C                0.0333248880        0.7333462788        0.0000000008
C                0.0666707344        0.7666790924        0.0000000010
C                0.0333534042        0.8333260919        0.0000000013
C                0.0667739825        0.8665781814       -0.0000000000
C                0.0333786826        0.9332836739       -0.0000000003
C                0.0666822088        0.9666504805       -0.0000000007
C                0.1333324206        0.0333359936       -0.0000000002
C                0.1666656177        0.0666692874        0.0000000005
C                0.1333333478        0.1333333257        0.0000000008
C                0.1666656173        0.1666650949        0.0000000015
C                0.1333324210        0.2333315852        0.0000000005
C                0.1666783174        0.2666677548        0.0000000006
C                0.1333715318        0.3333452444       -0.0000000001
C                0.1667751263        0.3666723344       -0.0000000005
C                0.1334964474        0.4333334057        0.0000000009
C                0.1669390961        0.4666447759       -0.0000000009
C                0.1333598401        0.5333158216       -0.0000000006
C                0.1665957459        0.5666997560       -0.0000000013
C                0.1332383337        0.6333808342       -0.0000000020
C                0.1665957477        0.6667044977       -0.0000000029
C                0.1333598431        0.7333243374       -0.0000000007
C                0.1669391005        0.7664161249        0.0000000003
C                0.1334964502        0.8331701434        0.0000000004
C                0.1667751302        0.8665525354        0.0000000006
C                0.1333715331        0.9332832219       -0.0000000004
C                0.1666783183        0.9666539267        0.0000000001
C                0.2333317595        0.0333358885        0.0000000010
C                0.2666682367        0.0666658814        0.0000000008
C                0.2333317595        0.1333323511        0.0000000009
C                0.2666698057        0.1666772826        0.0000000002
C                0.2333485641        0.2333458163        0.0000000004
C                0.2667315404        0.2667239801        0.0000000005
C                0.2334623127        0.3333835048       -0.0000000011
C                0.2669260660        0.3667300061       -0.0000000007
C                0.2337165428        0.4333701808       -0.0000000003
C                0.2670469941        0.4668933986       -0.0000000012
C                0.2331344760        0.5334476276       -0.0000000023
C                0.2663789169        0.5668105436       -0.0000000024
C                0.2331344767        0.6334178991       -0.0000000022
C                0.2670470008        0.6660596035       -0.0000000025
C                0.2337165480        0.7329132707        0.0000000001
C                0.2669260707        0.7663439232        0.0000000009
C                0.2334623149        0.8331541778        0.0000000004
C                0.2667315430        0.8665444759       -0.0000000011
C                0.2333485650        0.9333056181        0.0000000001
C                0.2666698062        0.9666529104        0.0000000009
C                0.3333361688        0.0333319152        0.0000000011
C                0.3666687060        0.0666834319        0.0000000009
C                0.3333490584        0.1333741145        0.0000000003
C                0.3666795501        0.1667847989       -0.0000000001
C                0.3333931707        0.2334699673        0.0000000004
C                0.3667293416        0.2669564816       -0.0000000001
C                0.3335277031        0.3335537930        0.0000000009
C                0.3669896449        0.3670930233        0.0000000022
C                0.3338991434        0.4334765833        0.0000000004
C                0.3675216162        0.4676305660        0.0000000002
C                0.3323474843        0.5338262659       -0.0000000008
C                0.3675216263        0.5648478105       -0.0000000030
C                0.3338991546        0.6326242691       -0.0000000044
C                0.3669896507        0.6659173273       -0.0000000025
C                0.3335277075        0.7329184968       -0.0000000005
C                0.3667293437        0.7663141746       -0.0000000003
C                0.3333931727        0.8331368584       -0.0000000022
C                0.3666795510        0.8665356478       -0.0000000011
C                0.3333490597        0.9332768251        0.0000000008
C                0.3666687063        0.9666478611        0.0000000009
C                0.4333394547        0.0333884561        0.0000000006
C                0.4666468664        0.0668016008       -0.0000000001
C                0.4333401775        0.1335386123       -0.0000000008
C                0.4666380935        0.1670224631       -0.0000000004
C                0.4333645473        0.2338283667        0.0000000000
C                0.4668289095        0.2672586230        0.0000000001
C                0.4333926105        0.3341727664        0.0000000016
C                0.4674713639        0.3679751979       -0.0000000005
C                0.4325318308        0.4331092958       -0.0000000025
C                0.4325318556        0.5343588347       -0.0000000017
C                0.4674713671        0.5645534323       -0.0000000016
C                0.4333926095        0.6324346180        0.0000000007
C                0.4668289117        0.6659124652        0.0000000027
C                0.4333645489        0.7328070825        0.0000000011
C                0.4666380934        0.7663394423       -0.0000000003
C                0.4333401782        0.8331212083       -0.0000000009
C                0.4666468662        0.8665515310        0.0000000001
C                0.4333394547        0.9332720883        0.0000000005
C                0.4666609931        0.9666695034        0.0000000016
C                0.5333193710        0.0333742442        0.0000000004
C                0.5666393281        0.0667127079        0.0000000009
C                0.5333046236        0.1334277377        0.0000000003
C                0.5666494036        0.1667158222       -0.0000000009
C                0.5333861160        0.2333070438       -0.0000000014
C                0.5667015391        0.2666049566       -0.0000000023
C                0.5337133919        0.3326449969       -0.0000000034
C                0.5650451213        0.3675425259       -0.0000000023
C                0.5352111315        0.4323944420       -0.0000000007
C                0.5650451239        0.4674123580       -0.0000000004
C                0.5337133842        0.5336416202       -0.0000000008
C                0.5667015374        0.5666935090       -0.0000000014
C                0.5333861146        0.6333068436       -0.0000000010
C                0.5666494027        0.6666347758       -0.0000000006
C                0.5333046245        0.7332676388       -0.0000000001
C                0.5666393278        0.7666479641        0.0000000002
C                0.5333193714        0.8333063850        0.0000000008
C                0.5666549791        0.8666666578        0.0000000011
C                0.5333323939        0.9333338035        0.0000000005
C                0.5666549792        0.9666783627        0.0000000008
C                0.6333201583        0.0333445422        0.0000000001
C                0.6666414460        0.0667060156        0.0000000010
C                0.6333352780        0.1333034775       -0.0000000000
C                0.6666370698        0.1666806003       -0.0000000004
C                0.6333436786        0.2332493615       -0.0000000001
C                0.6661219439        0.2670326346       -0.0000000012
C                0.6328227309        0.3338539493       -0.0000000025
C                0.6661324406        0.3669337837       -0.0000000011
C                0.6328227301        0.4333233281        0.0000000011
C                0.6661219445        0.4668454279        0.0000000012
C                0.6333436771        0.5334069656        0.0000000002
C                0.6666370700        0.5666823326       -0.0000000014
C                0.6333352767        0.6333612461       -0.0000000000
C                0.6666414449        0.6666525392        0.0000000008
C                0.6333201580        0.7333353001        0.0000000013
C                0.6666645815        0.7666631519        0.0000000013
C                0.6333297274        0.8333315707        0.0000000011
C                0.6666661575        0.8666669210       -0.0000000005
C                0.6333297276        0.9333387023        0.0000000007
C                0.6666645823        0.9666722661        0.0000000005
C                0.7333296187        0.0333426739        0.0000000013
C                0.7666502519        0.0666997708        0.0000000011
C                0.7332823688        0.1333957842        0.0000000006
C                0.7664279229        0.1669182460        0.0000000007
C                0.7329642001        0.2336807625       -0.0000000005
C                0.7664170774        0.2668715930       -0.0000000007
C                0.7330760991        0.3334619523        0.0000000003
C                0.7664170786        0.3667113318        0.0000000008
C                0.7329642015        0.4333550396       -0.0000000001
C                0.7664279236        0.4666538322       -0.0000000004
C                0.7332823685        0.5333218487       -0.0000000009
C                0.7666502514        0.5666499780       -0.0000000005
C                0.7333296181        0.6333277078        0.0000000004
C                0.7666611589        0.6666654907        0.0000000001
C                0.7333361971        0.7333368326        0.0000000005
C                0.7666663185        0.7666659197        0.0000000002
C                0.7333378267        0.8333310866        0.0000000002
C                0.7666663188        0.8666677612        0.0000000006
C                0.7333361971        0.9333269705        0.0000000008
C                0.7666611593        0.9666733499        0.0000000011
C                0.8333102956        0.0333667922        0.0000000008
C                0.8665828128        0.0667660476       -0.0000000006
C                0.8331841506        0.1334794454       -0.0000000001
C                0.8665734190        0.1667524037       -0.0000000005
C                0.8332010232        0.2334276370       -0.0000000001
C                0.8665741953        0.2667129030        0.0000000008
C                0.8332010237        0.3333713401        0.0000000011
C                0.8665734199        0.3666741775        0.0000000002
C                0.8331841516        0.4333364046       -0.0000000008
C                0.8665828134        0.4666511393        0.0000000005
C                0.8333102950        0.5333229127        0.0000000001
C                0.8666651968        0.5666562566        0.0000000000
C                0.8333309115        0.6333300117       -0.0000000002
C                0.8666668363        0.6666658412       -0.0000000002
C                0.8333308951        0.7333379385        0.0000000001
C                0.8666681599        0.7666659199        0.0000000013
C                0.8333308953        0.8333311664        0.0000000016
C                0.8666668367        0.8666673221        0.0000000014
C                0.8333309119        0.9333390765        0.0000000007
C                0.8666651971        0.9666785467        0.0000000006
C                0.9332889932        0.0333734670       -0.0000000006
C                0.9666547384        0.0666778283       -0.0000000005
C                0.9332940944        0.1333624713        0.0000000004
C                0.9666588038        0.1666747487       -0.0000000002
C                0.9333191074        0.2333404462       -0.0000000003
C                0.9666588040        0.2666664476        0.0000000006
C                0.9332940948        0.3333434342        0.0000000016
C                0.9666547381        0.3666674335        0.0000000009
C                0.9332889928        0.4333375400        0.0000000005
C                0.9666706782        0.4666618854        0.0000000011
C                0.9333306706        0.5333325156        0.0000000009
C                0.9666689825        0.5666567039        0.0000000005
C                0.9333367769        0.6333302812       -0.0000000003
C                0.9666658550        0.6666674743        0.0000000005
C                0.9333252688        0.7333373659        0.0000000012
C                0.9666658554        0.7666666712        0.0000000015
C                0.9333367769        0.8333329419        0.0000000015
C                0.9666689835        0.8666743131        0.0000000019
C                0.9333306709        0.9333368137        0.0000000006
C                0.9666706786        0.9666674362       -0.0000000005



     Writing config-only to output data dir /home/gregb26/links/scratch/qe_tmp/vacancy_relaxed/series/10x10/nspin1/vac_10x10_relax_nspin1.save/ :
     XML data file
     NEW-OLD atomic charge density approx. for the potential

     negative rho (up, down):  1.444E-06 0.000E+00

     total cpu time spent up to now is     1324.3 secs

     per-process dynamical memory:   458.2 Mb

     Self-consistent Calculation

     iteration #  1     ecut=   100.00 Ry     beta= 0.30
     Davidson diagonalization with overlap
     ethr =  1.00E-06,  avg # of iterations =  4.0

     Threshold (ethr) on eigenvalues was too large:
     Diagonalizing with lowered threshold

     Davidson diagonalization with overlap
     ethr =  4.64E-09,  avg # of iterations =  6.0

     negative rho (up, down):  9.417E-07 0.000E+00

     total cpu time spent up to now is     1359.0 secs

     total energy              =   -2396.97388250 Ry
     estimated scf accuracy    <       0.00005812 Ry

     iteration #  2     ecut=   100.00 Ry     beta= 0.30
     Davidson diagonalization with overlap
     ethr =  7.30E-09,  avg # of iterations =  2.0

     negative rho (up, down):  5.560E-07 0.000E+00

     total cpu time spent up to now is     1368.6 secs

     total energy              =   -2396.97388163 Ry
     estimated scf accuracy    <       0.00002127 Ry

     iteration #  3     ecut=   100.00 Ry     beta= 0.30
     Davidson diagonalization with overlap
     ethr =  2.67E-09,  avg # of iterations =  3.0

     negative rho (up, down):  2.987E-07 0.000E+00

     total cpu time spent up to now is     1378.5 secs

     total energy              =   -2396.97388042 Ry
     estimated scf accuracy    <       0.00001704 Ry

     iteration #  4     ecut=   100.00 Ry     beta= 0.30
     Davidson diagonalization with overlap
     ethr =  2.14E-09,  avg # of iterations =  5.0

     negative rho (up, down):  1.125E-07 0.000E+00

     total cpu time spent up to now is     1388.5 secs

     total energy              =   -2396.97388193 Ry
     estimated scf accuracy    <       0.00000908 Ry

     iteration #  5     ecut=   100.00 Ry     beta= 0.30
     Davidson diagonalization with overlap
     ethr =  1.14E-09,  avg # of iterations =  5.0

     negative rho (up, down):  4.953E-08 0.000E+00

     total cpu time spent up to now is     1398.4 secs

     total energy              =   -2396.97388268 Ry
     estimated scf accuracy    <       0.00000057 Ry

     iteration #  6     ecut=   100.00 Ry     beta= 0.30
     Davidson diagonalization with overlap
     ethr =  7.12E-11,  avg # of iterations =  5.0

     negative rho (up, down):  1.565E-08 0.000E+00

     total cpu time spent up to now is     1411.0 secs

     total energy              =   -2396.97388278 Ry
     estimated scf accuracy    <       0.00000023 Ry

     iteration #  7     ecut=   100.00 Ry     beta= 0.30
     Davidson diagonalization with overlap
     ethr =  2.84E-11,  avg # of iterations =  5.0

     total cpu time spent up to now is     1421.9 secs

     total energy              =   -2396.97388281 Ry
     estimated scf accuracy    <       0.00000003 Ry

     iteration #  8     ecut=   100.00 Ry     beta= 0.30
     Davidson diagonalization with overlap
     ethr =  3.55E-12,  avg # of iterations =  5.0

     total cpu time spent up to now is     1435.0 secs

     total energy              =   -2396.97388282 Ry
     estimated scf accuracy    <          8.8E-09 Ry

     iteration #  9     ecut=   100.00 Ry     beta= 0.30
     Davidson diagonalization with overlap
     ethr =  1.10E-12,  avg # of iterations =  4.0

     total cpu time spent up to now is     1445.9 secs

     total energy              =   -2396.97388282 Ry
     estimated scf accuracy    <          1.3E-09 Ry

     iteration # 10     ecut=   100.00 Ry     beta= 0.30
     Davidson diagonalization with overlap
     ethr =  1.61E-13,  avg # of iterations =  4.0

     total cpu time spent up to now is     1459.9 secs

     total energy              =   -2396.97388282 Ry
     estimated scf accuracy    <          1.6E-10 Ry

     iteration # 11     ecut=   100.00 Ry     beta= 0.30
     Davidson diagonalization with overlap
     ethr =  1.00E-13,  avg # of iterations =  2.0

     total cpu time spent up to now is     1469.5 secs

     total energy              =   -2396.97388282 Ry
     estimated scf accuracy    <          4.5E-11 Ry

     iteration # 12     ecut=   100.00 Ry     beta= 0.30
     Davidson diagonalization with overlap
     ethr =  1.00E-13,  avg # of iterations =  1.0

     total cpu time spent up to now is     1478.2 secs

     total energy              =   -2396.97388282 Ry
     estimated scf accuracy    <          1.7E-11 Ry

     iteration # 13     ecut=   100.00 Ry     beta= 0.30
     Davidson diagonalization with overlap
     ethr =  1.00E-13,  avg # of iterations =  1.0

     total cpu time spent up to now is     1487.1 secs

     End of self-consistent calculation

          k = 0.0000 0.0000 0.0000 (476289 PWs)   bands (ev):

   -23.7950 -23.5875 -23.5816 -23.5557 -23.5480 -23.5470 -23.5449 -23.1312
   -23.1254 -23.0938 -23.0933 -23.0819 -23.0399 -22.8807 -22.8780 -22.8624
   -22.8611 -22.8548 -22.7782 -22.2217 -22.2155 -22.1958 -22.1955 -22.1760
   -22.1605 -22.1515 -22.1509 -22.1443 -22.1442 -22.1430 -21.9981 -21.7167
   -21.7165 -21.7134 -21.7081 -21.7075 -21.5726 -21.0501 -21.0494 -21.0301
   -21.0235 -21.0217 -20.9458 -20.8264 -20.8261 -20.8162 -20.8000 -20.7974
   -20.7936 -20.7891 -20.7888 -20.7831 -20.7821 -20.7807 -20.5115 -20.1431
   -20.1421 -20.1407 -20.1161 -20.1150 -19.9784 -19.5306 -19.5303 -19.5126
   -19.4679 -19.4660 -19.4598 -19.4567 -19.4555 -19.4551 -19.4509 -19.4499
   -19.2890 -19.1088 -19.1075 -19.0871 -19.0604 -19.0573 -19.0553 -19.0521
   -19.0521 -19.0500 -19.0368 -19.0355 -18.7079 -18.5711 -18.5698 -18.4039
   -17.9977 -17.9767 -17.9755 -17.9549 -17.9547 -17.8845 -17.8542 -17.8479
   -17.8477 -17.8248 -17.8246 -17.6534 -17.5061 -17.5054 -17.3157 -16.9945
   -16.9944 -16.9901 -16.9344 -16.9337 -16.8578 -16.6858 -16.6835 -16.6825
   -16.6556 -16.6555 -16.6543 -16.6366 -16.6352 -16.6345 -16.5602 -16.5581
   -16.3681 -16.2046 -16.1420 -16.1399 -16.1289 -16.1284 -15.8496 -15.6496
   -15.6431 -15.6416 -15.5728 -15.5725 -15.4602 -15.2729 -15.2509 -15.2490
   -15.2431 -15.2425 -15.2297 -15.2214 -15.2214 -15.2209 -15.1339 -15.1332
   -14.6419 -14.4809 -14.4803 -14.4592 -14.4494 -14.4456 -14.4454 -14.3230
   -14.3126 -14.3105 -14.2732 -14.2653 -14.2640 -14.2640 -14.2639 -14.2612
   -14.1165 -14.1157 -13.6412 -13.2682 -13.2651 -13.2568 -13.2335 -13.2332
   -13.1762 -13.1725 -13.1428 -13.1427 -13.1049 -13.1032 -13.0981 -13.0794
   -13.0596 -13.0585 -12.9869 -12.9859 -12.9018 -12.8951 -12.8450 -12.8441
   -12.8329 -12.8327 -12.8250 -12.8181 -12.8177 -12.8141 -12.6088 -12.6083
   -12.1971 -11.8758 -11.8556 -11.8503 -11.8392 -11.8345 -11.7800 -11.7794
   -11.7679 -11.7668 -11.7571 -11.7454 -11.7432 -11.7431 -11.7379 -11.7375
   -11.7369 -11.6325 -11.6309 -11.6184 -11.6141 -11.5894 -11.5885 -11.5876
   -11.5740 -11.5135 -11.4628 -11.4179 -11.4168 -11.3824 -11.3793 -11.3775
   -11.3765 -11.3765 -11.3712 -11.2243 -11.2223 -11.0690 -11.0648 -11.0412
   -11.0408 -11.0337 -11.0111 -10.9921 -10.9823 -10.9585 -10.9553 -10.9213
   -10.9208 -10.9178 -10.9125 -10.9115 -10.8965 -10.7848 -10.7824 -10.7812
   -10.7784 -10.7674 -10.7662 -10.7623 -10.7290 -10.6776 -10.6729 -10.6726
   -10.6329 -10.5176 -10.5141 -10.5125 -10.4777 -10.4762 -10.4731 -10.4482
   -10.4304 -10.4299 -10.2585 -10.2553 -10.0880 -10.0821 -10.0404 -10.0391
    -9.9996  -9.9959  -9.9956  -9.9940  -9.9915  -9.9867  -9.9861  -9.9741
    -9.9736  -9.9729  -9.9592  -9.9474  -9.9406  -9.9401  -9.9354  -9.9346
    -9.9338  -9.8607  -9.8598  -9.8311  -9.8259  -9.8247  -9.7975  -9.7826
    -9.7724  -9.7018  -9.7002  -9.6089  -9.6088  -9.5819  -9.4406  -9.4391
    -9.4331  -9.4299  -9.4288  -9.3016  -9.1713  -9.1703  -8.8834  -8.8539
    -8.8527  -8.8132  -8.8029  -8.7665  -8.7661  -8.7525  -8.7522  -8.7475
    -8.6577  -8.6556  -8.6510  -8.6510  -8.6424  -8.5706  -8.5697  -8.4369
    -8.4345  -8.4302  -8.4281  -8.4224  -8.4210  -8.4204  -8.4051  -8.4024
    -8.4021  -8.3992  -8.3973  -8.3963  -8.2435  -8.2430  -8.2297  -8.1487
    -7.9423  -7.9409  -7.8855  -7.8144  -7.8055  -7.8046  -7.7778  -7.7576
    -7.7575  -7.7508  -7.7465  -7.7461  -7.6012  -7.3731  -7.3723  -7.0151
    -7.0131  -6.9955  -6.9953  -6.9911  -6.9602  -6.9572  -6.9571  -6.9557
    -6.9529  -6.9526  -6.8802  -6.8112  -6.8107  -6.7693  -6.7674  -6.7668
    -6.7651  -6.7644  -6.7638  -6.7554  -6.7550  -6.7544  -6.6354  -6.6232
    -6.6223  -6.1307  -5.7815  -5.7812  -5.7695  -5.7590  -5.7590  -5.5116
    -5.2979  -5.2930  -5.2928  -5.2786  -5.2786  -4.6859  -4.4451  -4.3800
    -3.2927  -3.2384  -3.2371  -3.2304  -3.2303  -3.1495  -2.9713  -2.9660
    -2.9654  -2.9370  -2.9368  -2.7948  -2.5653  -2.5648  -2.4872  -2.2170
    -2.2164  -2.2137  -2.2005  -2.2003  -2.1792  -2.1752  -2.1748  -2.1737
    -2.1525  -2.1521  -1.9042  -1.6252

     the Fermi energy is    -4.5739 ev

!    total energy              =   -2396.97388282 Ry
     estimated scf accuracy    <          6.5E-12 Ry
     smearing contrib. (-TS)   =      -0.00012305 Ry
     internal energy E=F+TS    =   -2396.97375977 Ry

     The total energy is F=E-TS. E is the sum of the following terms:
     one-electron contribution =  -27163.80420593 Ry
     hartree contribution      =   13655.87700202 Ry
     xc contribution           =    -852.90648102 Ry
     ewald contribution        =   11963.85992516 Ry

     convergence has been achieved in  13 iterations

     Forces acting on atoms (cartesian axes, Ry/au):

     atom    1 type  1   force =    -0.00020709   -0.00009078    0.00000000
     atom    2 type  1   force =    -0.00006225   -0.00002410    0.00000000
     atom    3 type  1   force =    -0.00011937    0.00014373    0.00000000
     atom    4 type  1   force =    -0.00005951    0.00010305   -0.00000000
     atom    5 type  1   force =    -0.00006479    0.00017526   -0.00000000
     atom    6 type  1   force =     0.00005199    0.00004180    0.00000000
     atom    7 type  1   force =     0.00018217    0.00013400    0.00000000
     atom    8 type  1   force =     0.00069164   -0.00038359   -0.00000000
     atom    9 type  1   force =    -0.00026731    0.00000253    0.00000000
     atom   10 type  1   force =     0.00017628   -0.00004914   -0.00000000
     atom   11 type  1   force =    -0.00011160   -0.00012940    0.00000000
     atom   12 type  1   force =     0.00034456   -0.00003444    0.00000001
     atom   13 type  1   force =    -0.00015623    0.00008564   -0.00000000
     atom   14 type  1   force =    -0.00015082    0.00026127    0.00000000
     atom   15 type  1   force =     0.00000392    0.00017811   -0.00000000
     atom   16 type  1   force =    -0.00014243   -0.00031562    0.00000000
     atom   17 type  1   force =     0.00016785    0.00003193   -0.00000000
     atom   18 type  1   force =    -0.00004557   -0.00017718    0.00000000
     atom   19 type  1   force =     0.00013146    0.00023274   -0.00000000
     atom   20 type  1   force =    -0.00001363   -0.00079078   -0.00000000
     atom   21 type  1   force =    -0.00014760   -0.00025684   -0.00000000
     atom   22 type  1   force =    -0.00007204   -0.00012961    0.00000000
     atom   23 type  1   force =     0.00000897   -0.00001550    0.00000000
     atom   24 type  1   force =     0.00014825   -0.00000245   -0.00000000
     atom   25 type  1   force =     0.00029621   -0.00000055   -0.00000000
     atom   26 type  1   force =     0.00096569   -0.00024377   -0.00000000
     atom   27 type  1   force =     0.00058047   -0.00021650    0.00000000
     atom   28 type  1   force =     0.00024751    0.00008511    0.00000001
     atom   29 type  1   force =     0.00005924   -0.00029723   -0.00000001
     atom   30 type  1   force =    -0.00006554    0.00075590    0.00000001
     atom   31 type  1   force =     0.00000487   -0.00002438   -0.00000000
     atom   32 type  1   force =     0.00044234   -0.00005211   -0.00000000
     atom   33 type  1   force =    -0.00008406    0.00014552    0.00000001
     atom   34 type  1   force =    -0.00017601   -0.00040906    0.00000001
     atom   35 type  1   force =     0.00001863   -0.00001637    0.00000000
     atom   36 type  1   force =    -0.00062188    0.00043471   -0.00000000
     atom   37 type  1   force =     0.00022784   -0.00019991    0.00000000
     atom   38 type  1   force =    -0.00019751   -0.00017170   -0.00000000
     atom   39 type  1   force =    -0.00010273   -0.00061099    0.00000001
     atom   40 type  1   force =    -0.00027176   -0.00095819   -0.00000000
     atom   41 type  1   force =    -0.00011837   -0.00028376   -0.00000000
     atom   42 type  1   force =     0.00004285   -0.00007424    0.00000000
     atom   43 type  1   force =     0.00030493   -0.00003935    0.00000000
     atom   44 type  1   force =     0.00100754    0.00019470    0.00000000
     atom   45 type  1   force =     0.00099996   -0.00001634    0.00000000
     atom   46 type  1   force =     0.00028366    0.00005753   -0.00000001
     atom   47 type  1   force =     0.00073939   -0.00024007    0.00000001
     atom   48 type  1   force =     0.00026397    0.00057516    0.00000001
     atom   49 type  1   force =    -0.00036414    0.00036600   -0.00000001
     atom   50 type  1   force =     0.00020119   -0.00024107    0.00000000
     atom   51 type  1   force =     0.00029565    0.00019218    0.00000000
     atom   52 type  1   force =     0.00033676   -0.00058326    0.00000000
     atom   53 type  1   force =    -0.00031432   -0.00016001   -0.00000001
     atom   54 type  1   force =     0.00010824   -0.00029482    0.00000000
     atom   55 type  1   force =    -0.00013483    0.00049843   -0.00000000
     atom   56 type  1   force =    -0.00063016    0.00005897   -0.00000000
     atom   57 type  1   force =    -0.00016168   -0.00076039   -0.00000000
     atom   58 type  1   force =    -0.00019167   -0.00021681    0.00000000
     atom   59 type  1   force =    -0.00048585   -0.00087421    0.00000000
     atom   60 type  1   force =    -0.00067237   -0.00077522   -0.00000000
     atom   61 type  1   force =     0.00013956   -0.00024172   -0.00000000
     atom   62 type  1   force =     0.00076923    0.00040248   -0.00000000
     atom   63 type  1   force =     0.00070431    0.00020078   -0.00000000
     atom   64 type  1   force =     0.00029979   -0.00001892   -0.00000000
     atom   65 type  1   force =     0.00081674    0.00032833   -0.00000000
     atom   66 type  1   force =     0.00024201   -0.00028895    0.00000000
     atom   67 type  1   force =    -0.00035376    0.00009312   -0.00000000
     atom   68 type  1   force =    -0.00042377   -0.00016748   -0.00000001
     atom   69 type  1   force =     0.00012290    0.00006312    0.00000000
     atom   70 type  1   force =     0.00056634   -0.00065065   -0.00000000
     atom   71 type  1   force =     0.00032728   -0.00056764   -0.00000000
     atom   72 type  1   force =     0.00028093   -0.00081602    0.00000000
     atom   73 type  1   force =    -0.00011650   -0.00007483    0.00000000
     atom   74 type  1   force =     0.00035692    0.00028337    0.00000001
     atom   75 type  1   force =     0.00009641    0.00035307   -0.00000000
     atom   76 type  1   force =     0.00012911   -0.00035412   -0.00000000
     atom   77 type  1   force =    -0.00069269   -0.00054313    0.00000001
     atom   78 type  1   force =    -0.00013346   -0.00026905   -0.00000000
     atom   79 type  1   force =    -0.00052607   -0.00050955   -0.00000000
     atom   80 type  1   force =    -0.00073317   -0.00046494   -0.00000000
     atom   81 type  1   force =    -0.00021739   -0.00004722    0.00000000
     atom   82 type  1   force =     0.00018974    0.00005901   -0.00000000
     atom   83 type  1   force =     0.00014552    0.00033986    0.00000000
     atom   84 type  1   force =    -0.00022777   -0.00068845    0.00000000
     atom   85 type  1   force =    -0.00045662   -0.00024265   -0.00000000
     atom   86 type  1   force =     0.00026987    0.00015544    0.00000000
     atom   87 type  1   force =    -0.00009998   -0.00001718   -0.00000000
     atom   88 type  1   force =     0.00068637    0.00074967   -0.00000001
     atom   89 type  1   force =     0.00196559   -0.00011969    0.00000001
     atom   90 type  1   force =    -0.00087912   -0.00176203    0.00000000
     atom   91 type  1   force =    -0.00099294   -0.00021918    0.00000000
     atom   92 type  1   force =     0.00006518    0.00007774   -0.00000001
     atom   93 type  1   force =    -0.00026973   -0.00015588   -0.00000001
     atom   94 type  1   force =     0.00043851    0.00027417   -0.00000000
     atom   95 type  1   force =     0.00071010   -0.00014702   -0.00000000
     atom   96 type  1   force =    -0.00036712    0.00004391    0.00000000
     atom   97 type  1   force =    -0.00014589   -0.00013480   -0.00000000
     atom   98 type  1   force =     0.00014959    0.00016464    0.00000001
     atom   99 type  1   force =    -0.00002937    0.00005085   -0.00000001
     atom  100 type  1   force =     0.00007470    0.00022309    0.00000000
     atom  101 type  1   force =     0.00038807    0.00010572   -0.00000001
     atom  102 type  1   force =     0.00015848    0.00021926   -0.00000000
     atom  103 type  1   force =     0.00045570    0.00003458    0.00000000
     atom  104 type  1   force =     0.00010011   -0.00030179   -0.00000000
     atom  105 type  1   force =     0.00048874    0.00042930    0.00000000
     atom  106 type  1   force =     0.00028959    0.00057870    0.00000000
     atom  107 type  1   force =    -0.00001234    0.00084368   -0.00000000
     atom  108 type  1   force =    -0.00095344    0.00165112    0.00000000
     atom  109 type  1   force =    -0.00072432    0.00043264   -0.00000000
     atom  110 type  1   force =    -0.00064575    0.00003816   -0.00000001
     atom  111 type  1   force =    -0.00061619   -0.00020860    0.00000001
     atom  112 type  1   force =     0.00021131   -0.00023769    0.00000001
     atom  113 type  1   force =    -0.00025776   -0.00037737   -0.00000000
     atom  114 type  1   force =    -0.00026915   -0.00002756    0.00000000
     atom  115 type  1   force =    -0.00028556   -0.00028322    0.00000000
     atom  116 type  1   force =    -0.00023061    0.00004686    0.00000000
     atom  117 type  1   force =    -0.00055158   -0.00010653    0.00000000
     atom  118 type  1   force =    -0.00014822    0.00025668    0.00000001
     atom  119 type  1   force =     0.00036811    0.00042445   -0.00000000
     atom  120 type  1   force =    -0.00002227    0.00011662    0.00000001
     atom  121 type  1   force =    -0.00012286   -0.00017838   -0.00000001
     atom  122 type  1   force =     0.00009528    0.00002516   -0.00000000
     atom  123 type  1   force =     0.00007616    0.00026628    0.00000001
     atom  124 type  1   force =    -0.00017397   -0.00010387   -0.00000001
     atom  125 type  1   force =     0.00032339    0.00045502    0.00000000
     atom  126 type  1   force =    -0.00008460    0.00012602    0.00000000
     atom  127 type  1   force =     0.00009498   -0.00016455    0.00000001
     atom  128 type  1   force =    -0.00006682    0.00013617   -0.00000001
     atom  129 type  1   force =    -0.00055581   -0.00005261   -0.00000000
     atom  130 type  1   force =     0.00017693    0.00009871   -0.00000001
     atom  131 type  1   force =    -0.00026871    0.00006721    0.00000001
     atom  132 type  1   force =    -0.00006940   -0.00006994   -0.00000001
     atom  133 type  1   force =     0.00021595    0.00001720   -0.00000000
     atom  134 type  1   force =    -0.00008987    0.00007759   -0.00000000
     atom  135 type  1   force =    -0.00048977    0.00002462    0.00000000
     atom  136 type  1   force =    -0.00012908    0.00013013   -0.00000000
     atom  137 type  1   force =    -0.00002469    0.00004281    0.00000001
     atom  138 type  1   force =    -0.00004819    0.00017683   -0.00000000
     atom  139 type  1   force =     0.00022358    0.00043651    0.00000000
     atom  140 type  1   force =    -0.00000239    0.00004570   -0.00000000
     atom  141 type  1   force =    -0.00016840    0.00018369    0.00000000
     atom  142 type  1   force =     0.00006903    0.00010970   -0.00000000
     atom  143 type  1   force =    -0.00038732   -0.00042351   -0.00000001
     atom  144 type  1   force =     0.00005220   -0.00047486   -0.00000000
     atom  145 type  1   force =    -0.00028651    0.00000056    0.00000001
     atom  146 type  1   force =     0.00017304   -0.00029969   -0.00000001
     atom  147 type  1   force =     0.00014273    0.00024843   -0.00000000
     atom  148 type  1   force =     0.00038513   -0.00028259    0.00000001
     atom  149 type  1   force =     0.00056048    0.00012369   -0.00000001
     atom  150 type  1   force =    -0.00012954   -0.00000496   -0.00000000
     atom  151 type  1   force =    -0.00007485    0.00023769    0.00000000
     atom  152 type  1   force =    -0.00003837    0.00002493   -0.00000000
     atom  153 type  1   force =    -0.00043826    0.00001452    0.00000000
     atom  154 type  1   force =    -0.00010466    0.00003257    0.00000000
     atom  155 type  1   force =    -0.00007880    0.00000309    0.00000000
     atom  156 type  1   force =    -0.00002977    0.00005154   -0.00000000
     atom  157 type  1   force =     0.00003674    0.00006981    0.00000000
     atom  158 type  1   force =     0.00002412    0.00010689   -0.00000000
     atom  159 type  1   force =     0.00020657    0.00038682    0.00000000
     atom  160 type  1   force =     0.00009637    0.00003530   -0.00000000
     atom  161 type  1   force =    -0.00006026    0.00015938    0.00000001
     atom  162 type  1   force =     0.00015975    0.00028282    0.00000000
     atom  163 type  1   force =    -0.00018172    0.00005251    0.00000001
     atom  164 type  1   force =    -0.00009199    0.00065329    0.00000000
     atom  165 type  1   force =    -0.00005059    0.00008758   -0.00000001
     atom  166 type  1   force =    -0.00051972    0.00040632   -0.00000001
     atom  167 type  1   force =     0.00004537    0.00018364    0.00000000
     atom  168 type  1   force =    -0.00032484    0.00000306    0.00000001
     atom  169 type  1   force =    -0.00010788    0.00013192   -0.00000001
     atom  170 type  1   force =    -0.00007875   -0.00006583    0.00000000
     atom  171 type  1   force =    -0.00044348    0.00012308    0.00000000
     atom  172 type  1   force =    -0.00011032   -0.00006801   -0.00000000
     atom  173 type  1   force =    -0.00006327    0.00000142    0.00000000
     atom  174 type  1   force =    -0.00003040   -0.00002890    0.00000000
     atom  175 type  1   force =     0.00001432   -0.00002476   -0.00000000
     atom  176 type  1   force =     0.00004022    0.00001187   -0.00000000
     atom  177 type  1   force =     0.00003040    0.00005552    0.00000000
     atom  178 type  1   force =     0.00011406    0.00006155    0.00000000
     atom  179 type  1   force =     0.00011514    0.00044560    0.00000000
     atom  180 type  1   force =     0.00008001   -0.00025265   -0.00000000
     atom  181 type  1   force =    -0.00003601    0.00066044    0.00000000
     atom  182 type  1   force =    -0.00012339    0.00047872   -0.00000001
     atom  183 type  1   force =    -0.00025527    0.00078998    0.00000000
     atom  184 type  1   force =    -0.00040202    0.00069636    0.00000001
     atom  185 type  1   force =    -0.00055653    0.00061605    0.00000000
     atom  186 type  1   force =    -0.00035288    0.00034622   -0.00000001
     atom  187 type  1   force =    -0.00055395    0.00036139   -0.00000000
     atom  188 type  1   force =     0.00017882   -0.00019564    0.00000000
     atom  189 type  1   force =    -0.00000910   -0.00003130   -0.00000000
     atom  190 type  1   force =    -0.00018425   -0.00019961   -0.00000000
     atom  191 type  1   force =     0.00026653   -0.00030932   -0.00000000
     atom  192 type  1   force =    -0.00016898   -0.00004120    0.00000001
     atom  193 type  1   force =     0.00012437   -0.00028242   -0.00000000
     atom  194 type  1   force =    -0.00003251    0.00005631   -0.00000000
     atom  195 type  1   force =     0.00018239   -0.00024892   -0.00000000
     atom  196 type  1   force =     0.00012020    0.00012573    0.00000001
     atom  197 type  1   force =     0.00013461   -0.00038546   -0.00000001
     atom  198 type  1   force =     0.00026499    0.00005975   -0.00000000
     atom  199 type  1   force =     0.00003166   -0.00000778    0.00000000

     Total force =     0.007249     Total SCF correction =     0.000004
     Energy error            =      9.5E-05 Ry
     Gradient error          =      2.0E-03 Ry/Bohr

     number of scf cycles    =   8
     number of bfgs steps    =   7

     energy             old  =   -2396.9737875017 Ry
     energy             new  =   -2396.9738828175 Ry

     CASE: energy            _new < energy            _old

     new trust radius        =       0.0063474636 bohr
     new conv_thr            =            9.5E-12 Ry


ATOMIC_POSITIONS (crystal)
C                0.0333321904        0.0333236092       -0.0000000009
C                0.0666661095        0.0666631741       -0.0000000009
C                0.0333290926        0.1333349814       -0.0000000003
C                0.0666657602        0.1666671197        0.0000000004
C                0.0333290925        0.2333359262        0.0000000003
C                0.0666661099        0.2666707156        0.0000000000
C                0.0333321893        0.3333442009       -0.0000000000
C                0.0667139355        0.3666700134        0.0000000006
C                0.0333889325        0.4333366505        0.0000000016
C                0.0668068168        0.4666424533        0.0000000014
C                0.0333636883        0.5333089111        0.0000000005
C                0.0666859070        0.5666468416       -0.0000000001
C                0.0333204879        0.6333238618       -0.0000000002
C                0.0666504277        0.6666747870       -0.0000000008
C                0.0333204888        0.7333556506        0.0000000009
C                0.0666859095        0.7666672514        0.0000000012
C                0.0333636903        0.8333273995        0.0000000010
C                0.0668068192        0.8665507284        0.0000000005
C                0.0333889345        0.9332744148       -0.0000000004
C                0.0667139365        0.9666160496       -0.0000000010
C                0.1333387085        0.0333238112       -0.0000000005
C                0.1666685605        0.0666638189        0.0000000004
C                0.1333339530        0.1333330235        0.0000000011
C                0.1666685605        0.1666676199        0.0000000014
C                0.1333387073        0.2333374806        0.0000000005
C                0.1667074434        0.2666811982        0.0000000005
C                0.1334098014        0.3333572254        0.0000000002
C                0.1668273248        0.3666789065       -0.0000000003
C                0.1335404810        0.4333249718        0.0000000005
C                0.1669502954        0.4666634666       -0.0000000009
C                0.1333714321        0.5333131739       -0.0000000004
C                0.1665869490        0.5667226224       -0.0000000018
C                0.1332170842        0.6333914582       -0.0000000017
C                0.1665869491        0.6666904309       -0.0000000024
C                0.1333714336        0.7333153937       -0.0000000004
C                0.1669502992        0.7663862346       -0.0000000002
C                0.1335404854        0.8331345436        0.0000000006
C                0.1668273265        0.8664937658        0.0000000008
C                0.1334098046        0.9332329698       -0.0000000000
C                0.1667074440        0.9666113569       -0.0000000002
C                0.2333392448        0.0333233441        0.0000000011
C                0.2666723185        0.0666638403        0.0000000012
C                0.2333392441        0.1333374107        0.0000000009
C                0.2666865563        0.1667049860        0.0000000004
C                0.2333811543        0.2333759121        0.0000000003
C                0.2667653256        0.2667584404        0.0000000001
C                0.2335286026        0.3334111187       -0.0000000005
C                0.2669576040        0.3667759198       -0.0000000003
C                0.2337324370        0.4333919790       -0.0000000004
C                0.2670525683        0.4669281096       -0.0000000013
C                0.2331217861        0.5334775921       -0.0000000016
C                0.2663956346        0.5668021857       -0.0000000024
C                0.2331217864        0.6334006231       -0.0000000032
C                0.2670525776        0.6660193186       -0.0000000024
C                0.2337324407        0.7328755821        0.0000000003
C                0.2669576069        0.7662664715        0.0000000006
C                0.2335286072        0.8330602746        0.0000000009
C                0.2667653265        0.8664762314       -0.0000000009
C                0.2333811567        0.9332429296       -0.0000000001
C                0.2666865578        0.9666084557        0.0000000007
C                0.3333481625        0.0333259183        0.0000000007
C                0.3666730606        0.0667173871        0.0000000008
C                0.3333657425        0.1334156745        0.0000000001
C                0.3666879403        0.1668442572        0.0000000001
C                0.3334218111        0.2335441682       -0.0000000001
C                0.3667610582        0.2670081675        0.0000000004
C                0.3335568496        0.3336004701        0.0000000004
C                0.3670141949        0.3671282320        0.0000000020
C                0.3339068303        0.4335173013       -0.0000000003
C                0.3675616879        0.4676280011        0.0000000002
C                0.3323743448        0.5338128255       -0.0000000006
C                0.3675617121        0.5648103057       -0.0000000034
C                0.3339068362        0.6325758595       -0.0000000051
C                0.3670141974        0.6658575719       -0.0000000015
C                0.3335568523        0.7328426810       -0.0000000009
C                0.3667610605        0.7662307693        0.0000000007
C                0.3334218127        0.8330340183       -0.0000000019
C                0.3666879411        0.8664678004       -0.0000000013
C                0.3333657432        0.9332185803        0.0000000006
C                0.3666730611        0.9666095508        0.0000000008
C                0.4333417149        0.0334017513        0.0000000008
C                0.4666410698        0.0668441530       -0.0000000006
C                0.4333342621        0.1335951123       -0.0000000006
C                0.4666494473        0.1670487564       -0.0000000008
C                0.4333759960        0.2338607234       -0.0000000009
C                0.4668543115        0.2672809117        0.0000000002
C                0.4334175851        0.3341904057        0.0000000019
C                0.4674799208        0.3680029951       -0.0000000012
C                0.4326017418        0.4331575349       -0.0000000027
C                0.4326017687        0.5342406767       -0.0000000020
C                0.4674799057        0.5645170795       -0.0000000009
C                0.4334175938        0.6323920019       -0.0000000006
C                0.4668543082        0.6658647742        0.0000000022
C                0.4333759975        0.7327632797        0.0000000009
C                0.4666494482        0.7663017949       -0.0000000008
C                0.4333342618        0.8330706234       -0.0000000006
C                0.4666410705        0.8665147763       -0.0000000003
C                0.4333417156        0.9332565319        0.0000000008
C                0.4666553842        0.9666723075        0.0000000015
C                0.5333075887        0.0334001166        0.0000000004
C                0.5666298761        0.0667466444        0.0000000004
C                0.5332947165        0.1334655785        0.0000000002
C                0.5666607961        0.1667314486       -0.0000000003
C                0.5334082564        0.2333121636       -0.0000000011
C                0.5667075967        0.2666261141       -0.0000000024
C                0.5337119693        0.3326671615       -0.0000000032
C                0.5650043664        0.3675866886       -0.0000000030
C                0.5350538406        0.4324730839       -0.0000000011
C                0.5650043705        0.4674089523       -0.0000000004
C                0.5337119744        0.5336208711       -0.0000000011
C                0.5667075935        0.5666662944       -0.0000000008
C                0.5334082580        0.6332795820       -0.0000000004
C                0.5666607962        0.6666077575       -0.0000000008
C                0.5332947157        0.7332397064        0.0000000002
C                0.5666298762        0.7666234800        0.0000000004
C                0.5333075883        0.8332922942        0.0000000012
C                0.5666440807        0.8666537198        0.0000000011
C                0.5333204563        0.9333397718        0.0000000005
C                0.5666440810        0.9667022010        0.0000000008
C                0.6333069830        0.0333589011        0.0000000005
C                0.6666371364        0.0667089284        0.0000000006
C                0.6333316470        0.1333094402       -0.0000000002
C                0.6666261263        0.1666831085        0.0000000001
C                0.6333411798        0.2332431805       -0.0000000003
C                0.6660884980        0.2670576564       -0.0000000014
C                0.6327801590        0.3338753165       -0.0000000027
C                0.6660901361        0.3669549353       -0.0000000012
C                0.6327801617        0.4333445293        0.0000000000
C                0.6660884982        0.4668538509        0.0000000007
C                0.6333411779        0.5334156462       -0.0000000003
C                0.6666261254        0.5666907690       -0.0000000009
C                0.6333316458        0.6333589153       -0.0000000002
C                0.6666371358        0.6666539369        0.0000000009
C                0.6333069823        0.7333341163        0.0000000011
C                0.6666525915        0.7666555703        0.0000000016
C                0.6333208715        0.8333340214        0.0000000006
C                0.6666632632        0.8666683687       -0.0000000004
C                0.6333208718        0.9333451068        0.0000000009
C                0.6666525913        0.9666918392        0.0000000003
C                0.7333235389        0.0333540126        0.0000000015
C                0.7666342676        0.0667177871        0.0000000014
C                0.7332661937        0.1334154663        0.0000000006
C                0.7664014798        0.1669322713        0.0000000010
C                0.7329355576        0.2337008189       -0.0000000010
C                0.7663613708        0.2669007577        0.0000000000
C                0.7330268827        0.3334865614        0.0000000001
C                0.7663613711        0.3667378745        0.0000000007
C                0.7329355580        0.4333636268        0.0000000006
C                0.7664014809        0.4666662513       -0.0000000002
C                0.7332661935        0.5333183413       -0.0000000012
C                0.7666342673        0.5666479467       -0.0000000009
C                0.7333235378        0.6333224499        0.0000000004
C                0.7666523329        0.6666564401       -0.0000000002
C                0.7333324123        0.7333352995        0.0000000007
C                0.7666648176        0.7666645284        0.0000000003
C                0.7333354546        0.8333322724        0.0000000004
C                0.7666648174        0.8666706546        0.0000000005
C                0.7333324130        0.9333322877        0.0000000005
C                0.7666523333        0.9666912272        0.0000000011
C                0.8333024450        0.0333824452        0.0000000007
C                0.8665564768        0.0667953269       -0.0000000003
C                0.8331471194        0.1335204650       -0.0000000002
C                0.8665268458        0.1667915891       -0.0000000011
C                0.8331264435        0.2334808787        0.0000000001
C                0.8665252251        0.2667373874        0.0000000005
C                0.8331264447        0.3333926795        0.0000000003
C                0.8665268464        0.3666815655        0.0000000007
C                0.8331471202        0.4333324156       -0.0000000011
C                0.8665564766        0.4666481975        0.0000000006
C                0.8333024450        0.5333151100       -0.0000000001
C                0.8666533460        0.5666487471        0.0000000002
C                0.8333313623        0.6333237036       -0.0000000001
C                0.8666660064        0.6666636723       -0.0000000002
C                0.8333312052        0.7333363111        0.0000000001
C                0.8666693173        0.7666653415        0.0000000010
C                0.8333312054        0.8333324834        0.0000000018
C                0.8666660065        0.8666703212        0.0000000016
C                0.8333313626        0.9333449342        0.0000000008
C                0.8666533462        0.9666979072        0.0000000007
C                0.9332816470        0.0333798811       -0.0000000005
C                0.9666266683        0.0667023796       -0.0000000004
C                0.9332531967        0.1333915733        0.0000000006
C                0.9666245438        0.1666968156       -0.0000000000
C                0.9332703934        0.2333648037        0.0000000006
C                0.9666245440        0.2666786402        0.0000000007
C                0.9332531973        0.3333552301        0.0000000014
C                0.9666266682        0.3666709523        0.0000000007
C                0.9332816475        0.4333384719        0.0000000008
C                0.9666736399        0.4666580421        0.0000000014
C                0.9333325400        0.5333219801        0.0000000007
C                0.9666823942        0.5666488090        0.0000000005
C                0.9333354725        0.6333239826        0.0000000005
C                0.9666745136        0.6666604363        0.0000000008
C                0.9333232951        0.7333383529        0.0000000009
C                0.9666745139        0.7666650506        0.0000000016
C                0.9333354733        0.8333405451        0.0000000021
C                0.9666823949        0.8666687968        0.0000000017
C                0.9333325406        0.9333454796        0.0000000008
C                0.9666736409        0.9666683176       -0.0000000002



     Writing config-only to output data dir /home/gregb26/links/scratch/qe_tmp/vacancy_relaxed/series/10x10/nspin1/vac_10x10_relax_nspin1.save/ :
     XML data file
     NEW-OLD atomic charge density approx. for the potential

     negative rho (up, down):  1.430E-06 0.000E+00

     total cpu time spent up to now is     1492.1 secs

     per-process dynamical memory:   458.2 Mb

     Self-consistent Calculation

     iteration #  1     ecut=   100.00 Ry     beta= 0.30
     Davidson diagonalization with overlap
     ethr =  1.00E-06,  avg # of iterations =  4.0

     Threshold (ethr) on eigenvalues was too large:
     Diagonalizing with lowered threshold

     Davidson diagonalization with overlap
     ethr =  4.26E-09,  avg # of iterations =  6.0

     negative rho (up, down):  9.329E-07 0.000E+00

     total cpu time spent up to now is     1527.5 secs

     total energy              =   -2396.97394680 Ry
     estimated scf accuracy    <       0.00005442 Ry

     iteration #  2     ecut=   100.00 Ry     beta= 0.30
     Davidson diagonalization with overlap
     ethr =  6.84E-09,  avg # of iterations =  2.0

     negative rho (up, down):  6.001E-07 0.000E+00

     total cpu time spent up to now is     1537.3 secs

     total energy              =   -2396.97394474 Ry
     estimated scf accuracy    <       0.00002450 Ry

     iteration #  3     ecut=   100.00 Ry     beta= 0.30
     Davidson diagonalization with overlap
     ethr =  3.08E-09,  avg # of iterations =  5.0

     negative rho (up, down):  2.949E-07 0.000E+00

     total cpu time spent up to now is     1547.7 secs

     total energy              =   -2396.97394321 Ry
     estimated scf accuracy    <       0.00003371 Ry

     iteration #  4     ecut=   100.00 Ry     beta= 0.30
     Davidson diagonalization with overlap
     ethr =  3.08E-09,  avg # of iterations =  5.0

     negative rho (up, down):  9.541E-08 0.000E+00

     total cpu time spent up to now is     1557.7 secs

     total energy              =   -2396.97394628 Ry
     estimated scf accuracy    <       0.00000375 Ry

     iteration #  5     ecut=   100.00 Ry     beta= 0.30
     Davidson diagonalization with overlap
     ethr =  4.71E-10,  avg # of iterations =  2.0

     negative rho (up, down):  2.647E-08 0.000E+00

     total cpu time spent up to now is     1567.8 secs

     total energy              =   -2396.97394661 Ry
     estimated scf accuracy    <       0.00000035 Ry

     iteration #  6     ecut=   100.00 Ry     beta= 0.30
     Davidson diagonalization with overlap
     ethr =  4.42E-11,  avg # of iterations =  5.0

     negative rho (up, down):  1.002E-08 0.000E+00

     total cpu time spent up to now is     1581.5 secs

     total energy              =   -2396.97394669 Ry
     estimated scf accuracy    <       0.00000007 Ry

     iteration #  7     ecut=   100.00 Ry     beta= 0.30
     Davidson diagonalization with overlap
     ethr =  9.39E-12,  avg # of iterations =  5.0

     total cpu time spent up to now is     1593.0 secs

     total energy              =   -2396.97394670 Ry
     estimated scf accuracy    <       0.00000002 Ry

     iteration #  8     ecut=   100.00 Ry     beta= 0.30
     Davidson diagonalization with overlap
     ethr =  2.98E-12,  avg # of iterations =  4.0

     total cpu time spent up to now is     1603.3 secs

     total energy              =   -2396.97394670 Ry
     estimated scf accuracy    <          7.7E-09 Ry

     iteration #  9     ecut=   100.00 Ry     beta= 0.30
     Davidson diagonalization with overlap
     ethr =  9.66E-13,  avg # of iterations =  5.0

     total cpu time spent up to now is     1614.3 secs

     total energy              =   -2396.97394670 Ry
     estimated scf accuracy    <          1.4E-09 Ry

     iteration # 10     ecut=   100.00 Ry     beta= 0.30
     Davidson diagonalization with overlap
     ethr =  1.79E-13,  avg # of iterations =  5.0

     total cpu time spent up to now is     1627.8 secs

     total energy              =   -2396.97394670 Ry
     estimated scf accuracy    <          3.6E-10 Ry

     iteration # 11     ecut=   100.00 Ry     beta= 0.30
     Davidson diagonalization with overlap
     ethr =  1.00E-13,  avg # of iterations =  5.0

     total cpu time spent up to now is     1637.6 secs

     total energy              =   -2396.97394670 Ry
     estimated scf accuracy    <          1.2E-10 Ry

     iteration # 12     ecut=   100.00 Ry     beta= 0.30
     Davidson diagonalization with overlap
     ethr =  1.00E-13,  avg # of iterations =  1.0

     total cpu time spent up to now is     1646.7 secs

     total energy              =   -2396.97394670 Ry
     estimated scf accuracy    <          2.7E-11 Ry

     iteration # 13     ecut=   100.00 Ry     beta= 0.30
     Davidson diagonalization with overlap
     ethr =  1.00E-13,  avg # of iterations =  1.0

     total cpu time spent up to now is     1655.5 secs

     total energy              =   -2396.97394670 Ry
     estimated scf accuracy    <          1.0E-11 Ry

     iteration # 14     ecut=   100.00 Ry     beta= 0.30
     Davidson diagonalization with overlap
     ethr =  1.00E-13,  avg # of iterations =  1.0

     total cpu time spent up to now is     1664.5 secs

     End of self-consistent calculation

          k = 0.0000 0.0000 0.0000 (476289 PWs)   bands (ev):

   -23.7950 -23.5885 -23.5829 -23.5553 -23.5473 -23.5460 -23.5435 -23.1302
   -23.1246 -23.0939 -23.0936 -23.0825 -23.0393 -22.8794 -22.8770 -22.8621
   -22.8610 -22.8560 -22.7781 -22.2214 -22.2154 -22.1962 -22.1960 -22.1761
   -22.1597 -22.1511 -22.1503 -22.1436 -22.1435 -22.1424 -21.9989 -21.7162
   -21.7161 -21.7125 -21.7079 -21.7073 -21.5736 -21.0494 -21.0489 -21.0299
   -21.0238 -21.0220 -20.9454 -20.8252 -20.8252 -20.8160 -20.7994 -20.7971
   -20.7924 -20.7892 -20.7891 -20.7841 -20.7822 -20.7810 -20.5119 -20.1427
   -20.1417 -20.1404 -20.1161 -20.1151 -19.9789 -19.5310 -19.5305 -19.5120
   -19.4688 -19.4668 -19.4591 -19.4559 -19.4544 -19.4542 -19.4507 -19.4494
   -19.2884 -19.1075 -19.1063 -19.0866 -19.0605 -19.0566 -19.0548 -19.0525
   -19.0525 -19.0503 -19.0372 -19.0360 -18.7083 -18.5707 -18.5694 -18.4049
   -17.9974 -17.9768 -17.9757 -17.9548 -17.9546 -17.8825 -17.8523 -17.8476
   -17.8476 -17.8251 -17.8248 -17.6537 -17.5062 -17.5054 -17.3171 -16.9941
   -16.9939 -16.9898 -16.9344 -16.9337 -16.8578 -16.6858 -16.6826 -16.6818
   -16.6562 -16.6560 -16.6550 -16.6357 -16.6341 -16.6338 -16.5607 -16.5587
   -16.3688 -16.2046 -16.1419 -16.1395 -16.1287 -16.1279 -15.8508 -15.6489
   -15.6425 -15.6412 -15.5729 -15.5728 -15.4614 -15.2722 -15.2497 -15.2481
   -15.2429 -15.2422 -15.2301 -15.2215 -15.2212 -15.2210 -15.1345 -15.1337
   -14.6429 -14.4814 -14.4807 -14.4586 -14.4487 -14.4445 -14.4443 -14.3227
   -14.3115 -14.3095 -14.2720 -14.2655 -14.2646 -14.2637 -14.2636 -14.2621
   -14.1175 -14.1166 -13.6438 -13.2673 -13.2644 -13.2558 -13.2334 -13.2332
   -13.1768 -13.1725 -13.1432 -13.1430 -13.1041 -13.1025 -13.0974 -13.0792
   -13.0595 -13.0583 -12.9866 -12.9857 -12.9008 -12.8931 -12.8458 -12.8450
   -12.8318 -12.8318 -12.8252 -12.8177 -12.8173 -12.8142 -12.6097 -12.6092
   -12.1995 -11.8757 -11.8543 -11.8495 -11.8377 -11.8350 -11.7793 -11.7789
   -11.7683 -11.7670 -11.7566 -11.7448 -11.7433 -11.7432 -11.7372 -11.7369
   -11.7365 -11.6328 -11.6316 -11.6193 -11.6151 -11.5888 -11.5877 -11.5861
   -11.5742 -11.5137 -11.4630 -11.4193 -11.4184 -11.3816 -11.3785 -11.3766
   -11.3759 -11.3758 -11.3695 -11.2246 -11.2228 -11.0681 -11.0642 -11.0413
   -11.0410 -11.0342 -11.0097 -10.9935 -10.9819 -10.9570 -10.9540 -10.9211
   -10.9206 -10.9171 -10.9127 -10.9119 -10.8966 -10.7838 -10.7823 -10.7817
   -10.7792 -10.7671 -10.7662 -10.7633 -10.7293 -10.6777 -10.6713 -10.6708
   -10.6342 -10.5160 -10.5125 -10.5110 -10.4776 -10.4764 -10.4739 -10.4488
   -10.4309 -10.4305 -10.2577 -10.2547 -10.0861 -10.0825 -10.0404 -10.0394
    -9.9995  -9.9952  -9.9951  -9.9942  -9.9925  -9.9865  -9.9863  -9.9744
    -9.9738  -9.9724  -9.9593  -9.9467  -9.9402  -9.9396  -9.9350  -9.9341
    -9.9334  -9.8608  -9.8596  -9.8310  -9.8257  -9.8245  -9.7975  -9.7833
    -9.7738  -9.7009  -9.6997  -9.6085  -9.6082  -9.5818  -9.4403  -9.4388
    -9.4324  -9.4298  -9.4286  -9.3024  -9.1714  -9.1708  -8.8822  -8.8534
    -8.8522  -8.8170  -8.8022  -8.7665  -8.7662  -8.7526  -8.7519  -8.7468
    -8.6576  -8.6554  -8.6509  -8.6508  -8.6423  -8.5770  -8.5704  -8.4359
    -8.4338  -8.4301  -8.4283  -8.4222  -8.4208  -8.4201  -8.4045  -8.4026
    -8.4024  -8.3999  -8.3973  -8.3964  -8.2425  -8.2421  -8.2307  -8.1489
    -7.9425  -7.9405  -7.8988  -7.8144  -7.8064  -7.8056  -7.7766  -7.7571
    -7.7571  -7.7508  -7.7468  -7.7463  -7.6015  -7.3731  -7.3724  -7.0151
    -7.0132  -6.9965  -6.9962  -6.9909  -6.9597  -6.9565  -6.9564  -6.9549
    -6.9528  -6.9526  -6.8794  -6.8104  -6.8099  -6.7695  -6.7670  -6.7666
    -6.7653  -6.7645  -6.7639  -6.7558  -6.7554  -6.7549  -6.6348  -6.6229
    -6.6218  -6.1325  -5.7816  -5.7814  -5.7692  -5.7589  -5.7588  -5.5109
    -5.2971  -5.2925  -5.2923  -5.2795  -5.2795  -4.6894  -4.4475  -4.3836
    -3.2929  -3.2389  -3.2377  -3.2297  -3.2296  -3.1508  -2.9715  -2.9661
    -2.9655  -2.9371  -2.9370  -2.7943  -2.5656  -2.5649  -2.4877  -2.2174
    -2.2169  -2.2132  -2.2010  -2.2008  -2.1795  -2.1749  -2.1743  -2.1731
    -2.1533  -2.1528  -1.9056  -1.6252

     the Fermi energy is    -4.5772 ev

!    total energy              =   -2396.97394670 Ry
     estimated scf accuracy    <          2.0E-12 Ry
     smearing contrib. (-TS)   =      -0.00009546 Ry
     internal energy E=F+TS    =   -2396.97385124 Ry

     The total energy is F=E-TS. E is the sum of the following terms:
     one-electron contribution =  -27163.58274287 Ry
     hartree contribution      =   13655.76380123 Ry
     xc contribution           =    -852.89917994 Ry
     ewald contribution        =   11963.74427034 Ry

     convergence has been achieved in  14 iterations

     Forces acting on atoms (cartesian axes, Ry/au):

     atom    1 type  1   force =    -0.00024246   -0.00006324   -0.00000000
     atom    2 type  1   force =    -0.00027352   -0.00010516    0.00000000
     atom    3 type  1   force =    -0.00035807    0.00062533    0.00000000
     atom    4 type  1   force =    -0.00009388    0.00016263    0.00000000
     atom    5 type  1   force =    -0.00036254    0.00062273    0.00000000
     atom    6 type  1   force =     0.00022783    0.00018437    0.00000000
     atom    7 type  1   force =     0.00017597    0.00017830    0.00000000
     atom    8 type  1   force =    -0.00010479   -0.00007270   -0.00000000
     atom    9 type  1   force =     0.00025326   -0.00015120   -0.00000000
     atom   10 type  1   force =    -0.00053367    0.00000247   -0.00000000
     atom   11 type  1   force =     0.00057611   -0.00020753    0.00000000
     atom   12 type  1   force =    -0.00020675    0.00013009   -0.00000000
     atom   13 type  1   force =     0.00027338   -0.00008758    0.00000000
     atom   14 type  1   force =    -0.00013463    0.00023312    0.00000000
     atom   15 type  1   force =    -0.00006081   -0.00028052    0.00000000
     atom   16 type  1   force =    -0.00000935    0.00024412   -0.00000001
     atom   17 type  1   force =    -0.00010832   -0.00060265    0.00000000
     atom   18 type  1   force =     0.00026469    0.00046337   -0.00000000
     atom   19 type  1   force =     0.00000434   -0.00029488    0.00000000
     atom   20 type  1   force =     0.00011540    0.00005436    0.00000001
     atom   21 type  1   force =    -0.00038564   -0.00076895    0.00000000
     atom   22 type  1   force =    -0.00012527   -0.00029819    0.00000000
     atom   23 type  1   force =     0.00001651   -0.00002864   -0.00000000
     atom   24 type  1   force =     0.00032087   -0.00004056   -0.00000000
     atom   25 type  1   force =     0.00085873   -0.00005056    0.00000000
     atom   26 type  1   force =     0.00042466   -0.00016696   -0.00000000
     atom   27 type  1   force =     0.00039848   -0.00023261    0.00000000
     atom   28 type  1   force =     0.00010076   -0.00008986    0.00000000
     atom   29 type  1   force =    -0.00006136    0.00050879   -0.00000000
     atom   30 type  1   force =    -0.00015679    0.00003406    0.00000001
     atom   31 type  1   force =     0.00045106    0.00055076   -0.00000000
     atom   32 type  1   force =     0.00004026   -0.00035581   -0.00000000
     atom   33 type  1   force =    -0.00004273    0.00007411   -0.00000000
     atom   34 type  1   force =     0.00028794   -0.00021283    0.00000000
     atom   35 type  1   force =    -0.00070249   -0.00011525   -0.00000000
     atom   36 type  1   force =     0.00004893    0.00015284    0.00000000
     atom   37 type  1   force =    -0.00041001    0.00030761    0.00000000
     atom   38 type  1   force =     0.00002754   -0.00013227    0.00000000
     atom   39 type  1   force =     0.00000217   -0.00046129   -0.00000000
     atom   40 type  1   force =    -0.00006769   -0.00045131   -0.00000000
     atom   41 type  1   force =    -0.00044567   -0.00076072   -0.00000000
     atom   42 type  1   force =     0.00018477   -0.00032004    0.00000000
     atom   43 type  1   force =     0.00088164    0.00000557    0.00000000
     atom   44 type  1   force =     0.00046767    0.00011052   -0.00000000
     atom   45 type  1   force =     0.00056198    0.00001118   -0.00000000
     atom   46 type  1   force =     0.00059912    0.00004597   -0.00000000
     atom   47 type  1   force =    -0.00050188    0.00051420    0.00000000
     atom   48 type  1   force =    -0.00002791    0.00001421   -0.00000000
     atom   49 type  1   force =     0.00020654    0.00084529   -0.00000000
     atom   50 type  1   force =    -0.00003369   -0.00035409    0.00000001
     atom   51 type  1   force =     0.00036317   -0.00033077    0.00000000
     atom   52 type  1   force =     0.00023319   -0.00040416    0.00000000
     atom   53 type  1   force =     0.00010505   -0.00047990    0.00000001
     atom   54 type  1   force =     0.00032323   -0.00014774   -0.00000000
     atom   55 type  1   force =    -0.00083538    0.00024365   -0.00000000
     atom   56 type  1   force =     0.00000181    0.00003137   -0.00000001
     atom   57 type  1   force =    -0.00019450    0.00069184   -0.00000000
     atom   58 type  1   force =    -0.00033930   -0.00049593    0.00000000
     atom   59 type  1   force =    -0.00029063   -0.00048098   -0.00000000
     atom   60 type  1   force =    -0.00032959   -0.00034974   -0.00000000
     atom   61 type  1   force =     0.00015170   -0.00026279    0.00000000
     atom   62 type  1   force =    -0.00009280   -0.00000730   -0.00000000
     atom   63 type  1   force =     0.00041413    0.00024624    0.00000000
     atom   64 type  1   force =     0.00019015    0.00014877   -0.00000000
     atom   65 type  1   force =    -0.00061590   -0.00030413    0.00000000
     atom   66 type  1   force =    -0.00002152   -0.00000136   -0.00000001
     atom   67 type  1   force =    -0.00030122    0.00009685    0.00000000
     atom   68 type  1   force =    -0.00051843   -0.00003896   -0.00000000
     atom   69 type  1   force =     0.00010662   -0.00068831    0.00000001
     atom   70 type  1   force =     0.00108620   -0.00040682   -0.00000001
     atom   71 type  1   force =     0.00015710   -0.00027101   -0.00000001
     atom   72 type  1   force =    -0.00019200   -0.00114397    0.00000000
     atom   73 type  1   force =     0.00054318   -0.00043666    0.00000002
     atom   74 type  1   force =     0.00029298    0.00042940   -0.00000002
     atom   75 type  1   force =     0.00006646    0.00030913    0.00000001
     atom   76 type  1   force =     0.00001217    0.00001809   -0.00000001
     atom   77 type  1   force =     0.00057129    0.00038131    0.00000001
     atom   78 type  1   force =    -0.00022395   -0.00009028    0.00000000
     atom   79 type  1   force =    -0.00042024   -0.00023550   -0.00000001
     atom   80 type  1   force =     0.00005271    0.00007673    0.00000000
     atom   81 type  1   force =     0.00022025    0.00015915   -0.00000000
     atom   82 type  1   force =    -0.00049518   -0.00002251    0.00000001
     atom   83 type  1   force =    -0.00032712   -0.00047404    0.00000000
     atom   84 type  1   force =    -0.00006829    0.00006410   -0.00000000
     atom   85 type  1   force =     0.00012085   -0.00068686    0.00000001
     atom   86 type  1   force =    -0.00012208    0.00014250   -0.00000000
     atom   87 type  1   force =     0.00019797    0.00050351   -0.00000001
     atom   88 type  1   force =     0.00103562    0.00059350   -0.00000000
     atom   89 type  1   force =     0.00081860    0.00000374   -0.00000001
     atom   90 type  1   force =    -0.00041237   -0.00070699   -0.00000000
     atom   91 type  1   force =    -0.00103096   -0.00060097   -0.00000001
     atom   92 type  1   force =    -0.00053553    0.00008061    0.00000001
     atom   93 type  1   force =    -0.00006200    0.00017677   -0.00000002
     atom   94 type  1   force =     0.00053426   -0.00044814    0.00000000
     atom   95 type  1   force =    -0.00002136    0.00009122    0.00000001
     atom   96 type  1   force =     0.00057420    0.00004628    0.00000000
     atom   97 type  1   force =     0.00026701    0.00041758    0.00000001
     atom   98 type  1   force =    -0.00024794   -0.00011113   -0.00000000
     atom   99 type  1   force =    -0.00009803    0.00016978   -0.00000000
     atom  100 type  1   force =     0.00050152    0.00025099    0.00000000
     atom  101 type  1   force =    -0.00003381    0.00004470   -0.00000000
     atom  102 type  1   force =     0.00021422   -0.00057142   -0.00000000
     atom  103 type  1   force =     0.00009402    0.00025556   -0.00000001
     atom  104 type  1   force =     0.00044163    0.00022152    0.00000000
     atom  105 type  1   force =     0.00000397    0.00024035    0.00000001
     atom  106 type  1   force =     0.00003348    0.00036647    0.00000002
     atom  107 type  1   force =    -0.00024025    0.00112128   -0.00000000
     atom  108 type  1   force =    -0.00024299    0.00042125    0.00000000
     atom  109 type  1   force =    -0.00085107    0.00076852   -0.00000000
     atom  110 type  1   force =    -0.00033453    0.00015478    0.00000000
     atom  111 type  1   force =    -0.00020999    0.00011664    0.00000000
     atom  112 type  1   force =    -0.00041281   -0.00027153    0.00000001
     atom  113 type  1   force =    -0.00026834    0.00004637    0.00000001
     atom  114 type  1   force =     0.00038779   -0.00047128   -0.00000000
     atom  115 type  1   force =    -0.00002182    0.00005165    0.00000001
     atom  116 type  1   force =    -0.00046803   -0.00030883   -0.00000001
     atom  117 type  1   force =    -0.00001125    0.00031142   -0.00000000
     atom  118 type  1   force =     0.00004923   -0.00008519    0.00000001
     atom  119 type  1   force =    -0.00026417    0.00016539   -0.00000000
     atom  120 type  1   force =     0.00024018    0.00011723   -0.00000000
     atom  121 type  1   force =     0.00002229    0.00000487    0.00000000
     atom  122 type  1   force =     0.00006069   -0.00030131    0.00000000
     atom  123 type  1   force =     0.00035397    0.00022771    0.00000000
     atom  124 type  1   force =     0.00029504    0.00048914   -0.00000001
     atom  125 type  1   force =     0.00019488   -0.00001372    0.00000000
     atom  126 type  1   force =     0.00033630    0.00052555    0.00000000
     atom  127 type  1   force =     0.00012106   -0.00020978   -0.00000000
     atom  128 type  1   force =    -0.00062329   -0.00002842   -0.00000000
     atom  129 type  1   force =    -0.00008548   -0.00017564   -0.00000001
     atom  130 type  1   force =    -0.00057119   -0.00001102   -0.00000000
     atom  131 type  1   force =    -0.00037418   -0.00019273    0.00000000
     atom  132 type  1   force =     0.00023064   -0.00020323    0.00000000
     atom  133 type  1   force =    -0.00001536   -0.00001688   -0.00000000
     atom  134 type  1   force =    -0.00022155   -0.00014938    0.00000000
     atom  135 type  1   force =     0.00011950    0.00015226   -0.00000001
     atom  136 type  1   force =    -0.00038838   -0.00008026    0.00000000
     atom  137 type  1   force =    -0.00014161    0.00024521    0.00000001
     atom  138 type  1   force =     0.00026375    0.00029625   -0.00000001
     atom  139 type  1   force =    -0.00019164   -0.00002742    0.00000000
     atom  140 type  1   force =    -0.00004746    0.00017692   -0.00000000
     atom  141 type  1   force =     0.00001957   -0.00003572   -0.00000000
     atom  142 type  1   force =    -0.00040831   -0.00018893    0.00000000
     atom  143 type  1   force =     0.00010288    0.00002861   -0.00000001
     atom  144 type  1   force =    -0.00045247   -0.00017698    0.00000001
     atom  145 type  1   force =     0.00005698    0.00004217   -0.00000001
     atom  146 type  1   force =     0.00002248   -0.00003907   -0.00000000
     atom  147 type  1   force =    -0.00006495   -0.00002827   -0.00000000
     atom  148 type  1   force =     0.00037952    0.00030336   -0.00000000
     atom  149 type  1   force =    -0.00007627   -0.00007481   -0.00000001
     atom  150 type  1   force =     0.00036783    0.00025917    0.00000000
     atom  151 type  1   force =     0.00002115   -0.00003481    0.00000000
     atom  152 type  1   force =    -0.00012946    0.00012953   -0.00000000
     atom  153 type  1   force =     0.00016419   -0.00004475    0.00000000
     atom  154 type  1   force =    -0.00044867    0.00003243   -0.00000000
     atom  155 type  1   force =    -0.00011799    0.00003546    0.00000000
     atom  156 type  1   force =    -0.00002902    0.00005033   -0.00000000
     atom  157 type  1   force =     0.00002825    0.00011987    0.00000000
     atom  158 type  1   force =     0.00019627    0.00040483   -0.00000000
     atom  159 type  1   force =    -0.00004334   -0.00016458   -0.00000000
     atom  160 type  1   force =    -0.00006230    0.00045250   -0.00000000
     atom  161 type  1   force =     0.00021033   -0.00035367    0.00000000
     atom  162 type  1   force =    -0.00024327   -0.00043223    0.00000000
     atom  163 type  1   force =     0.00002804    0.00019182    0.00000001
     atom  164 type  1   force =     0.00003237   -0.00070939   -0.00000000
     atom  165 type  1   force =    -0.00024736    0.00042854   -0.00000000
     atom  166 type  1   force =     0.00059808   -0.00038274    0.00000000
     atom  167 type  1   force =    -0.00018011    0.00007162   -0.00000000
     atom  168 type  1   force =     0.00049601   -0.00000541    0.00000001
     atom  169 type  1   force =     0.00020111   -0.00035904   -0.00000001
     atom  170 type  1   force =    -0.00036071    0.00028024    0.00000000
     atom  171 type  1   force =     0.00006495   -0.00024698    0.00000000
     atom  172 type  1   force =    -0.00037168    0.00014922   -0.00000000
     atom  173 type  1   force =    -0.00019441   -0.00008076    0.00000000
     atom  174 type  1   force =    -0.00006094    0.00000369    0.00000000
     atom  175 type  1   force =    -0.00002608    0.00004515    0.00000000
     atom  176 type  1   force =     0.00002729    0.00005465   -0.00000001
     atom  177 type  1   force =     0.00016716    0.00012798    0.00000000
     atom  178 type  1   force =     0.00005661    0.00039649    0.00000000
     atom  179 type  1   force =     0.00018143   -0.00017975   -0.00000000
     atom  180 type  1   force =    -0.00000185    0.00029428   -0.00000000
     atom  181 type  1   force =     0.00007375   -0.00021356    0.00000000
     atom  182 type  1   force =    -0.00000388    0.00032683   -0.00000001
     atom  183 type  1   force =    -0.00006761    0.00030130    0.00000000
     atom  184 type  1   force =    -0.00018523    0.00032076   -0.00000000
     atom  185 type  1   force =    -0.00022710    0.00020922    0.00000000
     atom  186 type  1   force =    -0.00028112    0.00016677   -0.00000000
     atom  187 type  1   force =     0.00014806   -0.00017065   -0.00000000
     atom  188 type  1   force =    -0.00025394    0.00014879    0.00000000
     atom  189 type  1   force =    -0.00011349   -0.00017634   -0.00000000
     atom  190 type  1   force =     0.00006398    0.00010482    0.00000000
     atom  191 type  1   force =    -0.00033418   -0.00007482    0.00000000
     atom  192 type  1   force =     0.00018455   -0.00019893   -0.00000000
     atom  193 type  1   force =    -0.00033286    0.00026192   -0.00000000
     atom  194 type  1   force =     0.00017835   -0.00030892    0.00000000
     atom  195 type  1   force =    -0.00006039    0.00041921    0.00000000
     atom  196 type  1   force =     0.00007999   -0.00025927   -0.00000000
     atom  197 type  1   force =     0.00023190    0.00025197   -0.00000000
     atom  198 type  1   force =    -0.00012275   -0.00000299    0.00000000
     atom  199 type  1   force =     0.00020944    0.00001011   -0.00000000

     Total force =     0.006527     Total SCF correction =     0.000002
     Energy error            =      6.4E-05 Ry
     Gradient error          =      1.1E-03 Ry/Bohr

     number of scf cycles    =   9
     number of bfgs steps    =   8

     energy             old  =   -2396.9738828175 Ry
     energy             new  =   -2396.9739467034 Ry

     CASE: energy            _new < energy            _old

     new trust radius        =       0.0038173121 bohr
     new conv_thr            =            6.4E-12 Ry


ATOMIC_POSITIONS (crystal)
C                0.0333296923        0.0333149954       -0.0000000008
C                0.0666644871        0.0666553433       -0.0000000007
C                0.0333048520        0.1333468021       -0.0000000002
C                0.0666583993        0.1666708005        0.0000000006
C                0.0333048521        0.2333483454        0.0000000003
C                0.0666644862        0.2666801699        0.0000000002
C                0.0333296919        0.3333553117       -0.0000000000
C                0.0667279257        0.3666677170        0.0000000006
C                0.0334013160        0.4333359486        0.0000000017
C                0.0668153840        0.4666330060        0.0000000013
C                0.0333804630        0.5333056525        0.0000000006
C                0.0666885393        0.5666453817       -0.0000000000
C                0.0333228279        0.6333242343       -0.0000000002
C                0.0666364008        0.6666818000       -0.0000000007
C                0.0333228288        0.7333529390        0.0000000009
C                0.0666885406        0.7666660790        0.0000000012
C                0.0333804647        0.8333138840        0.0000000010
C                0.0668153870        0.8665516079        0.0000000005
C                0.0334013178        0.9332627341       -0.0000000005
C                0.0667279280        0.9666043552       -0.0000000008
C                0.1333553328        0.0332934652       -0.0000000006
C                0.1666755957        0.0666519609        0.0000000004
C                0.1333352136        0.1333323929        0.0000000012
C                0.1666755948        0.1666724433        0.0000000012
C                0.1333553323        0.2333512010        0.0000000006
C                0.1667310751        0.2666890638        0.0000000004
C                0.1334371536        0.3333620213        0.0000000004
C                0.1668567926        0.3666818459       -0.0000000001
C                0.1335456361        0.4333331130        0.0000000003
C                0.1669467437        0.4666726407       -0.0000000006
C                0.1333705645        0.5333308096       -0.0000000004
C                0.1665919677        0.5667271593       -0.0000000021
C                0.1332070531        0.6333964743       -0.0000000019
C                0.1665919678        0.6666808740       -0.0000000021
C                0.1333705654        0.7332986264       -0.0000000004
C                0.1669467472        0.7663806132       -0.0000000003
C                0.1335456387        0.8331212481        0.0000000008
C                0.1668567967        0.8664613585        0.0000000009
C                0.1334371548        0.9332008231        0.0000000001
C                0.1667310776        0.9665798586       -0.0000000004
C                0.2333551875        0.0332922251        0.0000000011
C                0.2666849552        0.0666575218        0.0000000013
C                0.2333551870        0.1333525867        0.0000000010
C                0.2666977751        0.1667274028        0.0000000006
C                0.2334023272        0.2333963538        0.0000000003
C                0.2667888339        0.2667844188       -0.0000000003
C                0.2335417250        0.3334314269       -0.0000000002
C                0.2669647807        0.3667980947       -0.0000000002
C                0.2337224106        0.4334199524       -0.0000000006
C                0.2670614490        0.4669370739       -0.0000000012
C                0.2331283504        0.5334860074       -0.0000000011
C                0.2664243079        0.5667878465       -0.0000000023
C                0.2331283534        0.6333856454       -0.0000000034
C                0.2670614522        0.6660014730       -0.0000000025
C                0.2337224159        0.7328576332        0.0000000002
C                0.2669647820        0.7662371243        0.0000000003
C                0.2335417267        0.8330268445        0.0000000010
C                0.2667888364        0.8664267447       -0.0000000007
C                0.2334023281        0.9332013173       -0.0000000003
C                0.2666977762        0.9665748193        0.0000000006
C                0.3333625181        0.0333187400        0.0000000006
C                0.3666735456        0.0667304256        0.0000000006
C                0.3333726565        0.1334448944        0.0000000001
C                0.3666911186        0.1668801041        0.0000000001
C                0.3334360080        0.2335643894       -0.0000000002
C                0.3667754028        0.2670257317        0.0000000004
C                0.3335601053        0.3336154879        0.0000000003
C                0.3670176138        0.3671340750        0.0000000019
C                0.3339291054        0.4335237918       -0.0000000003
C                0.3676010159        0.4676252078       -0.0000000003
C                0.3323953080        0.5338023530       -0.0000000006
C                0.3676010252        0.5647737581       -0.0000000035
C                0.3339291184        0.6325470935       -0.0000000047
C                0.3670176172        0.6658483085       -0.0000000016
C                0.3335601072        0.7328244045       -0.0000000009
C                0.3667754054        0.7661988653        0.0000000008
C                0.3334360091        0.8329995998       -0.0000000013
C                0.3666911189        0.8664287757       -0.0000000013
C                0.3333726573        0.9331824476        0.0000000002
C                0.3666735458        0.9665960272        0.0000000007
C                0.4333419017        0.0334153365        0.0000000009
C                0.4666321250        0.0668574767       -0.0000000005
C                0.4333395470        0.1336027588       -0.0000000005
C                0.4666540834        0.1670544490       -0.0000000011
C                0.4333946700        0.2338604931       -0.0000000011
C                0.4668622116        0.2672902981        0.0000000001
C                0.4334227067        0.3342124447        0.0000000018
C                0.4674805635        0.3680372511       -0.0000000016
C                0.4326483298        0.4331984281       -0.0000000033
C                0.4326483591        0.5341531948       -0.0000000022
C                0.4674805719        0.5644821733       -0.0000000007
C                0.4334227055        0.6323648409       -0.0000000008
C                0.4668622170        0.6658474874        0.0000000013
C                0.4333946697        0.7327448346        0.0000000007
C                0.4666540840        0.7662914669       -0.0000000006
C                0.4333395476        0.8330576931       -0.0000000005
C                0.4666321252        0.8665103967       -0.0000000002
C                0.4333419020        0.9332427607        0.0000000009
C                0.4666473146        0.9666763422        0.0000000013
C                0.5333022169        0.0334243064        0.0000000005
C                0.5666233502        0.0667647555        0.0000000001
C                0.5333064598        0.1334730289        0.0000000001
C                0.5666638419        0.1667438028       -0.0000000002
C                0.5334178970        0.2333242383       -0.0000000010
C                0.5667011638        0.2666493680       -0.0000000022
C                0.5337014174        0.3326865267       -0.0000000024
C                0.5649644909        0.3676254949       -0.0000000033
C                0.5349592471        0.4325203836       -0.0000000012
C                0.5649644984        0.4674100150       -0.0000000006
C                0.5337014087        0.5336120621       -0.0000000008
C                0.5667011645        0.5666494735       -0.0000000005
C                0.5334178935        0.6332578681        0.0000000000
C                0.5666638426        0.6665923574       -0.0000000006
C                0.5333064595        0.7332205132        0.0000000002
C                0.5666233499        0.7666118950        0.0000000007
C                0.5333022171        0.8332734776        0.0000000011
C                0.5666317498        0.8666556178        0.0000000010
C                0.5333180165        0.9333409924        0.0000000008
C                0.5666317502        0.9667126319        0.0000000008
C                0.6333024088        0.0333703927        0.0000000006
C                0.6666347782        0.0667119476        0.0000000004
C                0.6333370726        0.1333082898       -0.0000000002
C                0.6666205017        0.1666920051        0.0000000003
C                0.6333348557        0.2332551768       -0.0000000005
C                0.6660761983        0.2670714827       -0.0000000015
C                0.6327496653        0.3339016371       -0.0000000027
C                0.6660800866        0.3669599584       -0.0000000013
C                0.6327496685        0.4333487018       -0.0000000004
C                0.6660761994        0.4668523249        0.0000000002
C                0.6333348543        0.5334099717       -0.0000000006
C                0.6666205013        0.5666874971       -0.0000000006
C                0.6333370720        0.6333546406       -0.0000000002
C                0.6666347782        0.6666532763        0.0000000006
C                0.6333024090        0.7333271996        0.0000000011
C                0.6666454389        0.7666571386        0.0000000013
C                0.6333127965        0.8333281770        0.0000000004
C                0.6666536520        0.8666731740        0.0000000000
C                0.6333127967        0.9333590274        0.0000000007
C                0.6666454391        0.9666974226        0.0000000005
C                0.7333161507        0.0333617466        0.0000000014
C                0.7666267843        0.0667271787        0.0000000015
C                0.7332573492        0.1334150836        0.0000000006
C                0.7663942981        0.1669349824        0.0000000008
C                0.7329240227        0.2337003615       -0.0000000010
C                0.7663406660        0.2669101662        0.0000000002
C                0.7330116252        0.3334941889        0.0000000001
C                0.7663406668        0.3667491719        0.0000000005
C                0.7329240235        0.4333756192        0.0000000008
C                0.7663942992        0.4666707212       -0.0000000004
C                0.7332573490        0.5333275699       -0.0000000011
C                0.7666267840        0.5666460385       -0.0000000009
C                0.7333161504        0.6333221041        0.0000000003
C                0.7666514354        0.6666538791       -0.0000000001
C                0.7333233514        0.7333289468        0.0000000006
C                0.7666615261        0.7666630270        0.0000000003
C                0.7333328988        0.8333335510        0.0000000004
C                0.7666615262        0.8666754466        0.0000000005
C                0.7333233514        0.9333477026        0.0000000003
C                0.7666514361        0.9666946859        0.0000000011
C                0.8332886321        0.0333990469        0.0000000006
C                0.8665546850        0.0668040196        0.0000000000
C                0.8331381126        0.1335237773       -0.0000000003
C                0.8664989830        0.1668164320       -0.0000000008
C                0.8331053884        0.2334908825        0.0000000001
C                0.8664881162        0.2667559427        0.0000000004
C                0.8331053889        0.3334037300        0.0000000002
C                0.8664989840        0.3666845857        0.0000000009
C                0.8331381135        0.4333381114       -0.0000000008
C                0.8665546854        0.4666412960        0.0000000003
C                0.8332886318        0.5333123221       -0.0000000002
C                0.8666550590        0.5666405763        0.0000000003
C                0.8333230446        0.6333188622       -0.0000000001
C                0.8666649661        0.6666576717       -0.0000000000
C                0.8333301778        0.7333350595        0.0000000001
C                0.8666684939        0.7666657531        0.0000000009
C                0.8333301777        0.8333347630        0.0000000017
C                0.8666649664        0.8666773623        0.0000000016
C                0.8333230449        0.9333580934        0.0000000010
C                0.8666550594        0.9667043650        0.0000000008
C                0.9332707010        0.0333904629       -0.0000000004
C                0.9666212430        0.0667085956       -0.0000000003
C                0.9332284865        0.1334113655        0.0000000003
C                0.9666004075        0.1667136265        0.0000000002
C                0.9332402173        0.2333798912        0.0000000010
C                0.9666004076        0.2666859663        0.0000000009
C                0.9332284870        0.3333601480        0.0000000011
C                0.9666212427        0.3666701617        0.0000000007
C                0.9332707006        0.4333388366        0.0000000011
C                0.9666776274        0.4666505096        0.0000000015
C                0.9333317452        0.5333206909        0.0000000007
C                0.9666852914        0.5666389708        0.0000000006
C                0.9333422392        0.6333184480        0.0000000009
C                0.9666678207        0.6666590589        0.0000000009
C                0.9333325877        0.7333337065        0.0000000007
C                0.9666678212        0.7666731209        0.0000000016
C                0.9333422398        0.8333393132        0.0000000024
C                0.9666852927        0.8666757375        0.0000000015
C                0.9333317461        0.9333475640        0.0000000010
C                0.9666776283        0.9666718624       -0.0000000002



     Writing config-only to output data dir /home/gregb26/links/scratch/qe_tmp/vacancy_relaxed/series/10x10/nspin1/vac_10x10_relax_nspin1.save/ :
     XML data file
     NEW-OLD atomic charge density approx. for the potential

     negative rho (up, down):  7.388E-07 0.000E+00

     total cpu time spent up to now is     1669.4 secs

     per-process dynamical memory:   459.1 Mb

     Self-consistent Calculation

     iteration #  1     ecut=   100.00 Ry     beta= 0.30
     Davidson diagonalization with overlap
     ethr =  1.00E-06,  avg # of iterations =  4.0

     Threshold (ethr) on eigenvalues was too large:
     Diagonalizing with lowered threshold

     Davidson diagonalization with overlap
     ethr =  1.54E-09,  avg # of iterations =  6.0

     negative rho (up, down):  4.777E-07 0.000E+00

     total cpu time spent up to now is     1703.6 secs

     total energy              =   -2396.97397799 Ry
     estimated scf accuracy    <       0.00001989 Ry

     iteration #  2     ecut=   100.00 Ry     beta= 0.30
     Davidson diagonalization with overlap
     ethr =  2.50E-09,  avg # of iterations =  2.0

     negative rho (up, down):  3.289E-07 0.000E+00

     total cpu time spent up to now is     1713.6 secs

     total energy              =   -2396.97397745 Ry
     estimated scf accuracy    <       0.00000965 Ry

     iteration #  3     ecut=   100.00 Ry     beta= 0.30
     Davidson diagonalization with overlap
     ethr =  1.21E-09,  avg # of iterations =  5.0

     negative rho (up, down):  1.633E-07 0.000E+00

     total cpu time spent up to now is     1723.9 secs

     total energy              =   -2396.97397727 Ry
     estimated scf accuracy    <       0.00001194 Ry

     iteration #  4     ecut=   100.00 Ry     beta= 0.30
     Davidson diagonalization with overlap
     ethr =  1.21E-09,  avg # of iterations =  5.0

     negative rho (up, down):  5.740E-08 0.000E+00

     total cpu time spent up to now is     1734.1 secs

     total energy              =   -2396.97397825 Ry
     estimated scf accuracy    <       0.00000121 Ry

     iteration #  5     ecut=   100.00 Ry     beta= 0.30
     Davidson diagonalization with overlap
     ethr =  1.52E-10,  avg # of iterations =  5.0

     negative rho (up, down):  1.888E-08 0.000E+00

     total cpu time spent up to now is     1744.6 secs

     total energy              =   -2396.97397836 Ry
     estimated scf accuracy    <       0.00000025 Ry

     iteration #  6     ecut=   100.00 Ry     beta= 0.30
     Davidson diagonalization with overlap
     ethr =  3.16E-11,  avg # of iterations =  5.0

     total cpu time spent up to now is     1755.4 secs

     total energy              =   -2396.97397840 Ry
     estimated scf accuracy    <       0.00000005 Ry

     iteration #  7     ecut=   100.00 Ry     beta= 0.30
     Davidson diagonalization with overlap
     ethr =  5.89E-12,  avg # of iterations =  5.0

     total cpu time spent up to now is     1768.1 secs

     total energy              =   -2396.97397840 Ry
     estimated scf accuracy    <          8.9E-09 Ry

     iteration #  8     ecut=   100.00 Ry     beta= 0.30
     Davidson diagonalization with overlap
     ethr =  1.11E-12,  avg # of iterations =  4.0

     total cpu time spent up to now is     1780.2 secs

     total energy              =   -2396.97397841 Ry
     estimated scf accuracy    <          2.9E-09 Ry

     iteration #  9     ecut=   100.00 Ry     beta= 0.30
     Davidson diagonalization with overlap
     ethr =  3.64E-13,  avg # of iterations =  4.0

     total cpu time spent up to now is     1791.5 secs

     total energy              =   -2396.97397841 Ry
     estimated scf accuracy    <          4.6E-10 Ry

     iteration # 10     ecut=   100.00 Ry     beta= 0.30
     Davidson diagonalization with overlap
     ethr =  1.00E-13,  avg # of iterations =  4.0

     total cpu time spent up to now is     1802.5 secs

     total energy              =   -2396.97397841 Ry
     estimated scf accuracy    <          5.2E-11 Ry

     iteration # 11     ecut=   100.00 Ry     beta= 0.30
     Davidson diagonalization with overlap
     ethr =  1.00E-13,  avg # of iterations =  1.0

     total cpu time spent up to now is     1811.7 secs

     total energy              =   -2396.97397841 Ry
     estimated scf accuracy    <          1.5E-11 Ry

     iteration # 12     ecut=   100.00 Ry     beta= 0.30
     Davidson diagonalization with overlap
     ethr =  1.00E-13,  avg # of iterations =  1.0

     total cpu time spent up to now is     1820.8 secs

     End of self-consistent calculation

          k = 0.0000 0.0000 0.0000 (476289 PWs)   bands (ev):

   -23.7949 -23.5888 -23.5832 -23.5548 -23.5471 -23.5457 -23.5423 -23.1297
   -23.1242 -23.0938 -23.0937 -23.0830 -23.0386 -22.8789 -22.8767 -22.8619
   -22.8609 -22.8560 -22.7785 -22.2212 -22.2152 -22.1965 -22.1964 -22.1756
   -22.1585 -22.1505 -22.1495 -22.1438 -22.1435 -22.1426 -21.9995 -21.7156
   -21.7154 -21.7123 -21.7079 -21.7074 -21.5743 -21.0492 -21.0487 -21.0292
   -21.0242 -21.0224 -20.9447 -20.8245 -20.8244 -20.8160 -20.7989 -20.7968
   -20.7927 -20.7890 -20.7888 -20.7842 -20.7823 -20.7812 -20.5126 -20.1424
   -20.1414 -20.1401 -20.1161 -20.1151 -19.9793 -19.5310 -19.5305 -19.5117
   -19.4692 -19.4672 -19.4589 -19.4555 -19.4540 -19.4539 -19.4500 -19.4488
   -19.2887 -19.1069 -19.1056 -19.0860 -19.0606 -19.0565 -19.0548 -19.0528
   -19.0525 -19.0501 -19.0373 -19.0361 -18.7079 -18.5706 -18.5692 -18.4059
   -17.9968 -17.9770 -17.9758 -17.9550 -17.9548 -17.8817 -17.8515 -17.8474
   -17.8472 -17.8250 -17.8248 -17.6536 -17.5062 -17.5055 -17.3182 -16.9937
   -16.9935 -16.9896 -16.9341 -16.9336 -16.8575 -16.6853 -16.6819 -16.6811
   -16.6563 -16.6561 -16.6551 -16.6359 -16.6342 -16.6338 -16.5610 -16.5591
   -16.3693 -16.2043 -16.1418 -16.1395 -16.1285 -16.1278 -15.8509 -15.6487
   -15.6425 -15.6411 -15.5727 -15.5726 -15.4622 -15.2718 -15.2491 -15.2475
   -15.2426 -15.2418 -15.2300 -15.2217 -15.2212 -15.2211 -15.1345 -15.1337
   -14.6432 -14.4818 -14.4811 -14.4582 -14.4486 -14.4439 -14.4436 -14.3223
   -14.3112 -14.3091 -14.2724 -14.2652 -14.2642 -14.2641 -14.2640 -14.2620
   -14.1177 -14.1169 -13.6446 -13.2665 -13.2636 -13.2557 -13.2338 -13.2335
   -13.1768 -13.1722 -13.1432 -13.1430 -13.1040 -13.1023 -13.0980 -13.0794
   -13.0592 -13.0581 -12.9858 -12.9848 -12.9001 -12.8917 -12.8458 -12.8450
   -12.8314 -12.8313 -12.8246 -12.8176 -12.8173 -12.8138 -12.6107 -12.6102
   -12.2016 -11.8755 -11.8537 -11.8490 -11.8367 -11.8361 -11.7792 -11.7789
   -11.7685 -11.7673 -11.7568 -11.7434 -11.7423 -11.7420 -11.7371 -11.7367
   -11.7366 -11.6329 -11.6319 -11.6196 -11.6154 -11.5887 -11.5875 -11.5850
   -11.5740 -11.5141 -11.4638 -11.4201 -11.4192 -11.3810 -11.3778 -11.3759
   -11.3750 -11.3749 -11.3692 -11.2246 -11.2229 -11.0677 -11.0638 -11.0413
   -11.0412 -11.0346 -11.0096 -10.9937 -10.9814 -10.9570 -10.9539 -10.9208
   -10.9203 -10.9169 -10.9130 -10.9122 -10.8956 -10.7834 -10.7832 -10.7814
   -10.7801 -10.7670 -10.7661 -10.7634 -10.7295 -10.6780 -10.6699 -10.6695
   -10.6356 -10.5159 -10.5124 -10.5108 -10.4772 -10.4760 -10.4736 -10.4484
   -10.4301 -10.4296 -10.2578 -10.2550 -10.0846 -10.0837 -10.0405 -10.0394
    -9.9996  -9.9955  -9.9953  -9.9943  -9.9925  -9.9864  -9.9860  -9.9745
    -9.9738  -9.9725  -9.9589  -9.9458  -9.9398  -9.9391  -9.9351  -9.9342
    -9.9335  -9.8610  -9.8597  -9.8309  -9.8256  -9.8243  -9.7972  -9.7839
    -9.7741  -9.6998  -9.6984  -9.6085  -9.6083  -9.5822  -9.4402  -9.4387
    -9.4323  -9.4295  -9.4283  -9.3030  -9.1716  -9.1712  -8.8805  -8.8539
    -8.8527  -8.8179  -8.8020  -8.7673  -8.7667  -8.7523  -8.7517  -8.7475
    -8.6577  -8.6554  -8.6512  -8.6509  -8.6418  -8.5826  -8.5700  -8.4355
    -8.4335  -8.4290  -8.4275  -8.4225  -8.4204  -8.4197  -8.4047  -8.4024
    -8.4021  -8.4000  -8.3974  -8.3966  -8.2428  -8.2421  -8.2290  -8.1494
    -7.9428  -7.9409  -7.9078  -7.8138  -7.8061  -7.8050  -7.7782  -7.7572
    -7.7572  -7.7505  -7.7465  -7.7460  -7.6018  -7.3730  -7.3719  -7.0154
    -7.0133  -6.9967  -6.9963  -6.9908  -6.9596  -6.9563  -6.9563  -6.9549
    -6.9522  -6.9520  -6.8798  -6.8101  -6.8096  -6.7691  -6.7670  -6.7667
    -6.7654  -6.7646  -6.7642  -6.7559  -6.7553  -6.7546  -6.6344  -6.6227
    -6.6217  -6.1331  -5.7817  -5.7814  -5.7687  -5.7591  -5.7591  -5.5110
    -5.2970  -5.2923  -5.2921  -5.2796  -5.2796  -4.6917  -4.4490  -4.3850
    -3.2927  -3.2391  -3.2380  -3.2296  -3.2295  -3.1510  -2.9718  -2.9658
    -2.9653  -2.9372  -2.9371  -2.7949  -2.5657  -2.5651  -2.4879  -2.2177
    -2.2171  -2.2131  -2.2006  -2.2004  -2.1795  -2.1753  -2.1750  -2.1739
    -2.1532  -2.1528  -1.9055  -1.6250

     the Fermi energy is    -4.5793 ev

!    total energy              =   -2396.97397841 Ry
     estimated scf accuracy    <          4.7E-12 Ry
     smearing contrib. (-TS)   =      -0.00007247 Ry
     internal energy E=F+TS    =   -2396.97390594 Ry

     The total energy is F=E-TS. E is the sum of the following terms:
     one-electron contribution =  -27163.43311452 Ry
     hartree contribution      =   13655.68742291 Ry
     xc contribution           =    -852.89430690 Ry
     ewald contribution        =   11963.66609258 Ry

     convergence has been achieved in  12 iterations

     Forces acting on atoms (cartesian axes, Ry/au):

     atom    1 type  1   force =     0.00005194   -0.00007861    0.00000000
     atom    2 type  1   force =    -0.00007675   -0.00007766   -0.00000000
     atom    3 type  1   force =    -0.00016829   -0.00012257   -0.00000000
     atom    4 type  1   force =    -0.00018076    0.00031304    0.00000000
     atom    5 type  1   force =     0.00019031    0.00008448    0.00000000
     atom    6 type  1   force =     0.00010561    0.00002759    0.00000000
     atom    7 type  1   force =     0.00004211   -0.00008425    0.00000000
     atom    8 type  1   force =     0.00012139   -0.00008217   -0.00000001
     atom    9 type  1   force =    -0.00031230   -0.00005234   -0.00000000
     atom   10 type  1   force =     0.00002050    0.00025609    0.00000000
     atom   11 type  1   force =    -0.00021322    0.00005054    0.00000000
     atom   12 type  1   force =     0.00023468    0.00028042    0.00000000
     atom   13 type  1   force =    -0.00018945    0.00020369    0.00000000
     atom   14 type  1   force =     0.00011626   -0.00020133    0.00000000
     atom   15 type  1   force =    -0.00008173    0.00026591    0.00000000
     atom   16 type  1   force =    -0.00036018   -0.00006301   -0.00000001
     atom   17 type  1   force =     0.00006283    0.00020994   -0.00000000
     atom   18 type  1   force =    -0.00023203    0.00011033    0.00000000
     atom   19 type  1   force =     0.00020146    0.00024428    0.00000001
     atom   20 type  1   force =     0.00001046   -0.00014616    0.00000000
     atom   21 type  1   force =    -0.00016697   -0.00006701   -0.00000000
     atom   22 type  1   force =    -0.00019574   -0.00044338    0.00000001
     atom   23 type  1   force =     0.00005490   -0.00009508    0.00000000
     atom   24 type  1   force =     0.00048184   -0.00005222    0.00000000
     atom   25 type  1   force =     0.00014151    0.00011114    0.00000000
     atom   26 type  1   force =     0.00038305   -0.00002952   -0.00000000
     atom   27 type  1   force =     0.00002634    0.00008386   -0.00000000
     atom   28 type  1   force =    -0.00023654    0.00056475    0.00000000
     atom   29 type  1   force =    -0.00020968    0.00018911   -0.00000000
     atom   30 type  1   force =     0.00025805    0.00036080    0.00000000
     atom   31 type  1   force =     0.00003187    0.00009318   -0.00000001
     atom   32 type  1   force =     0.00012831   -0.00012026    0.00000000
     atom   33 type  1   force =     0.00009848   -0.00017060   -0.00000000
     atom   34 type  1   force =     0.00004007   -0.00017129   -0.00000000
     atom   35 type  1   force =    -0.00009664    0.00001896   -0.00000000
     atom   36 type  1   force =    -0.00044148   -0.00004310    0.00000000
     atom   37 type  1   force =    -0.00005887    0.00027614    0.00000000
     atom   38 type  1   force =    -0.00037091    0.00048732    0.00000000
     atom   39 type  1   force =    -0.00008575    0.00001906   -0.00000001
     atom   40 type  1   force =    -0.00016601   -0.00034641   -0.00000000
     atom   41 type  1   force =     0.00013496   -0.00022755   -0.00000001
     atom   42 type  1   force =     0.00007309   -0.00012660    0.00000000
     atom   43 type  1   force =     0.00012955   -0.00023066   -0.00000001
     atom   44 type  1   force =     0.00037991    0.00001337    0.00000000
     atom   45 type  1   force =     0.00054811    0.00001553   -0.00000000
     atom   46 type  1   force =    -0.00007028    0.00010940    0.00000000
     atom   47 type  1   force =    -0.00030538    0.00023585   -0.00000000
     atom   48 type  1   force =    -0.00009775    0.00021312   -0.00000000
     atom   49 type  1   force =     0.00024021    0.00012333    0.00000000
     atom   50 type  1   force =     0.00019818   -0.00031289    0.00000001
     atom   51 type  1   force =     0.00035892   -0.00063888   -0.00000001
     atom   52 type  1   force =    -0.00011948    0.00020719    0.00000001
     atom   53 type  1   force =     0.00037352   -0.00063027    0.00000001
     atom   54 type  1   force =     0.00017216   -0.00032828   -0.00000000
     atom   55 type  1   force =    -0.00022695   -0.00014629   -0.00000000
     atom   56 type  1   force =    -0.00013574    0.00019105   -0.00000000
     atom   57 type  1   force =    -0.00005141    0.00038243   -0.00000001
     atom   58 type  1   force =    -0.00005967    0.00011559    0.00000001
     atom   59 type  1   force =    -0.00028751   -0.00046698   -0.00000000
     atom   60 type  1   force =    -0.00020149   -0.00032227   -0.00000000
     atom   61 type  1   force =     0.00000318   -0.00000548   -0.00000000
     atom   62 type  1   force =     0.00009226    0.00005849   -0.00000001
     atom   63 type  1   force =     0.00002636   -0.00011251    0.00000000
     atom   64 type  1   force =    -0.00035203   -0.00047850   -0.00000000
     atom   65 type  1   force =    -0.00031494   -0.00014137    0.00000001
     atom   66 type  1   force =    -0.00015996   -0.00014025   -0.00000001
     atom   67 type  1   force =    -0.00018895   -0.00000606    0.00000001
     atom   68 type  1   force =     0.00008826   -0.00001622   -0.00000001
     atom   69 type  1   force =    -0.00006398   -0.00058904    0.00000000
     atom   70 type  1   force =     0.00076113   -0.00004437   -0.00000000
     atom   71 type  1   force =     0.00023789   -0.00041326   -0.00000001
     atom   72 type  1   force =    -0.00034151   -0.00068151    0.00000001
     atom   73 type  1   force =     0.00054187   -0.00023903    0.00000002
     atom   74 type  1   force =    -0.00003016   -0.00008459   -0.00000001
     atom   75 type  1   force =     0.00009982    0.00016064    0.00000001
     atom   76 type  1   force =     0.00020122    0.00006838   -0.00000001
     atom   77 type  1   force =     0.00028000    0.00020210    0.00000001
     atom   78 type  1   force =     0.00059043    0.00006561    0.00000001
     atom   79 type  1   force =     0.00008422   -0.00007910   -0.00000000
     atom   80 type  1   force =    -0.00009677   -0.00005065   -0.00000000
     atom   81 type  1   force =    -0.00032284    0.00002251   -0.00000001
     atom   82 type  1   force =    -0.00010622   -0.00026936    0.00000000
     atom   83 type  1   force =    -0.00019754   -0.00011270   -0.00000000
     atom   84 type  1   force =     0.00014944   -0.00024544   -0.00000000
     atom   85 type  1   force =     0.00019277   -0.00014527    0.00000001
     atom   86 type  1   force =     0.00021961    0.00020565   -0.00000000
     atom   87 type  1   force =     0.00001546    0.00039344   -0.00000002
     atom   88 type  1   force =     0.00065942    0.00033125    0.00000001
     atom   89 type  1   force =     0.00031323    0.00001864    0.00000000
     atom   90 type  1   force =    -0.00017248   -0.00026161    0.00000001
     atom   91 type  1   force =    -0.00061691   -0.00040514   -0.00000001
     atom   92 type  1   force =    -0.00034813    0.00018318    0.00000001
     atom   93 type  1   force =    -0.00028832   -0.00008713   -0.00000001
     atom   94 type  1   force =     0.00002956   -0.00023966    0.00000000
     atom   95 type  1   force =     0.00013777   -0.00025212    0.00000001
     atom   96 type  1   force =     0.00019634    0.00011473   -0.00000000
     atom   97 type  1   force =     0.00028643   -0.00004266    0.00000001
     atom   98 type  1   force =     0.00014191    0.00029083   -0.00000000
     atom   99 type  1   force =    -0.00003290    0.00005701   -0.00000000
     atom  100 type  1   force =    -0.00018146   -0.00000734   -0.00000000
     atom  101 type  1   force =     0.00007318   -0.00033853    0.00000000
     atom  102 type  1   force =     0.00004716   -0.00003540   -0.00000001
     atom  103 type  1   force =     0.00014728    0.00001667   -0.00000000
     atom  104 type  1   force =     0.00024214    0.00044311   -0.00000001
     atom  105 type  1   force =    -0.00013522   -0.00010151    0.00000001
     atom  106 type  1   force =     0.00009541    0.00030300    0.00000000
     atom  107 type  1   force =    -0.00028292    0.00065249    0.00000001
     atom  108 type  1   force =     0.00001601   -0.00002765    0.00000001
     atom  109 type  1   force =    -0.00042349    0.00057142   -0.00000000
     atom  110 type  1   force =    -0.00030958    0.00006828    0.00000002
     atom  111 type  1   force =     0.00015520    0.00006640   -0.00000000
     atom  112 type  1   force =    -0.00050460    0.00001165   -0.00000000
     atom  113 type  1   force =    -0.00008815   -0.00011915    0.00000001
     atom  114 type  1   force =     0.00000705   -0.00005859   -0.00000001
     atom  115 type  1   force =     0.00025664   -0.00023264   -0.00000001
     atom  116 type  1   force =     0.00009703    0.00015346   -0.00000001
     atom  117 type  1   force =    -0.00026134   -0.00005467   -0.00000000
     atom  118 type  1   force =    -0.00013039    0.00022576   -0.00000000
     atom  119 type  1   force =     0.00017807    0.00019904   -0.00000000
     atom  120 type  1   force =    -0.00003924   -0.00000765   -0.00000001
     atom  121 type  1   force =     0.00010517    0.00000218    0.00000000
     atom  122 type  1   force =     0.00016619    0.00012369    0.00000000
     atom  123 type  1   force =     0.00025238    0.00017427   -0.00000000
     atom  124 type  1   force =     0.00027946    0.00056090   -0.00000001
     atom  125 type  1   force =     0.00010726    0.00021973   -0.00000000
     atom  126 type  1   force =     0.00030573    0.00028378    0.00000000
     atom  127 type  1   force =    -0.00014394    0.00024937    0.00000000
     atom  128 type  1   force =    -0.00039860   -0.00012290    0.00000000
     atom  129 type  1   force =    -0.00024400    0.00001691   -0.00000000
     atom  130 type  1   force =    -0.00062541    0.00003843   -0.00000000
     atom  131 type  1   force =    -0.00027715   -0.00013146    0.00000000
     atom  132 type  1   force =    -0.00019022   -0.00008209   -0.00000000
     atom  133 type  1   force =    -0.00005448   -0.00009000   -0.00000000
     atom  134 type  1   force =     0.00002622    0.00003019    0.00000000
     atom  135 type  1   force =    -0.00024507   -0.00003956   -0.00000001
     atom  136 type  1   force =     0.00002477    0.00025937    0.00000000
     atom  137 type  1   force =    -0.00011029    0.00019109    0.00000000
     atom  138 type  1   force =    -0.00023705    0.00010820    0.00000000
     atom  139 type  1   force =     0.00015683    0.00019248   -0.00000000
     atom  140 type  1   force =    -0.00000230   -0.00009194   -0.00000000
     atom  141 type  1   force =    -0.00024880   -0.00009845   -0.00000000
     atom  142 type  1   force =     0.00004989    0.00003957    0.00000001
     atom  143 type  1   force =    -0.00014965    0.00001476   -0.00000002
     atom  144 type  1   force =    -0.00015723    0.00010776    0.00000000
     atom  145 type  1   force =     0.00002966   -0.00008613   -0.00000001
     atom  146 type  1   force =     0.00000869   -0.00001499    0.00000000
     atom  147 type  1   force =     0.00005966   -0.00006877    0.00000000
     atom  148 type  1   force =    -0.00001469    0.00019005   -0.00000001
     atom  149 type  1   force =     0.00006207    0.00013702   -0.00000001
     atom  150 type  1   force =    -0.00005924   -0.00002344    0.00000001
     atom  151 type  1   force =     0.00020969    0.00016624    0.00000000
     atom  152 type  1   force =     0.00008077   -0.00004398   -0.00000000
     atom  153 type  1   force =    -0.00022041    0.00009897    0.00000001
     atom  154 type  1   force =     0.00011476    0.00006676    0.00000000
     atom  155 type  1   force =    -0.00026065    0.00006246    0.00000001
     atom  156 type  1   force =    -0.00011610    0.00020103    0.00000000
     atom  157 type  1   force =     0.00007627    0.00025699    0.00000001
     atom  158 type  1   force =    -0.00011520   -0.00006603    0.00000000
     atom  159 type  1   force =     0.00002448    0.00024039   -0.00000000
     atom  160 type  1   force =     0.00004130   -0.00013500    0.00000000
     atom  161 type  1   force =    -0.00016904   -0.00014213   -0.00000000
     atom  162 type  1   force =     0.00000883   -0.00017831    0.00000000
     atom  163 type  1   force =    -0.00019776   -0.00049265    0.00000000
     atom  164 type  1   force =     0.00003293   -0.00029288   -0.00000000
     atom  165 type  1   force =     0.00008129   -0.00014085    0.00000000
     atom  166 type  1   force =     0.00023722   -0.00017493    0.00000000
     atom  167 type  1   force =     0.00052552   -0.00007504   -0.00000001
     atom  168 type  1   force =     0.00014998   -0.00009681    0.00000002
     atom  169 type  1   force =     0.00020762    0.00007535   -0.00000000
     atom  170 type  1   force =     0.00009626   -0.00010328   -0.00000000
     atom  171 type  1   force =    -0.00021648    0.00008235   -0.00000000
     atom  172 type  1   force =     0.00001876   -0.00014659    0.00000000
     atom  173 type  1   force =    -0.00013551   -0.00008945    0.00000000
     atom  174 type  1   force =    -0.00014442   -0.00004571    0.00000000
     atom  175 type  1   force =     0.00006502   -0.00011260    0.00000001
     atom  176 type  1   force =     0.00011179    0.00010220   -0.00000001
     atom  177 type  1   force =     0.00014523    0.00007264    0.00000000
     atom  178 type  1   force =     0.00011758   -0.00008955    0.00000001
     atom  179 type  1   force =     0.00003693    0.00022865   -0.00000000
     atom  180 type  1   force =     0.00017427   -0.00022684    0.00000000
     atom  181 type  1   force =     0.00000438    0.00007275   -0.00000000
     atom  182 type  1   force =    -0.00009808   -0.00008009   -0.00000001
     atom  183 type  1   force =    -0.00014423    0.00021772   -0.00000000
     atom  184 type  1   force =    -0.00019620    0.00033989   -0.00000001
     atom  185 type  1   force =    -0.00011647    0.00023375   -0.00000000
     atom  186 type  1   force =     0.00011841    0.00004491   -0.00000000
     atom  187 type  1   force =    -0.00006520    0.00003258    0.00000000
     atom  188 type  1   force =     0.00010932   -0.00026435   -0.00000000
     atom  189 type  1   force =    -0.00004731   -0.00004412   -0.00000000
     atom  190 type  1   force =    -0.00012028   -0.00020365    0.00000000
     atom  191 type  1   force =     0.00020670   -0.00016784    0.00000000
     atom  192 type  1   force =    -0.00030983    0.00001342   -0.00000000
     atom  193 type  1   force =     0.00013916   -0.00012312   -0.00000000
     atom  194 type  1   force =    -0.00014326    0.00024813    0.00000001
     atom  195 type  1   force =     0.00003705   -0.00018208   -0.00000000
     atom  196 type  1   force =     0.00014329    0.00027503   -0.00000001
     atom  197 type  1   force =     0.00004201   -0.00026292    0.00000000
     atom  198 type  1   force =     0.00023648    0.00000234   -0.00000000
     atom  199 type  1   force =     0.00006189    0.00001890    0.00000000

     Total force =     0.004429     Total SCF correction =     0.000002
     Energy error            =      3.2E-05 Ry
     Gradient error          =      7.6E-04 Ry/Bohr

     number of scf cycles    =  10
     number of bfgs steps    =   9

     energy             old  =   -2396.9739467034 Ry
     energy             new  =   -2396.9739784057 Ry

     CASE: energy            _new < energy            _old

     new trust radius        =       0.0022399021 bohr
     new conv_thr            =            3.2E-12 Ry


ATOMIC_POSITIONS (crystal)
C                0.0333315862        0.0333100660       -0.0000000007
C                0.0666646694        0.0666486127       -0.0000000007
C                0.0332948201        0.1333461051       -0.0000000003
C                0.0666440496        0.1666779748        0.0000000007
C                0.0332948198        0.2333590750        0.0000000004
C                0.0666646687        0.2666867173        0.0000000004
C                0.0333315851        0.3333583477        0.0000000001
C                0.0667372151        0.3666665968        0.0000000004
C                0.0334041040        0.4333296634        0.0000000016
C                0.0668118969        0.4666357644        0.0000000013
C                0.0333837892        0.5333025728        0.0000000008
C                0.0666859081        0.5666549526        0.0000000001
C                0.0333165338        0.6333271102       -0.0000000002
C                0.0666369981        0.6666815017       -0.0000000005
C                0.0333165341        0.7333563566        0.0000000009
C                0.0666859086        0.7666591400        0.0000000009
C                0.0333837902        0.8333136381        0.0000000009
C                0.0668118994        0.8665523370        0.0000000007
C                0.0334041056        0.9332662314       -0.0000000002
C                0.0667372165        0.9665961869       -0.0000000006
C                0.1333618304        0.0332757098       -0.0000000008
C                0.1666875832        0.0666318607        0.0000000006
C                0.1333391686        0.1333304152        0.0000000012
C                0.1666875829        0.1666805551        0.0000000011
C                0.1333618288        0.2333624595        0.0000000008
C                0.1667471731        0.2666974359        0.0000000003
C                0.1334481889        0.3333671264        0.0000000003
C                0.1668520471        0.3666942471        0.0000000001
C                0.1335388339        0.4333386117        0.0000000002
C                0.1669381083        0.4666893292       -0.0000000003
C                0.1333682390        0.5333430572       -0.0000000008
C                0.1666010733        0.5667270307       -0.0000000023
C                0.1332086882        0.6333956566       -0.0000000020
C                0.1666010755        0.6666718968       -0.0000000019
C                0.1333682403        0.7332887034       -0.0000000005
C                0.1669381125        0.7663725599       -0.0000000002
C                0.1335388367        0.8331225527        0.0000000009
C                0.1668520488        0.8664537036        0.0000000010
C                0.1334481915        0.9331846825       -0.0000000002
C                0.1667471739        0.9665553894       -0.0000000005
C                0.2333703677        0.0332745597        0.0000000009
C                0.2666951004        0.0666524491        0.0000000015
C                0.2333703669        0.1333550710        0.0000000007
C                0.2667080691        0.1667424318        0.0000000007
C                0.2334202317        0.2334148508        0.0000000002
C                0.2667959302        0.2667980744       -0.0000000003
C                0.2335364288        0.3334421404       -0.0000000002
C                0.2669585943        0.3668116896       -0.0000000003
C                0.2337153470        0.4334389234       -0.0000000006
C                0.2670798136        0.4669334312       -0.0000000009
C                0.2331498252        0.5334797099       -0.0000000013
C                0.2664368216        0.5667815918       -0.0000000020
C                0.2331498244        0.6333704647       -0.0000000032
C                0.2670798237        0.6659867499       -0.0000000026
C                0.2337153504        0.7328457262        0.0000000001
C                0.2669585985        0.7662297130        0.0000000001
C                0.2335364300        0.8330214308        0.0000000007
C                0.2667959316        0.8664059924       -0.0000000003
C                0.2334202337        0.9331649151       -0.0000000004
C                0.2667080694        0.9665494980        0.0000000004
C                0.3333686725        0.0333156629        0.0000000004
C                0.3666739743        0.0667380482        0.0000000003
C                0.3333793179        0.1334560634        0.0000000003
C                0.3666998209        0.1668786642        0.0000000000
C                0.3334409609        0.2335648137        0.0000000002
C                0.3667830488        0.2670247757        0.0000000002
C                0.3335546236        0.3336153402        0.0000000005
C                0.3670219915        0.3671372341        0.0000000014
C                0.3339522742        0.4335134907       -0.0000000003
C                0.3676279152        0.4676286923       -0.0000000006
C                0.3324177142        0.5337911384       -0.0000000012
C                0.3676279307        0.5647433730       -0.0000000030
C                0.3339522849        0.6325342244       -0.0000000039
C                0.3670219952        0.6658407690       -0.0000000020
C                0.3335546256        0.7328300345       -0.0000000003
C                0.3667830487        0.7661921740        0.0000000005
C                0.3334409622        0.8329942249       -0.0000000006
C                0.3666998214        0.8664215133       -0.0000000010
C                0.3333793186        0.9331646169       -0.0000000000
C                0.3666739745        0.9665879762        0.0000000005
C                0.4333364570        0.0334177806        0.0000000007
C                0.4666337130        0.0668538539       -0.0000000003
C                0.4333416006        0.1335990273       -0.0000000005
C                0.4666648129        0.1670505654       -0.0000000014
C                0.4334084699        0.2338562030       -0.0000000009
C                0.4668622924        0.2673052624        0.0000000001
C                0.4334177592        0.3342318411        0.0000000011
C                0.4674784616        0.3680650191       -0.0000000014
C                0.4326755322        0.4332267272       -0.0000000034
C                0.4326755578        0.5340977064       -0.0000000017
C                0.4674784691        0.5644565068       -0.0000000008
C                0.4334177619        0.6323503929       -0.0000000006
C                0.4668622895        0.6658324420        0.0000000005
C                0.4334084735        0.7327353239        0.0000000008
C                0.4666648118        0.7662846209       -0.0000000003
C                0.4333416010        0.8330593712       -0.0000000006
C                0.4666337128        0.8665124325       -0.0000000001
C                0.4333364572        0.9332457609        0.0000000007
C                0.4666417185        0.9666791405        0.0000000011
C                0.5332972903        0.0334325418        0.0000000004
C                0.5666297642        0.0667653629       -0.0000000001
C                0.5333142883        0.1334753872       -0.0000000004
C                0.5666668803        0.1667530788       -0.0000000003
C                0.5334154486        0.2333407766       -0.0000000014
C                0.5666958561        0.2666610811       -0.0000000019
C                0.5336898655        0.3327041918       -0.0000000018
C                0.5649332079        0.3676508671       -0.0000000031
C                0.5349123292        0.4325438456       -0.0000000010
C                0.5649332151        0.4674159281       -0.0000000007
C                0.5336898735        0.5336059436       -0.0000000000
C                0.5666958523        0.5666430649       -0.0000000003
C                0.5334154519        0.6332437764        0.0000000002
C                0.5666668782        0.6665800436        0.0000000000
C                0.5333142891        0.7332103246       -0.0000000001
C                0.5666297644        0.7666048745        0.0000000006
C                0.5332972905        0.8332701680        0.0000000008
C                0.5666235652        0.8666517714        0.0000000010
C                0.5333092779        0.9333453610        0.0000000008
C                0.5666235652        0.9667246641        0.0000000007
C                0.6333001986        0.0333754157        0.0000000004
C                0.6666350030        0.0667155424        0.0000000003
C                0.6333393006        0.1333125113       -0.0000000002
C                0.6666163846        0.1667057732        0.0000000004
C                0.6333240643        0.2332758154       -0.0000000011
C                0.6660654025        0.2670881817       -0.0000000016
C                0.6327312726        0.3339243104       -0.0000000027
C                0.6660653604        0.3669673212       -0.0000000012
C                0.6327312767        0.4333444209       -0.0000000005
C                0.6660654046        0.4668464190       -0.0000000001
C                0.6333240641        0.5334001245       -0.0000000007
C                0.6666163847        0.5666778447       -0.0000000005
C                0.6333393006        0.6333481909       -0.0000000003
C                0.6666350031        0.6666494563        0.0000000005
C                0.6333001981        0.7333243873        0.0000000011
C                0.6666397971        0.7666535535        0.0000000010
C                0.6333029909        0.8333327108        0.0000000005
C                0.6666423227        0.8666788391        0.0000000003
C                0.6333029912        0.9333642983        0.0000000008
C                0.6666397974        0.9667066504        0.0000000003
C                0.7333143550        0.0333634372        0.0000000011
C                0.7666226484        0.0667253882        0.0000000014
C                0.7332530762        0.1334156968        0.0000000009
C                0.7663899011        0.1669333737       -0.0000000000
C                0.7329174154        0.2336977584       -0.0000000008
C                0.7663356544        0.2669108704       -0.0000000001
C                0.7330125153        0.3334937442        0.0000000000
C                0.7663356546        0.3667534777        0.0000000005
C                0.7329174159        0.4333848306        0.0000000006
C                0.7663899017        0.4666767278       -0.0000000008
C                0.7332530758        0.5333312296       -0.0000000008
C                0.7666226484        0.5666519652       -0.0000000008
C                0.7333143549        0.6333222091        0.0000000001
C                0.7666454868        0.6666522930        0.0000000001
C                0.7333192845        0.7333295379        0.0000000007
C                0.7666543883        0.7666601407        0.0000000006
C                0.7333247244        0.8333376378        0.0000000006
C                0.7666543883        0.8666854717        0.0000000007
C                0.7333192848        0.9333511780        0.0000000003
C                0.7666454868        0.9667022212        0.0000000009
C                0.8332861783        0.0334038472        0.0000000006
C                0.8665558172        0.0668008382        0.0000000001
C                0.8331400855        0.1335196513       -0.0000000002
C                0.8664959351        0.1668122491       -0.0000000005
C                0.8331047306        0.2334878000        0.0000000000
C                0.8664756207        0.2667621902        0.0000000004
C                0.8331047305        0.3334074715        0.0000000002
C                0.8664959358        0.3666918169        0.0000000006
C                0.8331400862        0.4333402643        0.0000000001
C                0.8665558173        0.4666433457        0.0000000002
C                0.8332861780        0.5333099757       -0.0000000002
C                0.8666510403        0.5666355872        0.0000000003
C                0.8333233770        0.6333133731       -0.0000000000
C                0.8666648786        0.6666503522        0.0000000001
C                0.8333286909        0.7333311255        0.0000000001
C                0.8666718771        0.7666640617        0.0000000012
C                0.8333286910        0.8333401837        0.0000000013
C                0.8666648791        0.8666847696        0.0000000017
C                0.8333233777        0.9333632500        0.0000000013
C                0.8666510411        0.9667133729        0.0000000007
C                0.9332737962        0.0333924218       -0.0000000003
C                0.9666176696        0.0667124468       -0.0000000003
C                0.9332173208        0.1334171480       -0.0000000001
C                0.9665828454        0.1667236684        0.0000000003
C                0.9332138840        0.2333930584        0.0000000010
C                0.9665828455        0.2666934859        0.0000000009
C                0.9332173210        0.3333655316        0.0000000008
C                0.9666176691        0.3666698839        0.0000000009
C                0.9332737955        0.4333337825        0.0000000011
C                0.9666798612        0.4666451875        0.0000000015
C                0.9333348092        0.5333132658        0.0000000008
C                0.9666935260        0.5666331249        0.0000000006
C                0.9333402448        0.6333118669        0.0000000008
C                0.9666691473        0.6666577115        0.0000000008
C                0.9333283941        0.7333358033        0.0000000010
C                0.9666691480        0.7666731418        0.0000000016
C                0.9333402453        0.8333478885        0.0000000022
C                0.9666935275        0.8666733490        0.0000000014
C                0.9333348099        0.9333519249        0.0000000009
C                0.9666798628        0.9666749509       -0.0000000001



     Writing config-only to output data dir /home/gregb26/links/scratch/qe_tmp/vacancy_relaxed/series/10x10/nspin1/vac_10x10_relax_nspin1.save/ :
     XML data file
     NEW-OLD atomic charge density approx. for the potential

     negative rho (up, down):  4.240E-07 0.000E+00

     total cpu time spent up to now is     1825.5 secs

     per-process dynamical memory:   459.1 Mb

     Self-consistent Calculation

     iteration #  1     ecut=   100.00 Ry     beta= 0.30
     Davidson diagonalization with overlap
     ethr =  1.00E-06,  avg # of iterations =  3.0

     Threshold (ethr) on eigenvalues was too large:
     Diagonalizing with lowered threshold

     Davidson diagonalization with overlap
     ethr =  6.59E-10,  avg # of iterations =  7.0

     negative rho (up, down):  2.713E-07 0.000E+00

     total cpu time spent up to now is     1861.5 secs

     total energy              =   -2396.97399379 Ry
     estimated scf accuracy    <       0.00001045 Ry

     iteration #  2     ecut=   100.00 Ry     beta= 0.30
     Davidson diagonalization with overlap
     ethr =  1.31E-09,  avg # of iterations =  3.0

     negative rho (up, down):  1.864E-07 0.000E+00

     total cpu time spent up to now is     1871.4 secs

     total energy              =   -2396.97399372 Ry
     estimated scf accuracy    <       0.00000468 Ry

     iteration #  3     ecut=   100.00 Ry     beta= 0.30
     Davidson diagonalization with overlap
     ethr =  5.89E-10,  avg # of iterations =  5.0

     negative rho (up, down):  1.025E-07 0.000E+00

     total cpu time spent up to now is     1881.3 secs

     total energy              =   -2396.97399368 Ry
     estimated scf accuracy    <       0.00000480 Ry

     iteration #  4     ecut=   100.00 Ry     beta= 0.30
     Davidson diagonalization with overlap
     ethr =  5.89E-10,  avg # of iterations =  5.0

     negative rho (up, down):  4.426E-08 0.000E+00

     total cpu time spent up to now is     1891.3 secs

     total energy              =   -2396.97399406 Ry
     estimated scf accuracy    <       0.00000098 Ry

     iteration #  5     ecut=   100.00 Ry     beta= 0.30
     Davidson diagonalization with overlap
     ethr =  1.23E-10,  avg # of iterations =  5.0

     negative rho (up, down):  1.165E-08 0.000E+00

     total cpu time spent up to now is     1901.5 secs

     total energy              =   -2396.97399415 Ry
     estimated scf accuracy    <       0.00000015 Ry

     iteration #  6     ecut=   100.00 Ry     beta= 0.30
     Davidson diagonalization with overlap
     ethr =  1.86E-11,  avg # of iterations =  5.0

     total cpu time spent up to now is     1912.2 secs

     total energy              =   -2396.97399417 Ry
     estimated scf accuracy    <       0.00000002 Ry

     iteration #  7     ecut=   100.00 Ry     beta= 0.30
     Davidson diagonalization with overlap
     ethr =  2.73E-12,  avg # of iterations =  5.0

     total cpu time spent up to now is     1925.6 secs

     total energy              =   -2396.97399418 Ry
     estimated scf accuracy    <          4.3E-09 Ry

     iteration #  8     ecut=   100.00 Ry     beta= 0.30
     Davidson diagonalization with overlap
     ethr =  5.41E-13,  avg # of iterations =  4.0

     total cpu time spent up to now is     1936.7 secs

     total energy              =   -2396.97399418 Ry
     estimated scf accuracy    <          1.4E-09 Ry

     iteration #  9     ecut=   100.00 Ry     beta= 0.30
     Davidson diagonalization with overlap
     ethr =  1.70E-13,  avg # of iterations =  5.0

     total cpu time spent up to now is     1948.4 secs

     total energy              =   -2396.97399418 Ry
     estimated scf accuracy    <          2.3E-10 Ry

     iteration # 10     ecut=   100.00 Ry     beta= 0.30
     Davidson diagonalization with overlap
     ethr =  1.00E-13,  avg # of iterations =  2.0

     total cpu time spent up to now is     1958.1 secs

     total energy              =   -2396.97399418 Ry
     estimated scf accuracy    <          8.5E-11 Ry

     iteration # 11     ecut=   100.00 Ry     beta= 0.30
     Davidson diagonalization with overlap
     ethr =  1.00E-13,  avg # of iterations =  1.0

     total cpu time spent up to now is     1967.2 secs

     total energy              =   -2396.97399418 Ry
     estimated scf accuracy    <          1.7E-11 Ry

     iteration # 12     ecut=   100.00 Ry     beta= 0.30
     Davidson diagonalization with overlap
     ethr =  1.00E-13,  avg # of iterations =  1.0

     total cpu time spent up to now is     1976.1 secs

     End of self-consistent calculation

          k = 0.0000 0.0000 0.0000 (476289 PWs)   bands (ev):

   -23.7948 -23.5888 -23.5832 -23.5547 -23.5472 -23.5457 -23.5416 -23.1298
   -23.1243 -23.0938 -23.0937 -23.0830 -23.0379 -22.8790 -22.8767 -22.8618
   -22.8606 -22.8555 -22.7789 -22.2213 -22.2150 -22.1965 -22.1965 -22.1754
   -22.1576 -22.1501 -22.1491 -22.1443 -22.1435 -22.1426 -21.9999 -21.7154
   -21.7151 -21.7124 -21.7079 -21.7075 -21.5744 -21.0494 -21.0489 -21.0288
   -21.0243 -21.0225 -20.9440 -20.8244 -20.8243 -20.8156 -20.7989 -20.7967
   -20.7929 -20.7892 -20.7889 -20.7837 -20.7823 -20.7811 -20.5134 -20.1421
   -20.1412 -20.1401 -20.1162 -20.1152 -19.9798 -19.5313 -19.5307 -19.5112
   -19.4697 -19.4676 -19.4584 -19.4553 -19.4537 -19.4536 -19.4501 -19.4490
   -19.2880 -19.1067 -19.1054 -19.0859 -19.0599 -19.0564 -19.0546 -19.0530
   -19.0528 -19.0504 -19.0374 -19.0363 -18.7082 -18.5704 -18.5690 -18.4062
   -17.9968 -17.9774 -17.9763 -17.9543 -17.9541 -17.8813 -17.8509 -17.8474
   -17.8473 -17.8251 -17.8249 -17.6539 -17.5063 -17.5055 -17.3185 -16.9939
   -16.9937 -16.9895 -16.9340 -16.9334 -16.8571 -16.6852 -16.6817 -16.6807
   -16.6564 -16.6564 -16.6554 -16.6358 -16.6339 -16.6336 -16.5612 -16.5593
   -16.3700 -16.2042 -16.1418 -16.1394 -16.1282 -16.1274 -15.8507 -15.6486
   -15.6425 -15.6412 -15.5728 -15.5726 -15.4619 -15.2719 -15.2483 -15.2466
   -15.2429 -15.2421 -15.2303 -15.2218 -15.2214 -15.2213 -15.1342 -15.1334
   -14.6433 -14.4819 -14.4813 -14.4581 -14.4483 -14.4436 -14.4434 -14.3227
   -14.3108 -14.3086 -14.2724 -14.2652 -14.2642 -14.2641 -14.2641 -14.2621
   -14.1179 -14.1172 -13.6455 -13.2664 -13.2634 -13.2559 -13.2339 -13.2337
   -13.1763 -13.1717 -13.1430 -13.1428 -13.1041 -13.1024 -13.0983 -13.0794
   -13.0591 -13.0580 -12.9856 -12.9846 -12.9001 -12.8916 -12.8457 -12.8448
   -12.8306 -12.8306 -12.8244 -12.8176 -12.8173 -12.8136 -12.6115 -12.6108
   -12.2024 -11.8755 -11.8540 -11.8491 -11.8366 -11.8364 -11.7790 -11.7788
   -11.7681 -11.7668 -11.7566 -11.7432 -11.7421 -11.7418 -11.7371 -11.7369
   -11.7367 -11.6328 -11.6318 -11.6195 -11.6154 -11.5887 -11.5875 -11.5844
   -11.5740 -11.5141 -11.4639 -11.4202 -11.4194 -11.3808 -11.3776 -11.3759
   -11.3748 -11.3747 -11.3688 -11.2245 -11.2228 -11.0677 -11.0639 -11.0412
   -11.0412 -11.0346 -11.0094 -10.9941 -10.9809 -10.9570 -10.9539 -10.9209
   -10.9204 -10.9170 -10.9129 -10.9121 -10.8953 -10.7835 -10.7833 -10.7815
   -10.7802 -10.7668 -10.7658 -10.7629 -10.7296 -10.6784 -10.6694 -10.6693
   -10.6356 -10.5159 -10.5122 -10.5105 -10.4773 -10.4761 -10.4732 -10.4485
   -10.4302 -10.4298 -10.2578 -10.2552 -10.0846 -10.0842 -10.0402 -10.0391
    -9.9997  -9.9956  -9.9954  -9.9942  -9.9925  -9.9861  -9.9859  -9.9745
    -9.9738  -9.9721  -9.9587  -9.9451  -9.9395  -9.9387  -9.9355  -9.9341
    -9.9335  -9.8609  -9.8595  -9.8307  -9.8256  -9.8244  -9.7971  -9.7844
    -9.7745  -9.7000  -9.6985  -9.6082  -9.6080  -9.5825  -9.4402  -9.4386
    -9.4324  -9.4294  -9.4283  -9.3031  -9.1716  -9.1711  -8.8809  -8.8538
    -8.8527  -8.8187  -8.8022  -8.7671  -8.7665  -8.7525  -8.7518  -8.7471
    -8.6578  -8.6555  -8.6514  -8.6512  -8.6414  -8.5854  -8.5695  -8.4353
    -8.4333  -8.4291  -8.4277  -8.4222  -8.4205  -8.4198  -8.4049  -8.4024
    -8.4021  -8.3996  -8.3974  -8.3965  -8.2426  -8.2420  -8.2295  -8.1502
    -7.9428  -7.9408  -7.9118  -7.8143  -7.8063  -7.8051  -7.7776  -7.7569
    -7.7568  -7.7507  -7.7466  -7.7461  -7.6021  -7.3730  -7.3721  -7.0156
    -7.0136  -6.9973  -6.9970  -6.9904  -6.9593  -6.9561  -6.9561  -6.9545
    -6.9523  -6.9521  -6.8792  -6.8099  -6.8096  -6.7691  -6.7669  -6.7663
    -6.7653  -6.7645  -6.7638  -6.7561  -6.7556  -6.7549  -6.6343  -6.6226
    -6.6214  -6.1337  -5.7820  -5.7817  -5.7688  -5.7586  -5.7586  -5.5108
    -5.2967  -5.2922  -5.2921  -5.2799  -5.2799  -4.6929  -4.4494  -4.3849
    -3.2928  -3.2393  -3.2382  -3.2293  -3.2292  -3.1515  -2.9719  -2.9664
    -2.9658  -2.9370  -2.9368  -2.7948  -2.5658  -2.5653  -2.4879  -2.2177
    -2.2172  -2.2137  -2.2008  -2.2005  -2.1795  -2.1751  -2.1747  -2.1736
    -2.1534  -2.1530  -1.9061  -1.6254

     the Fermi energy is    -4.5803 ev

!    total energy              =   -2396.97399418 Ry
     estimated scf accuracy    <          3.1E-12 Ry
     smearing contrib. (-TS)   =      -0.00004556 Ry
     internal energy E=F+TS    =   -2396.97394862 Ry

     The total energy is F=E-TS. E is the sum of the following terms:
     one-electron contribution =  -27163.33943597 Ry
     hartree contribution      =   13655.63915843 Ry
     xc contribution           =    -852.89148369 Ry
     ewald contribution        =   11963.61781261 Ry

     convergence has been achieved in  12 iterations

     Forces acting on atoms (cartesian axes, Ry/au):

     atom    1 type  1   force =     0.00002085   -0.00002183   -0.00000000
     atom    2 type  1   force =     0.00005020   -0.00008101   -0.00000000
     atom    3 type  1   force =    -0.00003529   -0.00003720   -0.00000000
     atom    4 type  1   force =     0.00010496   -0.00018176   -0.00000000
     atom    5 type  1   force =     0.00004983    0.00001194    0.00000000
     atom    6 type  1   force =     0.00004508   -0.00008394   -0.00000000
     atom    7 type  1   force =     0.00000850   -0.00002898    0.00000000
     atom    8 type  1   force =    -0.00006149   -0.00004112   -0.00000000
     atom    9 type  1   force =    -0.00011102    0.00010158   -0.00000000
     atom   10 type  1   force =    -0.00006663    0.00011078   -0.00000000
     atom   11 type  1   force =     0.00003889    0.00017791   -0.00000000
     atom   12 type  1   force =    -0.00002319    0.00008569   -0.00000000
     atom   13 type  1   force =     0.00010709    0.00009742    0.00000001
     atom   14 type  1   force =     0.00005238   -0.00009074   -0.00000000
     atom   15 type  1   force =    -0.00013787   -0.00004402   -0.00000000
     atom   16 type  1   force =    -0.00006261    0.00006289   -0.00000000
     atom   17 type  1   force =    -0.00017350    0.00005526    0.00000001
     atom   18 type  1   force =    -0.00006260    0.00011309    0.00000001
     atom   19 type  1   force =    -0.00003245    0.00014694    0.00000001
     atom   20 type  1   force =     0.00006636    0.00003267    0.00000000
     atom   21 type  1   force =    -0.00003399   -0.00009066    0.00000000
     atom   22 type  1   force =     0.00009056    0.00001894   -0.00000000
     atom   23 type  1   force =     0.00004265   -0.00007389   -0.00000000
     atom   24 type  1   force =    -0.00006170   -0.00006894   -0.00000000
     atom   25 type  1   force =     0.00009553   -0.00001594    0.00000000
     atom   26 type  1   force =     0.00017453    0.00005498    0.00000000
     atom   27 type  1   force =    -0.00024038    0.00024336   -0.00000000
     atom   28 type  1   force =    -0.00016100    0.00032499    0.00000000
     atom   29 type  1   force =     0.00021908    0.00027289   -0.00000000
     atom   30 type  1   force =     0.00009044    0.00012676    0.00000000
     atom   31 type  1   force =     0.00001830    0.00006221   -0.00000001
     atom   32 type  1   force =     0.00016427   -0.00024010    0.00000000
     atom   33 type  1   force =     0.00017466   -0.00030246   -0.00000000
     atom   34 type  1   force =     0.00012572   -0.00026227   -0.00000000
     atom   35 type  1   force =    -0.00006296    0.00001526   -0.00000000
     atom   36 type  1   force =    -0.00015502   -0.00001491    0.00000000
     atom   37 type  1   force =    -0.00034589   -0.00005332   -0.00000000
     atom   38 type  1   force =    -0.00020089    0.00030191   -0.00000000
     atom   39 type  1   force =    -0.00009061    0.00032989    0.00000001
     atom   40 type  1   force =    -0.00013484   -0.00012371   -0.00000001
     atom   41 type  1   force =     0.00004009   -0.00012149   -0.00000000
     atom   42 type  1   force =     0.00000275   -0.00000479   -0.00000000
     atom   43 type  1   force =     0.00008523   -0.00009547    0.00000001
     atom   44 type  1   force =     0.00015563   -0.00005374   -0.00000000
     atom   45 type  1   force =    -0.00022817    0.00000296    0.00000001
     atom   46 type  1   force =     0.00000058    0.00005002    0.00000001
     atom   47 type  1   force =     0.00003719    0.00026197   -0.00000000
     atom   48 type  1   force =    -0.00019117    0.00017761    0.00000000
     atom   49 type  1   force =     0.00019883   -0.00022274    0.00000000
     atom   50 type  1   force =     0.00015673   -0.00021691   -0.00000000
     atom   51 type  1   force =     0.00006420   -0.00025183   -0.00000000
     atom   52 type  1   force =     0.00007157   -0.00012430    0.00000000
     atom   53 type  1   force =     0.00018633   -0.00018159    0.00000000
     atom   54 type  1   force =     0.00010930   -0.00024415    0.00000000
     atom   55 type  1   force =     0.00009358   -0.00028369   -0.00000001
     atom   56 type  1   force =    -0.00005826    0.00025443    0.00000000
     atom   57 type  1   force =    -0.00024559    0.00009863   -0.00000000
     atom   58 type  1   force =    -0.00004350    0.00002456    0.00000000
     atom   59 type  1   force =     0.00011149    0.00019910    0.00000000
     atom   60 type  1   force =    -0.00003128   -0.00016172   -0.00000001
     atom   61 type  1   force =     0.00000330   -0.00000568    0.00000000
     atom   62 type  1   force =    -0.00009920    0.00004103   -0.00000000
     atom   63 type  1   force =    -0.00033630   -0.00026626   -0.00000001
     atom   64 type  1   force =    -0.00020521   -0.00024823   -0.00000001
     atom   65 type  1   force =    -0.00000738   -0.00020334   -0.00000000
     atom   66 type  1   force =    -0.00023999   -0.00013814   -0.00000000
     atom   67 type  1   force =     0.00029067   -0.00003593   -0.00000000
     atom   68 type  1   force =    -0.00024129   -0.00006330   -0.00000001
     atom   69 type  1   force =     0.00027433   -0.00011867    0.00000000
     atom   70 type  1   force =     0.00013597   -0.00006222   -0.00000000
     atom   71 type  1   force =    -0.00003390    0.00005919   -0.00000001
     atom   72 type  1   force =    -0.00001404   -0.00014886   -0.00000000
     atom   73 type  1   force =    -0.00003450   -0.00029709    0.00000001
     atom   74 type  1   force =     0.00017548    0.00017725   -0.00000000
     atom   75 type  1   force =    -0.00011429   -0.00026982   -0.00000000
     atom   76 type  1   force =     0.00023974    0.00013869   -0.00000000
     atom   77 type  1   force =     0.00017968   -0.00009536    0.00000000
     atom   78 type  1   force =     0.00031761    0.00005360    0.00000000
     atom   79 type  1   force =     0.00039873    0.00015811   -0.00000000
     atom   80 type  1   force =     0.00001405    0.00010642    0.00000001
     atom   81 type  1   force =    -0.00015458   -0.00010931   -0.00000000
     atom   82 type  1   force =    -0.00006920   -0.00001561    0.00000000
     atom   83 type  1   force =     0.00017072   -0.00023440   -0.00000000
     atom   84 type  1   force =     0.00001473   -0.00010984   -0.00000000
     atom   85 type  1   force =     0.00025425    0.00020675    0.00000000
     atom   86 type  1   force =     0.00011278    0.00016665   -0.00000000
     atom   87 type  1   force =     0.00017061    0.00007196   -0.00000000
     atom   88 type  1   force =     0.00023043    0.00014899    0.00000000
     atom   89 type  1   force =     0.00013987    0.00001415   -0.00000001
     atom   90 type  1   force =    -0.00008222   -0.00011403   -0.00000000
     atom   91 type  1   force =    -0.00024413   -0.00012498    0.00000000
     atom   92 type  1   force =    -0.00014775   -0.00011190   -0.00000000
     atom   93 type  1   force =    -0.00020052   -0.00001456    0.00000000
     atom   94 type  1   force =    -0.00030636   -0.00011669   -0.00000001
     atom   95 type  1   force =     0.00008783   -0.00006778    0.00000000
     atom   96 type  1   force =     0.00011760   -0.00026505   -0.00000000
     atom   97 type  1   force =     0.00004812    0.00005209    0.00000000
     atom   98 type  1   force =     0.00017199    0.00007923   -0.00000001
     atom   99 type  1   force =    -0.00005753    0.00009959    0.00000000
     atom  100 type  1   force =    -0.00007602   -0.00019793   -0.00000001
     atom  101 type  1   force =    -0.00004628   -0.00001367   -0.00000000
     atom  102 type  1   force =     0.00006510   -0.00006707   -0.00000000
     atom  103 type  1   force =     0.00005096    0.00009710   -0.00000000
     atom  104 type  1   force =     0.00004676    0.00020042    0.00000000
     atom  105 type  1   force =     0.00002892    0.00011244    0.00000001
     atom  106 type  1   force =    -0.00006610    0.00005358    0.00000001
     atom  107 type  1   force =    -0.00006564    0.00013804    0.00000001
     atom  108 type  1   force =     0.00003073   -0.00005342    0.00000001
     atom  109 type  1   force =    -0.00008653    0.00012589   -0.00000000
     atom  110 type  1   force =    -0.00001363    0.00008426   -0.00000000
     atom  111 type  1   force =    -0.00011146    0.00003106    0.00000000
     atom  112 type  1   force =    -0.00019730    0.00005990   -0.00000000
     atom  113 type  1   force =    -0.00010950    0.00000430   -0.00000000
     atom  114 type  1   force =     0.00002551   -0.00008979   -0.00000000
     atom  115 type  1   force =     0.00003492    0.00003323   -0.00000000
     atom  116 type  1   force =     0.00020945   -0.00003310   -0.00000000
     atom  117 type  1   force =     0.00007023    0.00014153   -0.00000000
     atom  118 type  1   force =    -0.00004619    0.00008004    0.00000001
     atom  119 type  1   force =    -0.00015770    0.00000993    0.00000000
     atom  120 type  1   force =     0.00008605   -0.00011924   -0.00000001
     atom  121 type  1   force =     0.00009625    0.00009230    0.00000000
     atom  122 type  1   force =     0.00028816    0.00026728    0.00000001
     atom  123 type  1   force =     0.00011928    0.00013495   -0.00000000
     atom  124 type  1   force =     0.00012409    0.00024135    0.00000000
     atom  125 type  1   force =     0.00008792    0.00022865   -0.00000000
     atom  126 type  1   force =    -0.00009669    0.00019160    0.00000000
     atom  127 type  1   force =     0.00005916   -0.00010232    0.00000000
     atom  128 type  1   force =    -0.00011765    0.00017948   -0.00000001
     atom  129 type  1   force =    -0.00024193    0.00003825    0.00000000
     atom  130 type  1   force =    -0.00027117    0.00001324    0.00000001
     atom  131 type  1   force =    -0.00017650   -0.00003578   -0.00000001
     atom  132 type  1   force =    -0.00037560   -0.00011589    0.00000000
     atom  133 type  1   force =    -0.00012808   -0.00003719   -0.00000000
     atom  134 type  1   force =     0.00006025   -0.00013416   -0.00000000
     atom  135 type  1   force =     0.00007626    0.00010398    0.00000001
     atom  136 type  1   force =    -0.00013704    0.00002102   -0.00000000
     atom  137 type  1   force =    -0.00004271    0.00007393    0.00000001
     atom  138 type  1   force =     0.00005035    0.00012921   -0.00000000
     atom  139 type  1   force =    -0.00012820   -0.00001406    0.00000000
     atom  140 type  1   force =    -0.00003842   -0.00001971   -0.00000000
     atom  141 type  1   force =     0.00002592   -0.00001134   -0.00000000
     atom  142 type  1   force =     0.00007427    0.00008883    0.00000000
     atom  143 type  1   force =    -0.00003456   -0.00008603   -0.00000000
     atom  144 type  1   force =     0.00010139    0.00032238    0.00000000
     atom  145 type  1   force =     0.00000470   -0.00023485   -0.00000001
     atom  146 type  1   force =    -0.00020146    0.00034891   -0.00000000
     atom  147 type  1   force =     0.00020109   -0.00012146    0.00000000
     atom  148 type  1   force =    -0.00032991    0.00007334   -0.00000001
     atom  149 type  1   force =     0.00009179   -0.00001307    0.00000001
     atom  150 type  1   force =    -0.00011406   -0.00001993   -0.00000000
     atom  151 type  1   force =    -0.00000315   -0.00002811    0.00000000
     atom  152 type  1   force =     0.00003629    0.00002343   -0.00000000
     atom  153 type  1   force =     0.00008983   -0.00002753   -0.00000000
     atom  154 type  1   force =    -0.00013014    0.00005090    0.00000000
     atom  155 type  1   force =     0.00015075    0.00009036    0.00000001
     atom  156 type  1   force =    -0.00008030    0.00013913   -0.00000001
     atom  157 type  1   force =    -0.00015364   -0.00008538    0.00000000
     atom  158 type  1   force =     0.00002101    0.00013817   -0.00000000
     atom  159 type  1   force =    -0.00002106   -0.00009159   -0.00000000
     atom  160 type  1   force =    -0.00008898   -0.00012141   -0.00000000
     atom  161 type  1   force =    -0.00000043   -0.00005835   -0.00000000
     atom  162 type  1   force =    -0.00017824    0.00003369   -0.00000000
     atom  163 type  1   force =    -0.00009861   -0.00028579    0.00000001
     atom  164 type  1   force =    -0.00015568   -0.00001380    0.00000000
     atom  165 type  1   force =     0.00003830   -0.00006628    0.00000000
     atom  166 type  1   force =     0.00008978    0.00012792    0.00000000
     atom  167 type  1   force =     0.00029680   -0.00005747   -0.00000000
     atom  168 type  1   force =     0.00005994    0.00017123    0.00000000
     atom  169 type  1   force =     0.00005073   -0.00002878    0.00000000
     atom  170 type  1   force =     0.00014964    0.00001635    0.00000000
     atom  171 type  1   force =     0.00006162   -0.00008550    0.00000000
     atom  172 type  1   force =    -0.00013818    0.00002747    0.00000001
     atom  173 type  1   force =    -0.00004512    0.00003456    0.00000000
     atom  174 type  1   force =    -0.00008056    0.00000813   -0.00000000
     atom  175 type  1   force =    -0.00014927    0.00025853   -0.00000000
     atom  176 type  1   force =     0.00003327    0.00007384   -0.00000000
     atom  177 type  1   force =    -0.00000738    0.00005635    0.00000001
     atom  178 type  1   force =     0.00004531    0.00013342    0.00000000
     atom  179 type  1   force =     0.00004323   -0.00009610    0.00000000
     atom  180 type  1   force =    -0.00000153   -0.00014449   -0.00000000
     atom  181 type  1   force =     0.00008698   -0.00008606   -0.00000000
     atom  182 type  1   force =    -0.00002451   -0.00036129   -0.00000000
     atom  183 type  1   force =    -0.00008394   -0.00000247    0.00000001
     atom  184 type  1   force =     0.00014904   -0.00025817   -0.00000000
     atom  185 type  1   force =     0.00004415    0.00007150    0.00000000
     atom  186 type  1   force =     0.00032513   -0.00015942   -0.00000000
     atom  187 type  1   force =     0.00003105   -0.00011834   -0.00000000
     atom  188 type  1   force =     0.00012591   -0.00007092    0.00000000
     atom  189 type  1   force =    -0.00004141   -0.00009326   -0.00000000
     atom  190 type  1   force =    -0.00003993   -0.00006408   -0.00000000
     atom  191 type  1   force =    -0.00012316    0.00003538    0.00000000
     atom  192 type  1   force =     0.00004425   -0.00004934   -0.00000000
     atom  193 type  1   force =    -0.00016107    0.00016447   -0.00000000
     atom  194 type  1   force =     0.00000594   -0.00001026    0.00000000
     atom  195 type  1   force =    -0.00006192    0.00022174   -0.00000000
     atom  196 type  1   force =     0.00002064   -0.00006301   -0.00000000
     atom  197 type  1   force =     0.00003092    0.00012438    0.00000000
     atom  198 type  1   force =     0.00007550    0.00000252   -0.00000000
     atom  199 type  1   force =     0.00010145   -0.00001076    0.00000000

     Total force =     0.002786     Total SCF correction =     0.000002
     Energy error            =      1.6E-05 Ry
     Gradient error          =      4.0E-04 Ry/Bohr

     number of scf cycles    =  11
     number of bfgs steps    =  10

     energy             old  =   -2396.9739784057 Ry
     energy             new  =   -2396.9739941811 Ry

     CASE: energy            _new < energy            _old

     new trust radius        =       0.0010284313 bohr
     new conv_thr            =            1.6E-12 Ry


ATOMIC_POSITIONS (crystal)
C                0.0333331933        0.0333078009       -0.0000000007
C                0.0666676333        0.0666444849       -0.0000000008
C                0.0332907128        0.1333446607       -0.0000000004
C                0.0666448888        0.1666775554        0.0000000007
C                0.0332907124        0.2333646258        0.0000000007
C                0.0666676320        0.2666878823        0.0000000004
C                0.0333331924        0.3333590059        0.0000000002
C                0.0667407252        0.3666641448        0.0000000001
C                0.0334010346        0.4333283287        0.0000000014
C                0.0668053308        0.4666382928        0.0000000012
C                0.0333819141        0.5333072921        0.0000000009
C                0.0666815006        0.5666602958        0.0000000001
C                0.0333143214        0.6333324017        0.0000000003
C                0.0666396001        0.6666802007       -0.0000000004
C                0.0333143218        0.7333532782        0.0000000008
C                0.0666815018        0.7666582036        0.0000000007
C                0.0333819154        0.8333107941        0.0000000011
C                0.0668053334        0.8665563752        0.0000000010
C                0.0334010362        0.9332706358        0.0000000004
C                0.0667407272        0.9665951287       -0.0000000003
C                0.1333666090        0.0332651828       -0.0000000008
C                0.1666932076        0.0666258434        0.0000000006
C                0.1333433020        0.1333283481        0.0000000011
C                0.1666932066        0.1666809481        0.0000000010
C                0.1333666085        0.2333682073        0.0000000010
C                0.1667544603        0.2667047522        0.0000000003
C                0.1334432293        0.3333720240        0.0000000002
C                0.1668384710        0.3667047662        0.0000000002
C                0.1335316146        0.4333516336        0.0000000001
C                0.1669330924        0.4666994902       -0.0000000002
C                0.1333653284        0.5333513542       -0.0000000012
C                0.1666149006        0.5667215956       -0.0000000022
C                0.1332195113        0.6333902460       -0.0000000020
C                0.1666149012        0.6666635043       -0.0000000018
C                0.1333653310        0.7332833176       -0.0000000006
C                0.1669330957        0.7663674152       -0.0000000001
C                0.1335316178        0.8331167493        0.0000000009
C                0.1668384734        0.8664567613        0.0000000009
C                0.1334432306        0.9331847448       -0.0000000000
C                0.1667544625        0.9665407854       -0.0000000009
C                0.2333803990        0.0332643731        0.0000000007
C                0.2666994675        0.0666502652        0.0000000014
C                0.2333803990        0.1333552267        0.0000000010
C                0.2667159381        0.1667489531        0.0000000006
C                0.2334242349        0.2334193488        0.0000000008
C                0.2667972610        0.2668045376        0.0000000001
C                0.2335260896        0.3334531353       -0.0000000002
C                0.2669488355        0.3668179251       -0.0000000002
C                0.2337189579        0.4334453141       -0.0000000006
C                0.2670975384        0.4669260701       -0.0000000008
C                0.2331646190        0.5334727693       -0.0000000016
C                0.2664474007        0.5667762985       -0.0000000018
C                0.2331646238        0.6333626136       -0.0000000031
C                0.2670975470        0.6659763842       -0.0000000026
C                0.2337189654        0.7328357225       -0.0000000003
C                0.2669488387        0.7662332369        0.0000000001
C                0.2335260923        0.8330207711        0.0000000006
C                0.2667972627        0.8663982008       -0.0000000001
C                0.2334242361        0.9331564139       -0.0000000004
C                0.2667159396        0.9665351066       -0.0000000000
C                0.3333713424        0.0333143284        0.0000000004
C                0.3666717013        0.0667402638        0.0000000002
C                0.3333838373        0.1334491758        0.0000000001
C                0.3667064180        0.1668676462       -0.0000000002
C                0.3334470078        0.2335577267        0.0000000002
C                0.3667857565        0.2670168324       -0.0000000000
C                0.3335562067        0.3336175736        0.0000000004
C                0.3670219498        0.3671324176        0.0000000009
C                0.3339684971        0.4335106258       -0.0000000000
C                0.3676425033        0.4676301122       -0.0000000007
C                0.3324238122        0.5337880920       -0.0000000017
C                0.3676425211        0.5647273645       -0.0000000028
C                0.3339685108        0.6325208597       -0.0000000031
C                0.3670219558        0.6658456250       -0.0000000022
C                0.3335562111        0.7328262130       -0.0000000003
C                0.3667857592        0.7661974093        0.0000000003
C                0.3334470096        0.8329952621       -0.0000000002
C                0.3667064191        0.8664259345       -0.0000000008
C                0.3333838377        0.9331669850       -0.0000000003
C                0.3666717015        0.9665880331        0.0000000008
C                0.4333348502        0.0334136606        0.0000000004
C                0.4666334745        0.0668495574       -0.0000000001
C                0.4333510369        0.1335929927       -0.0000000006
C                0.4666714490        0.1670465989       -0.0000000016
C                0.4334134509        0.2338612580       -0.0000000006
C                0.4668579963        0.2673189978       -0.0000000001
C                0.4334165984        0.3342441789        0.0000000006
C                0.4674764214        0.3680838866       -0.0000000012
C                0.4326877371        0.4332399995       -0.0000000037
C                0.4326877597        0.5340722353       -0.0000000016
C                0.4674764305        0.5644396826       -0.0000000009
C                0.4334166029        0.6323392111       -0.0000000007
C                0.4668579992        0.6658230001        0.0000000002
C                0.4334134501        0.7327252875        0.0000000005
C                0.4666714511        0.7662819497        0.0000000000
C                0.4333510368        0.8330559692       -0.0000000007
C                0.4666334750        0.8665169669        0.0000000001
C                0.4333348505        0.9332514886        0.0000000003
C                0.4666358966        0.9666820509        0.0000000011
C                0.5332998747        0.0334300530        0.0000000000
C                0.5666317655        0.0667639584       -0.0000000003
C                0.5333213724        0.1334741172       -0.0000000006
C                0.5666651824        0.1667613959       -0.0000000005
C                0.5334109560        0.2333517983       -0.0000000014
C                0.5666905571        0.2666697694       -0.0000000013
C                0.5336827881        0.3327117055       -0.0000000011
C                0.5649162705        0.3676632459       -0.0000000027
C                0.5348971639        0.4325514272       -0.0000000005
C                0.5649162802        0.4674204907       -0.0000000009
C                0.5336827914        0.5336055073        0.0000000000
C                0.5666905607        0.5666396769       -0.0000000000
C                0.5334109512        0.6332372462        0.0000000001
C                0.5666651832        0.6665734228        0.0000000003
C                0.5333213702        0.7332045124       -0.0000000002
C                0.5666317651        0.7666042768        0.0000000005
C                0.5332998744        0.8332700732        0.0000000004
C                0.5666173099        0.8666556184        0.0000000008
C                0.5333033286        0.9333483359        0.0000000010
C                0.5666173099        0.9667270721        0.0000000006
C                0.6333038311        0.0333762650        0.0000000002
C                0.6666343017        0.0667205056        0.0000000005
C                0.6333384184        0.1333241028        0.0000000000
C                0.6666126700        0.1667183412        0.0000000002
C                0.6333156458        0.2332910264       -0.0000000011
C                0.6660563022        0.2671037207       -0.0000000016
C                0.6327173425        0.3339368779       -0.0000000025
C                0.6660630515        0.3669684773       -0.0000000011
C                0.6327173470        0.4333457813       -0.0000000009
C                0.6660563037        0.4668399820       -0.0000000001
C                0.6333156437        0.5333933308       -0.0000000006
C                0.6666126691        0.5666689921       -0.0000000006
C                0.6333384174        0.6333374813       -0.0000000002
C                0.6666343010        0.6666451943        0.0000000002
C                0.6333038309        0.7333199057        0.0000000010
C                0.6666359800        0.7666566369        0.0000000012
C                0.6332967672        0.8333323501        0.0000000005
C                0.6666350693        0.8666824653        0.0000000006
C                0.6332967674        0.9333708837        0.0000000006
C                0.6666359804        0.9667073835        0.0000000003
C                0.7333129311        0.0333636076        0.0000000010
C                0.7666224146        0.0667243374        0.0000000012
C                0.7332504209        0.1334180916        0.0000000010
C                0.7663899839        0.1669307229       -0.0000000004
C                0.7329091847        0.2337044002       -0.0000000005
C                0.7663398393        0.2669055162       -0.0000000004
C                0.7330030283        0.3334984873       -0.0000000002
C                0.7663398394        0.3667546481        0.0000000005
C                0.7329091855        0.4333864183        0.0000000003
C                0.7663899841        0.4666792965       -0.0000000006
C                0.7332504213        0.5333314894       -0.0000000007
C                0.7666224141        0.5666532499       -0.0000000007
C                0.7333129312        0.6333234629       -0.0000000000
C                0.7666457364        0.6666524054        0.0000000001
C                0.7333141417        0.7333288494        0.0000000009
C                0.7666515166        0.7666637850        0.0000000009
C                0.7333166626        0.8333416692        0.0000000003
C                0.7666515168        0.8666846989        0.0000000008
C                0.7333141417        0.9333570100        0.0000000004
C                0.7666457370        0.9667018588        0.0000000008
C                0.8332860179        0.0334017235        0.0000000006
C                0.8665591785        0.0667970028        0.0000000000
C                0.8331380691        0.1335153825       -0.0000000002
C                0.8665015034        0.1668011318       -0.0000000002
C                0.8331051765        0.2334820967        0.0000000000
C                0.8664730795        0.2667634614        0.0000000004
C                0.8331051761        0.3334127288        0.0000000002
C                0.8665015032        0.3666973666        0.0000000004
C                0.8331380690        0.4333465501        0.0000000005
C                0.8665591779        0.4666438203        0.0000000002
C                0.8332860176        0.5333122602       -0.0000000002
C                0.8666532306        0.5666319781        0.0000000003
C                0.8333200941        0.6333100810        0.0000000002
C                0.8666631967        0.6666476254        0.0000000003
C                0.8333266951        0.7333285481        0.0000000002
C                0.8666638150        0.7666680927        0.0000000013
C                0.8333266953        0.8333447578        0.0000000010
C                0.8666631972        0.8666891781        0.0000000020
C                0.8333200944        0.9333698258        0.0000000015
C                0.8666532312        0.9667147920        0.0000000007
C                0.9332785083        0.0333895457       -0.0000000003
C                0.9666201573        0.0667126625       -0.0000000003
C                0.9332212972        0.1334102414       -0.0000000005
C                0.9665750854        0.1667259661        0.0000000005
C                0.9332116719        0.2333941641        0.0000000009
C                0.9665750850        0.2666989497        0.0000000009
C                0.9332212971        0.3333684617        0.0000000006
C                0.9666201565        0.3666671810        0.0000000008
C                0.9332785076        0.4333319470        0.0000000012
C                0.9666826541        0.4666397929        0.0000000015
C                0.9333369380        0.5333084365        0.0000000007
C                0.9666935865        0.5666295327        0.0000000007
C                0.9333418695        0.6333088986        0.0000000007
C                0.9666618394        0.6666592750        0.0000000006
C                0.9333277889        0.7333361061        0.0000000012
C                0.9666618396        0.7666788862        0.0000000013
C                0.9333418708        0.8333492325        0.0000000020
C                0.9666935870        0.8666768812        0.0000000014
C                0.9333369396        0.9333546257        0.0000000006
C                0.9666826555        0.9666775527        0.0000000001



     Writing config-only to output data dir /home/gregb26/links/scratch/qe_tmp/vacancy_relaxed/series/10x10/nspin1/vac_10x10_relax_nspin1.save/ :
     XML data file
     NEW-OLD atomic charge density approx. for the potential

     negative rho (up, down):  2.302E-07 0.000E+00

     total cpu time spent up to now is     1980.9 secs

     per-process dynamical memory:   459.1 Mb

     Self-consistent Calculation

     iteration #  1     ecut=   100.00 Ry     beta= 0.30
     Davidson diagonalization with overlap
     ethr =  1.00E-06,  avg # of iterations =  2.0

     Threshold (ethr) on eigenvalues was too large:
     Diagonalizing with lowered threshold

     Davidson diagonalization with overlap
     ethr =  3.10E-10,  avg # of iterations =  7.0

     negative rho (up, down):  1.449E-07 0.000E+00

     total cpu time spent up to now is     2015.1 secs

     total energy              =   -2396.97400020 Ry
     estimated scf accuracy    <       0.00000312 Ry

     iteration #  2     ecut=   100.00 Ry     beta= 0.30
     Davidson diagonalization with overlap
     ethr =  3.91E-10,  avg # of iterations =  5.0

     negative rho (up, down):  8.458E-08 0.000E+00

     total cpu time spent up to now is     2025.0 secs

     total energy              =   -2396.97400020 Ry
     estimated scf accuracy    <       0.00000111 Ry

     iteration #  3     ecut=   100.00 Ry     beta= 0.30
     Davidson diagonalization with overlap
     ethr =  1.39E-10,  avg # of iterations =  5.0

     negative rho (up, down):  3.820E-08 0.000E+00

     total cpu time spent up to now is     2035.0 secs

     total energy              =   -2396.97400019 Ry
     estimated scf accuracy    <       0.00000070 Ry

     iteration #  4     ecut=   100.00 Ry     beta= 0.30
     Davidson diagonalization with overlap
     ethr =  8.75E-11,  avg # of iterations =  5.0

     negative rho (up, down):  1.857E-08 0.000E+00

     total cpu time spent up to now is     2045.0 secs

     total energy              =   -2396.97400025 Ry
     estimated scf accuracy    <       0.00000039 Ry

     iteration #  5     ecut=   100.00 Ry     beta= 0.30
     Davidson diagonalization with overlap
     ethr =  4.87E-11,  avg # of iterations =  5.0

     total cpu time spent up to now is     2054.4 secs

     total energy              =   -2396.97400029 Ry
     estimated scf accuracy    <       0.00000006 Ry

     iteration #  6     ecut=   100.00 Ry     beta= 0.30
     Davidson diagonalization with overlap
     ethr =  7.59E-12,  avg # of iterations =  5.0

     total cpu time spent up to now is     2064.8 secs

     total energy              =   -2396.97400030 Ry
     estimated scf accuracy    <          7.5E-09 Ry

     iteration #  7     ecut=   100.00 Ry     beta= 0.30
     Davidson diagonalization with overlap
     ethr =  9.48E-13,  avg # of iterations =  5.0

     total cpu time spent up to now is     2078.1 secs

     total energy              =   -2396.97400030 Ry
     estimated scf accuracy    <          1.5E-09 Ry

     iteration #  8     ecut=   100.00 Ry     beta= 0.30
     Davidson diagonalization with overlap
     ethr =  1.91E-13,  avg # of iterations =  5.0

     total cpu time spent up to now is     2089.7 secs

     total energy              =   -2396.97400030 Ry
     estimated scf accuracy    <          5.1E-10 Ry

     iteration #  9     ecut=   100.00 Ry     beta= 0.30
     Davidson diagonalization with overlap
     ethr =  1.00E-13,  avg # of iterations =  2.0

     total cpu time spent up to now is     2099.8 secs

     total energy              =   -2396.97400030 Ry
     estimated scf accuracy    <          6.2E-11 Ry

     iteration # 10     ecut=   100.00 Ry     beta= 0.30
     Davidson diagonalization with overlap
     ethr =  1.00E-13,  avg # of iterations =  1.0

     total cpu time spent up to now is     2108.5 secs

     total energy              =   -2396.97400030 Ry
     estimated scf accuracy    <          9.0E-12 Ry

     iteration # 11     ecut=   100.00 Ry     beta= 0.30
     Davidson diagonalization with overlap
     ethr =  1.00E-13,  avg # of iterations =  1.0

     total cpu time spent up to now is     2117.3 secs

     total energy              =   -2396.97400030 Ry
     estimated scf accuracy    <          2.9E-12 Ry

     iteration # 12     ecut=   100.00 Ry     beta= 0.30
     Davidson diagonalization with overlap
     ethr =  1.00E-13,  avg # of iterations =  1.0

     total cpu time spent up to now is     2126.0 secs

     End of self-consistent calculation

          k = 0.0000 0.0000 0.0000 (476289 PWs)   bands (ev):

   -23.7948 -23.5886 -23.5830 -23.5550 -23.5473 -23.5458 -23.5412 -23.1300
   -23.1245 -23.0937 -23.0936 -23.0828 -23.0376 -22.8792 -22.8769 -22.8616
   -22.8604 -22.8548 -22.7792 -22.2213 -22.2150 -22.1967 -22.1966 -22.1753
   -22.1575 -22.1498 -22.1488 -22.1445 -22.1433 -22.1424 -22.0000 -21.7153
   -21.7151 -21.7125 -21.7078 -21.7073 -21.5746 -21.0493 -21.0488 -21.0290
   -21.0243 -21.0225 -20.9439 -20.8243 -20.8242 -20.8156 -20.7992 -20.7970
   -20.7930 -20.7891 -20.7888 -20.7835 -20.7819 -20.7806 -20.5138 -20.1421
   -20.1411 -20.1400 -20.1162 -20.1152 -19.9800 -19.5316 -19.5311 -19.5109
   -19.4700 -19.4680 -19.4581 -19.4551 -19.4535 -19.4535 -19.4500 -19.4488
   -19.2876 -19.1068 -19.1055 -19.0857 -19.0597 -19.0564 -19.0546 -19.0529
   -19.0526 -19.0504 -19.0374 -19.0362 -18.7085 -18.5704 -18.5690 -18.4067
   -17.9969 -17.9775 -17.9764 -17.9541 -17.9539 -17.8813 -17.8509 -17.8473
   -17.8472 -17.8249 -17.8248 -17.6541 -17.5063 -17.5055 -17.3186 -16.9939
   -16.9938 -16.9895 -16.9340 -16.9334 -16.8569 -16.6854 -16.6816 -16.6807
   -16.6563 -16.6561 -16.6551 -16.6359 -16.6339 -16.6337 -16.5614 -16.5596
   -16.3701 -16.2041 -16.1418 -16.1395 -16.1282 -16.1274 -15.8506 -15.6485
   -15.6424 -15.6410 -15.5730 -15.5728 -15.4619 -15.2720 -15.2481 -15.2464
   -15.2430 -15.2423 -15.2302 -15.2217 -15.2214 -15.2212 -15.1341 -15.1333
   -14.6433 -14.4821 -14.4814 -14.4580 -14.4484 -14.4436 -14.4434 -14.3226
   -14.3108 -14.3086 -14.2725 -14.2652 -14.2643 -14.2639 -14.2638 -14.2618
   -14.1180 -14.1173 -13.6459 -13.2664 -13.2634 -13.2561 -13.2340 -13.2337
   -13.1760 -13.1715 -13.1428 -13.1426 -13.1041 -13.1024 -13.0983 -13.0799
   -13.0592 -13.0581 -12.9854 -12.9844 -12.9002 -12.8917 -12.8454 -12.8446
   -12.8304 -12.8304 -12.8244 -12.8173 -12.8170 -12.8136 -12.6119 -12.6112
   -12.2029 -11.8754 -11.8543 -11.8493 -11.8369 -11.8366 -11.7792 -11.7789
   -11.7683 -11.7669 -11.7563 -11.7427 -11.7420 -11.7417 -11.7369 -11.7367
   -11.7365 -11.6328 -11.6317 -11.6194 -11.6152 -11.5888 -11.5876 -11.5841
   -11.5743 -11.5143 -11.4643 -11.4204 -11.4197 -11.3805 -11.3775 -11.3757
   -11.3746 -11.3744 -11.3685 -11.2243 -11.2226 -11.0679 -11.0640 -11.0412
   -11.0411 -11.0345 -11.0094 -10.9940 -10.9807 -10.9574 -10.9542 -10.9211
   -10.9205 -10.9172 -10.9128 -10.9120 -10.8949 -10.7838 -10.7833 -10.7816
   -10.7802 -10.7667 -10.7657 -10.7624 -10.7298 -10.6787 -10.6692 -10.6691
   -10.6366 -10.5159 -10.5124 -10.5108 -10.4770 -10.4757 -10.4729 -10.4481
   -10.4299 -10.4295 -10.2578 -10.2553 -10.0842 -10.0837 -10.0402 -10.0392
    -9.9998  -9.9956  -9.9954  -9.9943  -9.9928  -9.9865  -9.9862  -9.9746
    -9.9738  -9.9720  -9.9587  -9.9450  -9.9393  -9.9385  -9.9356  -9.9340
    -9.9334  -9.8609  -9.8594  -9.8310  -9.8257  -9.8243  -9.7967  -9.7846
    -9.7745  -9.7000  -9.6984  -9.6083  -9.6081  -9.5821  -9.4400  -9.4385
    -9.4325  -9.4294  -9.4283  -9.3033  -9.1718  -9.1714  -8.8804  -8.8538
    -8.8527  -8.8195  -8.8024  -8.7671  -8.7665  -8.7524  -8.7517  -8.7476
    -8.6578  -8.6555  -8.6514  -8.6512  -8.6416  -8.5866  -8.5695  -8.4355
    -8.4334  -8.4285  -8.4271  -8.4223  -8.4206  -8.4199  -8.4049  -8.4024
    -8.4020  -8.3995  -8.3971  -8.3962  -8.2427  -8.2421  -8.2288  -8.1505
    -7.9431  -7.9412  -7.9142  -7.8136  -7.8060  -7.8048  -7.7783  -7.7570
    -7.7569  -7.7506  -7.7466  -7.7461  -7.6023  -7.3730  -7.3719  -7.0160
    -7.0138  -6.9975  -6.9971  -6.9901  -6.9590  -6.9561  -6.9561  -6.9544
    -6.9523  -6.9520  -6.8790  -6.8100  -6.8096  -6.7689  -6.7668  -6.7663
    -6.7653  -6.7644  -6.7638  -6.7560  -6.7555  -6.7548  -6.6342  -6.6225
    -6.6214  -6.1341  -5.7820  -5.7818  -5.7688  -5.7586  -5.7586  -5.5109
    -5.2968  -5.2921  -5.2919  -5.2799  -5.2798  -4.6936  -4.4497  -4.3847
    -3.2928  -3.2395  -3.2384  -3.2293  -3.2293  -3.1514  -2.9719  -2.9665
    -2.9659  -2.9370  -2.9369  -2.7945  -2.5659  -2.5653  -2.4879  -2.2177
    -2.2172  -2.2134  -2.2006  -2.2004  -2.1797  -2.1753  -2.1748  -2.1739
    -2.1536  -2.1531  -1.9063  -1.6258

     the Fermi energy is    -4.5809 ev

!    total energy              =   -2396.97400030 Ry
     estimated scf accuracy    <          1.1E-12 Ry
     smearing contrib. (-TS)   =      -0.00002935 Ry
     internal energy E=F+TS    =   -2396.97397095 Ry

     The total energy is F=E-TS. E is the sum of the following terms:
     one-electron contribution =  -27163.29315543 Ry
     hartree contribution      =   13655.61526541 Ry
     xc contribution           =    -852.89021873 Ry
     ewald contribution        =   11963.59413780 Ry

     convergence has been achieved in  12 iterations

     Forces acting on atoms (cartesian axes, Ry/au):

     atom    1 type  1   force =     0.00008784   -0.00002634    0.00000000
     atom    2 type  1   force =     0.00004480   -0.00003988   -0.00000000
     atom    3 type  1   force =     0.00016094   -0.00008215    0.00000000
     atom    4 type  1   force =     0.00004924   -0.00008533   -0.00000000
     atom    5 type  1   force =    -0.00000928   -0.00018043    0.00000000
     atom    6 type  1   force =     0.00001213   -0.00005879    0.00000000
     atom    7 type  1   force =    -0.00002111   -0.00008922    0.00000000
     atom    8 type  1   force =    -0.00018660    0.00022123    0.00000000
     atom    9 type  1   force =     0.00005239   -0.00004592   -0.00000000
     atom   10 type  1   force =     0.00012595    0.00015914   -0.00000000
     atom   11 type  1   force =    -0.00014334    0.00009599   -0.00000000
     atom   12 type  1   force =     0.00012062    0.00004513   -0.00000000
     atom   13 type  1   force =    -0.00005237    0.00008886    0.00000000
     atom   14 type  1   force =     0.00010576   -0.00018317   -0.00000001
     atom   15 type  1   force =    -0.00005079    0.00008978   -0.00000000
     atom   16 type  1   force =    -0.00009935   -0.00008189   -0.00000000
     atom   17 type  1   force =    -0.00001149    0.00017212    0.00000000
     atom   18 type  1   force =    -0.00020081   -0.00002950   -0.00000000
     atom   19 type  1   force =     0.00001358   -0.00006833   -0.00000000
     atom   20 type  1   force =    -0.00009831    0.00027224   -0.00000000
     atom   21 type  1   force =     0.00013195   -0.00005923    0.00000000
     atom   22 type  1   force =     0.00004617   -0.00002619   -0.00000000
     atom   23 type  1   force =     0.00004115   -0.00007123   -0.00000000
     atom   24 type  1   force =    -0.00000038   -0.00005311    0.00000000
     atom   25 type  1   force =    -0.00001470   -0.00014385   -0.00000000
     atom   26 type  1   force =    -0.00020503    0.00008478    0.00000000
     atom   27 type  1   force =    -0.00005767    0.00011334   -0.00000000
     atom   28 type  1   force =     0.00010329    0.00018533   -0.00000000
     atom   29 type  1   force =     0.00002640    0.00011474    0.00000000
     atom   30 type  1   force =     0.00022288   -0.00003997   -0.00000000
     atom   31 type  1   force =     0.00004127   -0.00006617    0.00000000
     atom   32 type  1   force =     0.00004151   -0.00005873    0.00000000
     atom   33 type  1   force =     0.00013268   -0.00022992    0.00000000
     atom   34 type  1   force =     0.00003024   -0.00006538   -0.00000000
     atom   35 type  1   force =     0.00003658   -0.00006880   -0.00000000
     atom   36 type  1   force =    -0.00007676   -0.00021311   -0.00000000
     atom   37 type  1   force =    -0.00011255    0.00003453    0.00000000
     atom   38 type  1   force =    -0.00021219    0.00000317   -0.00000000
     atom   39 type  1   force =    -0.00006926    0.00010660   -0.00000000
     atom   40 type  1   force =     0.00002905    0.00022002    0.00000000
     atom   41 type  1   force =    -0.00004196    0.00006252   -0.00000000
     atom   42 type  1   force =     0.00000666   -0.00001149   -0.00000000
     atom   43 type  1   force =    -0.00003321    0.00006762   -0.00000000
     atom   44 type  1   force =    -0.00023732   -0.00009457    0.00000000
     atom   45 type  1   force =    -0.00009134   -0.00000114   -0.00000000
     atom   46 type  1   force =    -0.00002734    0.00000947    0.00000001
     atom   47 type  1   force =    -0.00005855    0.00010234    0.00000000
     atom   48 type  1   force =     0.00017151   -0.00004636   -0.00000000
     atom   49 type  1   force =    -0.00002858   -0.00016700    0.00000000
     atom   50 type  1   force =     0.00015479   -0.00000098   -0.00000000
     atom   51 type  1   force =    -0.00001152   -0.00017414   -0.00000000
     atom   52 type  1   force =     0.00003269   -0.00005635   -0.00000001
     atom   53 type  1   force =     0.00015626   -0.00007712    0.00000000
     atom   54 type  1   force =    -0.00007645   -0.00013459    0.00000000
     atom   55 type  1   force =     0.00015886   -0.00005866   -0.00000001
     atom   56 type  1   force =    -0.00004563   -0.00017181    0.00000000
     atom   57 type  1   force =    -0.00005925    0.00010195   -0.00000000
     atom   58 type  1   force =     0.00000534    0.00002834    0.00000000
     atom   59 type  1   force =     0.00004672    0.00007854   -0.00000000
     atom   60 type  1   force =     0.00020055    0.00015829    0.00000000
     atom   61 type  1   force =    -0.00003875    0.00006706    0.00000000
     atom   62 type  1   force =    -0.00023663   -0.00024104   -0.00000000
     atom   63 type  1   force =    -0.00008043   -0.00008983    0.00000000
     atom   64 type  1   force =     0.00003226   -0.00013997   -0.00000000
     atom   65 type  1   force =    -0.00009147   -0.00008213   -0.00000000
     atom   66 type  1   force =     0.00016295    0.00003454    0.00000000
     atom   67 type  1   force =    -0.00024273   -0.00002459    0.00000000
     atom   68 type  1   force =     0.00021973    0.00001284   -0.00000000
     atom   69 type  1   force =     0.00012308   -0.00006213    0.00000000
     atom   70 type  1   force =    -0.00013901    0.00003604   -0.00000000
     atom   71 type  1   force =     0.00003456   -0.00005989   -0.00000000
     atom   72 type  1   force =     0.00003828    0.00013855    0.00000001
     atom   73 type  1   force =    -0.00000771   -0.00013753   -0.00000000
     atom   74 type  1   force =    -0.00012109   -0.00018390    0.00000001
     atom   75 type  1   force =     0.00014274    0.00019798   -0.00000000
     atom   76 type  1   force =    -0.00011157   -0.00012386   -0.00000000
     atom   77 type  1   force =     0.00011695    0.00003821    0.00000000
     atom   78 type  1   force =     0.00010502   -0.00009793   -0.00000000
     atom   79 type  1   force =     0.00011804    0.00002475    0.00000000
     atom   80 type  1   force =     0.00032710    0.00008443   -0.00000001
     atom   81 type  1   force =     0.00005962    0.00009290   -0.00000000
     atom   82 type  1   force =     0.00006116   -0.00013257    0.00000000
     atom   83 type  1   force =     0.00002956   -0.00005411   -0.00000001
     atom   84 type  1   force =     0.00022800    0.00003568    0.00000001
     atom   85 type  1   force =    -0.00006635    0.00013622    0.00000000
     atom   86 type  1   force =     0.00012518    0.00001743   -0.00000000
     atom   87 type  1   force =     0.00010923    0.00001436   -0.00000000
     atom   88 type  1   force =    -0.00013291   -0.00007518    0.00000001
     atom   89 type  1   force =     0.00021413    0.00009031   -0.00000000
     atom   90 type  1   force =    -0.00018536   -0.00014047   -0.00000000
     atom   91 type  1   force =     0.00013141    0.00007766   -0.00000000
     atom   92 type  1   force =    -0.00006683   -0.00008740   -0.00000000
     atom   93 type  1   force =    -0.00007785   -0.00009949   -0.00000000
     atom   94 type  1   force =    -0.00008462    0.00012547   -0.00000000
     atom   95 type  1   force =    -0.00014504   -0.00017948   -0.00000000
     atom   96 type  1   force =     0.00003211   -0.00005270    0.00000000
     atom   97 type  1   force =     0.00008423   -0.00011923   -0.00000000
     atom   98 type  1   force =    -0.00011030   -0.00000520    0.00000000
     atom   99 type  1   force =     0.00002319   -0.00004009   -0.00000001
     atom  100 type  1   force =    -0.00012788    0.00000372    0.00000000
     atom  101 type  1   force =     0.00005768   -0.00005540    0.00000000
     atom  102 type  1   force =    -0.00001104    0.00005215   -0.00000000
     atom  103 type  1   force =     0.00007855    0.00005604   -0.00000000
     atom  104 type  1   force =    -0.00005068    0.00008954    0.00000000
     atom  105 type  1   force =     0.00003443    0.00013260    0.00000000
     atom  106 type  1   force =    -0.00000192    0.00006921   -0.00000001
     atom  107 type  1   force =     0.00001668   -0.00015833    0.00000001
     atom  108 type  1   force =    -0.00004132    0.00007153    0.00000001
     atom  109 type  1   force =     0.00012858   -0.00009369    0.00000000
     atom  110 type  1   force =    -0.00005870    0.00003626   -0.00000001
     atom  111 type  1   force =    -0.00013231    0.00003658    0.00000000
     atom  112 type  1   force =    -0.00005184    0.00008848    0.00000000
     atom  113 type  1   force =    -0.00008796   -0.00003991   -0.00000000
     atom  114 type  1   force =    -0.00003958    0.00003548   -0.00000000
     atom  115 type  1   force =     0.00001917   -0.00007763   -0.00000000
     atom  116 type  1   force =     0.00006069    0.00011257   -0.00000000
     atom  117 type  1   force =     0.00014320    0.00002502   -0.00000000
     atom  118 type  1   force =    -0.00003177    0.00005503   -0.00000000
     atom  119 type  1   force =    -0.00009324   -0.00011149   -0.00000000
     atom  120 type  1   force =    -0.00001162    0.00002568   -0.00000000
     atom  121 type  1   force =     0.00014329    0.00014620   -0.00000000
     atom  122 type  1   force =     0.00010399    0.00018830    0.00000001
     atom  123 type  1   force =     0.00007475    0.00009397   -0.00000000
     atom  124 type  1   force =     0.00008752    0.00005020    0.00000001
     atom  125 type  1   force =    -0.00006042    0.00013732    0.00000000
     atom  126 type  1   force =    -0.00004142    0.00009641    0.00000000
     atom  127 type  1   force =    -0.00010656    0.00018434   -0.00000000
     atom  128 type  1   force =    -0.00006261    0.00008415    0.00000000
     atom  129 type  1   force =    -0.00008879    0.00012089   -0.00000000
     atom  130 type  1   force =    -0.00008703   -0.00005077    0.00000000
     atom  131 type  1   force =    -0.00011878   -0.00001781    0.00000000
     atom  132 type  1   force =    -0.00021507    0.00000407    0.00000000
     atom  133 type  1   force =    -0.00019821   -0.00005100   -0.00000000
     atom  134 type  1   force =    -0.00001648    0.00002289   -0.00000000
     atom  135 type  1   force =    -0.00005188   -0.00005209   -0.00000000
     atom  136 type  1   force =     0.00009326    0.00011575    0.00000000
     atom  137 type  1   force =    -0.00005794    0.00010043    0.00000000
     atom  138 type  1   force =    -0.00014690   -0.00002291   -0.00000000
     atom  139 type  1   force =     0.00007109    0.00001893    0.00000000
     atom  140 type  1   force =     0.00004345    0.00000296   -0.00000000
     atom  141 type  1   force =     0.00003731    0.00008919    0.00000000
     atom  142 type  1   force =     0.00007991    0.00003990   -0.00000000
     atom  143 type  1   force =     0.00001905    0.00021025    0.00000001
     atom  144 type  1   force =     0.00012955    0.00004068   -0.00000001
     atom  145 type  1   force =    -0.00006116    0.00019602    0.00000000
     atom  146 type  1   force =     0.00009251   -0.00016017   -0.00000000
     atom  147 type  1   force =    -0.00013922    0.00015096   -0.00000000
     atom  148 type  1   force =    -0.00009998   -0.00009183   -0.00000000
     atom  149 type  1   force =    -0.00019163    0.00008859    0.00000001
     atom  150 type  1   force =    -0.00007453   -0.00004918   -0.00000000
     atom  151 type  1   force =    -0.00009587    0.00001226    0.00000000
     atom  152 type  1   force =    -0.00002433   -0.00003612   -0.00000000
     atom  153 type  1   force =    -0.00006159    0.00007021    0.00000000
     atom  154 type  1   force =     0.00020109    0.00004021    0.00000000
     atom  155 type  1   force =    -0.00011930    0.00006022   -0.00000000
     atom  156 type  1   force =    -0.00000331    0.00000571    0.00000000
     atom  157 type  1   force =     0.00000752    0.00013345   -0.00000000
     atom  158 type  1   force =    -0.00013538   -0.00015408    0.00000000
     atom  159 type  1   force =    -0.00003000    0.00008848    0.00000000
     atom  160 type  1   force =     0.00006466   -0.00008526    0.00000000
     atom  161 type  1   force =    -0.00008576   -0.00001346   -0.00000000
     atom  162 type  1   force =    -0.00002329   -0.00005887   -0.00000000
     atom  163 type  1   force =    -0.00006214    0.00000159   -0.00000000
     atom  164 type  1   force =    -0.00001487   -0.00011859    0.00000000
     atom  165 type  1   force =     0.00002975   -0.00005159    0.00000000
     atom  166 type  1   force =     0.00011017   -0.00004642    0.00000000
     atom  167 type  1   force =     0.00002967    0.00005459   -0.00000000
     atom  168 type  1   force =     0.00006263   -0.00000926   -0.00000000
     atom  169 type  1   force =     0.00005455    0.00006754    0.00000000
     atom  170 type  1   force =     0.00004149   -0.00009862   -0.00000000
     atom  171 type  1   force =     0.00009335   -0.00000771   -0.00000000
     atom  172 type  1   force =     0.00009893   -0.00005089   -0.00000000
     atom  173 type  1   force =    -0.00004099   -0.00000675    0.00000000
     atom  174 type  1   force =    -0.00000586    0.00014134    0.00000001
     atom  175 type  1   force =     0.00000224   -0.00000385   -0.00000000
     atom  176 type  1   force =    -0.00011949    0.00007573    0.00000000
     atom  177 type  1   force =     0.00002637    0.00003214   -0.00000000
     atom  178 type  1   force =    -0.00000539   -0.00011114   -0.00000000
     atom  179 type  1   force =    -0.00003998   -0.00008469    0.00000000
     atom  180 type  1   force =     0.00004380    0.00006037    0.00000000
     atom  181 type  1   force =    -0.00004928   -0.00026558   -0.00000000
     atom  182 type  1   force =    -0.00000136   -0.00013160    0.00000000
     atom  183 type  1   force =     0.00009018   -0.00026862   -0.00000000
     atom  184 type  1   force =     0.00008447   -0.00014625   -0.00000000
     atom  185 type  1   force =     0.00018750   -0.00021246   -0.00000000
     atom  186 type  1   force =     0.00011468   -0.00006459   -0.00000000
     atom  187 type  1   force =     0.00025464   -0.00009012    0.00000000
     atom  188 type  1   force =    -0.00007419   -0.00000774   -0.00000000
     atom  189 type  1   force =     0.00001846    0.00004524   -0.00000000
     atom  190 type  1   force =    -0.00001791   -0.00002246    0.00000000
     atom  191 type  1   force =    -0.00003002    0.00010949    0.00000000
     atom  192 type  1   force =    -0.00014322    0.00011504   -0.00000000
     atom  193 type  1   force =     0.00013210   -0.00001363    0.00000000
     atom  194 type  1   force =    -0.00017535    0.00030369    0.00000001
     atom  195 type  1   force =    -0.00005421   -0.00012121    0.00000000
     atom  196 type  1   force =    -0.00002806    0.00018158   -0.00000000
     atom  197 type  1   force =    -0.00007978    0.00008072   -0.00000000
     atom  198 type  1   force =     0.00002837    0.00000431    0.00000000
     atom  199 type  1   force =    -0.00004840    0.00000664   -0.00000000

     Total force =     0.002109     Total SCF correction =     0.000001
     Energy error            =      6.1E-06 Ry
     Gradient error          =      3.3E-04 Ry/Bohr

     number of scf cycles    =  12
     number of bfgs steps    =  11

     energy             old  =   -2396.9739941811 Ry
     energy             new  =   -2396.9740002982 Ry

     CASE: energy            _new < energy            _old

     new trust radius        =       0.0005236259 bohr
     new conv_thr            =            1.0E-12 Ry


ATOMIC_POSITIONS (crystal)
C                0.0333355227        0.0333073689       -0.0000000006
C                0.0666704040        0.0666424653       -0.0000000009
C                0.0332927675        0.1333446779       -0.0000000003
C                0.0666483706        0.1666758142        0.0000000006
C                0.0332927670        0.2333625547        0.0000000008
C                0.0666704034        0.2666871305        0.0000000004
C                0.0333355214        0.3333571091        0.0000000004
C                0.0667345500        0.3666656612        0.0000000002
C                0.0334014794        0.4333276076        0.0000000012
C                0.0668005887        0.4666444174        0.0000000010
C                0.0333772496        0.5333098575        0.0000000008
C                0.0666799935        0.5666650150       -0.0000000000
C                0.0333109841        0.6333358950        0.0000000006
C                0.0666459738        0.6666770140       -0.0000000006
C                0.0333109845        0.7333531221        0.0000000007
C                0.0666799955        0.7666549919        0.0000000006
C                0.0333772510        0.8333128928        0.0000000013
C                0.0668005910        0.8665549930        0.0000000011
C                0.0334014812        0.9332709123        0.0000000005
C                0.0667345512        0.9665997880       -0.0000000002
C                0.1333720222        0.0332609627       -0.0000000007
C                0.1666965098        0.0666238536        0.0000000005
C                0.1333471571        0.1333264209        0.0000000009
C                0.1666965095        0.1666796354        0.0000000011
C                0.1333720209        0.2333670145        0.0000000011
C                0.1667528158        0.2667069351        0.0000000005
C                0.1334376699        0.3333757968        0.0000000001
C                0.1668298157        0.3667145197        0.0000000001
C                0.1335266116        0.4333603654        0.0000000002
C                0.1669359845        0.4667052776       -0.0000000003
C                0.1333659870        0.5333538611       -0.0000000012
C                0.1666224446        0.5667182089       -0.0000000020
C                0.1332309283        0.6333845365       -0.0000000020
C                0.1666224479        0.6666593472       -0.0000000019
C                0.1333659883        0.7332801518       -0.0000000007
C                0.1669359906        0.7663587344       -0.0000000001
C                0.1335266145        0.8331130210        0.0000000010
C                0.1668298188        0.8664556620        0.0000000008
C                0.1334376716        0.9331865319        0.0000000000
C                0.1667528168        0.9665402475       -0.0000000010
C                0.2333824750        0.0332607583        0.0000000006
C                0.2667015971        0.0666492009        0.0000000012
C                0.2333824743        0.1333567655        0.0000000011
C                0.2667181549        0.1667463225        0.0000000006
C                0.2334243638        0.2334196165        0.0000000008
C                0.2667970789        0.2668068723        0.0000000005
C                0.2335182156        0.3334591507       -0.0000000002
C                0.2669493404        0.3668215071       -0.0000000003
C                0.2337245971        0.4334442720       -0.0000000005
C                0.2671069973        0.4669251490       -0.0000000008
C                0.2331748124        0.5334658994       -0.0000000017
C                0.2664518597        0.5667740704       -0.0000000020
C                0.2331748166        0.6333592862       -0.0000000029
C                0.2671070073        0.6659678455       -0.0000000025
C                0.2337246037        0.7328311254       -0.0000000008
C                0.2669493451        0.7662291477        0.0000000001
C                0.2335182187        0.8330226310        0.0000000004
C                0.2667970810        0.8663960459        0.0000000002
C                0.2334243651        0.9331560185       -0.0000000004
C                0.2667181557        0.9665355208       -0.0000000002
C                0.3333705397        0.0333147292        0.0000000005
C                0.3666730779        0.0667324620        0.0000000001
C                0.3333865544        0.1334430527        0.0000000001
C                0.3667126086        0.1668601508       -0.0000000003
C                0.3334500526        0.2335511554        0.0000000001
C                0.3667881994        0.2670175988        0.0000000000
C                0.3335554532        0.3336159425        0.0000000004
C                0.3670245844        0.3671338655        0.0000000007
C                0.3339786567        0.4335093237        0.0000000001
C                0.3676467062        0.4676313548       -0.0000000010
C                0.3324274699        0.5337862648       -0.0000000020
C                0.3676467210        0.5647219216       -0.0000000025
C                0.3339786692        0.6325120027       -0.0000000027
C                0.3670245906        0.6658415398       -0.0000000020
C                0.3335554584        0.7328285975       -0.0000000004
C                0.3667882013        0.7661941973        0.0000000002
C                0.3334500543        0.8329987899        0.0000000000
C                0.3667126093        0.8664272383       -0.0000000009
C                0.3333865550        0.9331703916       -0.0000000003
C                0.3666730780        0.9665944592        0.0000000006
C                0.4333329923        0.0334148405        0.0000000003
C                0.4666369873        0.0668455661       -0.0000000000
C                0.4333568642        0.1335898692       -0.0000000009
C                0.4666759523        0.1670501424       -0.0000000014
C                0.4334121319        0.2338665079       -0.0000000004
C                0.4668574202        0.2673271292       -0.0000000003
C                0.4334167974        0.3342516797        0.0000000004
C                0.4674767498        0.3680898433       -0.0000000009
C                0.4326923275        0.4332482117       -0.0000000040
C                0.4326923524        0.5340594293       -0.0000000017
C                0.4674767547        0.5644334001       -0.0000000009
C                0.4334168048        0.6323315124       -0.0000000009
C                0.4668574193        0.6658154462        0.0000000001
C                0.4334121338        0.7327213562        0.0000000002
C                0.4666759509        0.7662739035        0.0000000001
C                0.4333568656        0.8330532644       -0.0000000006
C                0.4666369873        0.8665174459        0.0000000002
C                0.4333329923        0.9332521662        0.0000000001
C                0.4666346731        0.9666826633        0.0000000008
C                0.5332994416        0.0334274839       -0.0000000001
C                0.5666345155        0.0667627424       -0.0000000002
C                0.5333230953        0.1334743880       -0.0000000008
C                0.5666637065        0.1667673636       -0.0000000007
C                0.5334063676        0.2333583665       -0.0000000013
C                0.5666864208        0.2666753611       -0.0000000009
C                0.5336786713        0.3327159239       -0.0000000011
C                0.5649109681        0.3676660465       -0.0000000023
C                0.5348915958        0.4325542102       -0.0000000000
C                0.5649109780        0.4674229895       -0.0000000009
C                0.5336786755        0.5336054094       -0.0000000002
C                0.5666864222        0.5666382208        0.0000000002
C                0.5334063681        0.6332352667        0.0000000002
C                0.5666637042        0.6665689308        0.0000000002
C                0.5333230962        0.7332025167       -0.0000000003
C                0.5666345147        0.7666027433        0.0000000005
C                0.5332994416        0.8332730747        0.0000000003
C                0.5666159955        0.8666599777        0.0000000007
C                0.5332993821        0.9333503092        0.0000000011
C                0.5666159956        0.9667240276        0.0000000006
C                0.6333046370        0.0333770596        0.0000000000
C                0.6666326229        0.0667276028        0.0000000005
C                0.6333351880        0.1333345339        0.0000000004
C                0.6666100967        0.1667268242        0.0000000002
C                0.6333116450        0.2333001120       -0.0000000008
C                0.6660484449        0.2671123383       -0.0000000016
C                0.6327089741        0.3339441233       -0.0000000024
C                0.6660565301        0.3669717361       -0.0000000010
C                0.6327089792        0.4333469071       -0.0000000009
C                0.6660484471        0.4668392194       -0.0000000001
C                0.6333116468        0.5333882463       -0.0000000004
C                0.6666100965        0.5666630810       -0.0000000007
C                0.6333351869        0.6333302800       -0.0000000001
C                0.6666326229        0.6666397764        0.0000000001
C                0.6333046364        0.7333183043        0.0000000010
C                0.6666348978        0.7666562888        0.0000000013
C                0.6332928973        0.8333356951        0.0000000007
C                0.6666290997        0.8666854507        0.0000000007
C                0.6332928975        0.9333714082        0.0000000005
C                0.6666348976        0.9667088150        0.0000000004
C                0.7333128475        0.0333643553        0.0000000010
C                0.7666209180        0.0667263944        0.0000000012
C                0.7332495395        0.1334209655        0.0000000010
C                0.7663847843        0.1669356554       -0.0000000003
C                0.7329054136        0.2337104578       -0.0000000006
C                0.7663354571        0.2669078891       -0.0000000005
C                0.7330018870        0.3334990584       -0.0000000002
C                0.7663354570        0.3667566568        0.0000000003
C                0.7329054144        0.4333841323        0.0000000002
C                0.7663847852        0.4666795625       -0.0000000003
C                0.7332495384        0.5333294983       -0.0000000006
C                0.7666209182        0.5666526894       -0.0000000006
C                0.7333128465        0.6333227990       -0.0000000001
C                0.7666436491        0.6666532501        0.0000000002
C                0.7333136295        0.7333320073        0.0000000009
C                0.7666474980        0.7666652443        0.0000000009
C                0.7333132729        0.8333433641        0.0000000003
C                0.7666474980        0.8666872588        0.0000000007
C                0.7333136301        0.9333543638        0.0000000005
C                0.7666436493        0.9667031023        0.0000000009
C                0.8332884736        0.0333998473        0.0000000007
C                0.8665599480        0.0667940177       -0.0000000001
C                0.8331378832        0.1335121365       -0.0000000003
C                0.8665031977        0.1667956455       -0.0000000002
C                0.8331084628        0.2334763715        0.0000000000
C                0.8664738356        0.2667630831        0.0000000005
C                0.8331084628        0.3334151681        0.0000000004
C                0.8665031973        0.3667011583        0.0000000003
C                0.8331378828        0.4333499825        0.0000000005
C                0.8665599475        0.4666460361        0.0000000003
C                0.8332884729        0.5333116808       -0.0000000003
C                0.8666558148        0.5666315175        0.0000000002
C                0.8333208756        0.6333089504        0.0000000003
C                0.8666620236        0.6666459497        0.0000000004
C                0.8333225106        0.7333307703        0.0000000004
C                0.8666602711        0.7666698650        0.0000000012
C                0.8333225109        0.8333467198        0.0000000011
C                0.8666620243        0.8666920276        0.0000000021
C                0.8333208762        0.9333701747        0.0000000015
C                0.8666558155        0.9667126688        0.0000000008
C                0.9332795120        0.0333903205       -0.0000000003
C                0.9666267906        0.0667059309       -0.0000000004
C                0.9332261620        0.1334042698       -0.0000000005
C                0.9665793467        0.1667219472        0.0000000005
C                0.9332158634        0.2333920689        0.0000000009
C                0.9665793464        0.2666987065        0.0000000009
C                0.9332261613        0.3333695695        0.0000000005
C                0.9666267899        0.3666672794        0.0000000007
C                0.9332795111        0.4333301686        0.0000000012
C                0.9666830557        0.4666387979        0.0000000015
C                0.9333379893        0.5333058974        0.0000000007
C                0.9666904239        0.5666301370        0.0000000008
C                0.9333382791        0.6333085456        0.0000000006
C                0.9666605556        0.6666614141        0.0000000007
C                0.9333185053        0.7333407478        0.0000000017
C                0.9666605559        0.7666780314        0.0000000013
C                0.9333382796        0.8333531760        0.0000000018
C                0.9666904250        0.8666794397        0.0000000014
C                0.9333379901        0.9333561139        0.0000000005
C                0.9666830570        0.9666781464        0.0000000002



     Writing config-only to output data dir /home/gregb26/links/scratch/qe_tmp/vacancy_relaxed/series/10x10/nspin1/vac_10x10_relax_nspin1.save/ :
     XML data file
     NEW-OLD atomic charge density approx. for the potential

     negative rho (up, down):  1.229E-07 0.000E+00

     total cpu time spent up to now is     2130.8 secs

     per-process dynamical memory:   459.1 Mb

     Self-consistent Calculation

     iteration #  1     ecut=   100.00 Ry     beta= 0.30
     Davidson diagonalization with overlap
     ethr =  1.00E-06,  avg # of iterations =  2.0

     Threshold (ethr) on eigenvalues was too large:
     Diagonalizing with lowered threshold

     Davidson diagonalization with overlap
     ethr =  1.84E-10,  avg # of iterations =  7.0

     negative rho (up, down):  7.541E-08 0.000E+00

     total cpu time spent up to now is     2163.4 secs

     total energy              =   -2396.97400307 Ry
     estimated scf accuracy    <       0.00000144 Ry

     iteration #  2     ecut=   100.00 Ry     beta= 0.30
     Davidson diagonalization with overlap
     ethr =  1.81E-10,  avg # of iterations =  2.0

     negative rho (up, down):  3.838E-08 0.000E+00

     total cpu time spent up to now is     2172.7 secs

     total energy              =   -2396.97400308 Ry
     estimated scf accuracy    <       0.00000044 Ry

     iteration #  3     ecut=   100.00 Ry     beta= 0.30
     Davidson diagonalization with overlap
     ethr =  5.49E-11,  avg # of iterations =  4.0

     negative rho (up, down):  1.765E-08 0.000E+00

     total cpu time spent up to now is     2182.6 secs

     total energy              =   -2396.97400309 Ry
     estimated scf accuracy    <       0.00000022 Ry

     iteration #  4     ecut=   100.00 Ry     beta= 0.30
     Davidson diagonalization with overlap
     ethr =  2.81E-11,  avg # of iterations =  3.0

     total cpu time spent up to now is     2192.2 secs

     total energy              =   -2396.97400310 Ry
     estimated scf accuracy    <       0.00000013 Ry

     iteration #  5     ecut=   100.00 Ry     beta= 0.30
     Davidson diagonalization with overlap
     ethr =  1.60E-11,  avg # of iterations =  3.0

     total cpu time spent up to now is     2201.5 secs

     total energy              =   -2396.97400311 Ry
     estimated scf accuracy    <       0.00000003 Ry

     iteration #  6     ecut=   100.00 Ry     beta= 0.30
     Davidson diagonalization with overlap
     ethr =  4.24E-12,  avg # of iterations =  2.0

     total cpu time spent up to now is     2210.8 secs

     total energy              =   -2396.97400312 Ry
     estimated scf accuracy    <          3.9E-09 Ry

     iteration #  7     ecut=   100.00 Ry     beta= 0.30
     Davidson diagonalization with overlap
     ethr =  4.95E-13,  avg # of iterations =  5.0

     total cpu time spent up to now is     2224.7 secs

     total energy              =   -2396.97400312 Ry
     estimated scf accuracy    <          6.2E-10 Ry

     iteration #  8     ecut=   100.00 Ry     beta= 0.30
     Davidson diagonalization with overlap
     ethr =  1.00E-13,  avg # of iterations =  5.0

     total cpu time spent up to now is     2235.8 secs

     total energy              =   -2396.97400312 Ry
     estimated scf accuracy    <          2.7E-10 Ry

     iteration #  9     ecut=   100.00 Ry     beta= 0.30
     Davidson diagonalization with overlap
     ethr =  1.00E-13,  avg # of iterations =  2.0

     total cpu time spent up to now is     2245.4 secs

     total energy              =   -2396.97400312 Ry
     estimated scf accuracy    <          7.7E-11 Ry

     iteration # 10     ecut=   100.00 Ry     beta= 0.30
     Davidson diagonalization with overlap
     ethr =  1.00E-13,  avg # of iterations =  1.0

     total cpu time spent up to now is     2254.0 secs

     total energy              =   -2396.97400312 Ry
     estimated scf accuracy    <          1.5E-11 Ry

     iteration # 11     ecut=   100.00 Ry     beta= 0.30
     Davidson diagonalization with overlap
     ethr =  1.00E-13,  avg # of iterations =  1.0

     total cpu time spent up to now is     2263.0 secs

     total energy              =   -2396.97400312 Ry
     estimated scf accuracy    <          2.7E-12 Ry

     iteration # 12     ecut=   100.00 Ry     beta= 0.30
     Davidson diagonalization with overlap
     ethr =  1.00E-13,  avg # of iterations =  1.0

     total cpu time spent up to now is     2271.7 secs

     total energy              =   -2396.97400312 Ry
     estimated scf accuracy    <          1.0E-12 Ry

     iteration # 13     ecut=   100.00 Ry     beta= 0.30
     Davidson diagonalization with overlap
     ethr =  1.00E-13,  avg # of iterations =  1.0

     total cpu time spent up to now is     2278.9 secs

     End of self-consistent calculation

          k = 0.0000 0.0000 0.0000 (476289 PWs)   bands (ev):

   -23.7948 -23.5885 -23.5828 -23.5554 -23.5472 -23.5458 -23.5412 -23.1302
   -23.1246 -23.0937 -23.0936 -23.0826 -23.0377 -22.8793 -22.8769 -22.8616
   -22.8603 -22.8545 -22.7795 -22.2214 -22.2150 -22.1969 -22.1968 -22.1754
   -22.1576 -22.1497 -22.1488 -22.1441 -22.1432 -22.1423 -21.9998 -21.7153
   -21.7151 -21.7126 -21.7078 -21.7073 -21.5747 -21.0494 -21.0489 -21.0290
   -21.0243 -21.0225 -20.9438 -20.8244 -20.8243 -20.8155 -20.7993 -20.7971
   -20.7930 -20.7889 -20.7885 -20.7833 -20.7817 -20.7805 -20.5141 -20.1420
   -20.1411 -20.1400 -20.1163 -20.1153 -19.9799 -19.5316 -19.5311 -19.5110
   -19.4700 -19.4680 -19.4580 -19.4550 -19.4535 -19.4534 -19.4500 -19.4489
   -19.2877 -19.1069 -19.1056 -19.0859 -19.0593 -19.0561 -19.0543 -19.0529
   -19.0526 -19.0506 -19.0375 -19.0363 -18.7083 -18.5704 -18.5690 -18.4068
   -17.9973 -17.9777 -17.9765 -17.9537 -17.9535 -17.8813 -17.8507 -17.8473
   -17.8472 -17.8251 -17.8249 -17.6541 -17.5063 -17.5055 -17.3187 -16.9940
   -16.9938 -16.9893 -16.9341 -16.9335 -16.8568 -16.6853 -16.6816 -16.6807
   -16.6563 -16.6561 -16.6551 -16.6356 -16.6338 -16.6335 -16.5616 -16.5597
   -16.3704 -16.2043 -16.1418 -16.1394 -16.1281 -16.1273 -15.8507 -15.6486
   -15.6423 -15.6409 -15.5731 -15.5729 -15.4617 -15.2718 -15.2480 -15.2463
   -15.2432 -15.2424 -15.2303 -15.2216 -15.2215 -15.2211 -15.1343 -15.1334
   -14.6433 -14.4821 -14.4815 -14.4579 -14.4484 -14.4435 -14.4433 -14.3230
   -14.3108 -14.3086 -14.2723 -14.2652 -14.2643 -14.2637 -14.2637 -14.2618
   -14.1181 -14.1174 -13.6462 -13.2664 -13.2633 -13.2561 -13.2341 -13.2338
   -13.1759 -13.1713 -13.1428 -13.1426 -13.1041 -13.1023 -13.0983 -13.0797
   -13.0590 -13.0580 -12.9857 -12.9847 -12.9004 -12.8918 -12.8455 -12.8447
   -12.8304 -12.8303 -12.8242 -12.8171 -12.8167 -12.8135 -12.6120 -12.6112
   -12.2032 -11.8754 -11.8543 -11.8492 -11.8371 -11.8366 -11.7792 -11.7789
   -11.7682 -11.7668 -11.7563 -11.7429 -11.7421 -11.7417 -11.7369 -11.7367
   -11.7365 -11.6327 -11.6316 -11.6192 -11.6151 -11.5888 -11.5876 -11.5840
   -11.5746 -11.5142 -11.4643 -11.4205 -11.4198 -11.3803 -11.3774 -11.3756
   -11.3747 -11.3745 -11.3685 -11.2242 -11.2225 -11.0680 -11.0641 -11.0412
   -11.0411 -11.0343 -11.0094 -10.9938 -10.9808 -10.9573 -10.9541 -10.9214
   -10.9208 -10.9173 -10.9126 -10.9118 -10.8947 -10.7839 -10.7832 -10.7817
   -10.7801 -10.7667 -10.7656 -10.7622 -10.7298 -10.6789 -10.6693 -10.6692
   -10.6364 -10.5161 -10.5125 -10.5109 -10.4768 -10.4755 -10.4727 -10.4485
   -10.4300 -10.4295 -10.2578 -10.2553 -10.0843 -10.0839 -10.0403 -10.0392
    -9.9999  -9.9956  -9.9954  -9.9943  -9.9925  -9.9864  -9.9861  -9.9747
    -9.9739  -9.9717  -9.9587  -9.9452  -9.9392  -9.9385  -9.9354  -9.9339
    -9.9332  -9.8608  -9.8593  -9.8307  -9.8258  -9.8244  -9.7969  -9.7845
    -9.7749  -9.7000  -9.6983  -9.6082  -9.6081  -9.5821  -9.4400  -9.4384
    -9.4326  -9.4294  -9.4283  -9.3033  -9.1719  -9.1715  -8.8806  -8.8537
    -8.8526  -8.8194  -8.8022  -8.7670  -8.7663  -8.7525  -8.7517  -8.7472
    -8.6578  -8.6555  -8.6515  -8.6512  -8.6416  -8.5873  -8.5693  -8.4356
    -8.4334  -8.4287  -8.4274  -8.4222  -8.4207  -8.4200  -8.4049  -8.4022
    -8.4018  -8.3994  -8.3970  -8.3960  -8.2426  -8.2421  -8.2293  -8.1508
    -7.9429  -7.9411  -7.9147  -7.8139  -7.8061  -7.8050  -7.7778  -7.7568
    -7.7567  -7.7507  -7.7468  -7.7462  -7.6022  -7.3730  -7.3720  -7.0160
    -7.0138  -6.9977  -6.9973  -6.9903  -6.9590  -6.9559  -6.9559  -6.9543
    -6.9524  -6.9521  -6.8789  -6.8101  -6.8097  -6.7690  -6.7665  -6.7660
    -6.7653  -6.7645  -6.7635  -6.7561  -6.7556  -6.7550  -6.6341  -6.6225
    -6.6214  -6.1344  -5.7821  -5.7819  -5.7690  -5.7583  -5.7583  -5.5109
    -5.2966  -5.2921  -5.2919  -5.2801  -5.2800  -4.6939  -4.4499  -4.3843
    -3.2929  -3.2395  -3.2384  -3.2292  -3.2291  -3.1515  -2.9716  -2.9667
    -2.9661  -2.9370  -2.9369  -2.7945  -2.5659  -2.5653  -2.4880  -2.2178
    -2.2173  -2.2136  -2.2007  -2.2005  -2.1796  -2.1751  -2.1747  -2.1736
    -2.1536  -2.1531  -1.9065  -1.6257

     the Fermi energy is    -4.5811 ev

!    total energy              =   -2396.97400312 Ry
     estimated scf accuracy    <          1.9E-13 Ry
     smearing contrib. (-TS)   =      -0.00002423 Ry
     internal energy E=F+TS    =   -2396.97397889 Ry

     The total energy is F=E-TS. E is the sum of the following terms:
     one-electron contribution =  -27163.27056697 Ry
     hartree contribution      =   13655.60367103 Ry
     xc contribution           =    -852.88964018 Ry
     ewald contribution        =   11963.58255722 Ry

     convergence has been achieved in  13 iterations

     Forces acting on atoms (cartesian axes, Ry/au):

     atom    1 type  1   force =     0.00009090   -0.00000621    0.00000000
     atom    2 type  1   force =     0.00013810   -0.00004375    0.00000000
     atom    3 type  1   force =     0.00012542   -0.00022280    0.00000000
     atom    4 type  1   force =     0.00004309   -0.00007460    0.00000000
     atom    5 type  1   force =     0.00013022   -0.00022004   -0.00000000
     atom    6 type  1   force =    -0.00003116   -0.00014145    0.00000000
     atom    7 type  1   force =    -0.00004007   -0.00008185   -0.00000000
     atom    8 type  1   force =     0.00002915    0.00004689    0.00000000
     atom    9 type  1   force =     0.00006022    0.00008641   -0.00000000
     atom   10 type  1   force =     0.00007584    0.00003124   -0.00000000
     atom   11 type  1   force =     0.00006283    0.00011695   -0.00000000
     atom   12 type  1   force =    -0.00005038   -0.00001932    0.00000000
     atom   13 type  1   force =     0.00009923   -0.00004180   -0.00000001
     atom   14 type  1   force =     0.00005314   -0.00009206    0.00000000
     atom   15 type  1   force =    -0.00001339   -0.00010684   -0.00000000
     atom   16 type  1   force =     0.00004188    0.00003398   -0.00000000
     atom   17 type  1   force =    -0.00013268    0.00000407   -0.00000000
     atom   18 type  1   force =    -0.00006498   -0.00005007    0.00000000
     atom   19 type  1   force =    -0.00010496   -0.00000894   -0.00000000
     atom   20 type  1   force =    -0.00005516   -0.00000182    0.00000000
     atom   21 type  1   force =     0.00010257    0.00015355   -0.00000000
     atom   22 type  1   force =     0.00001506   -0.00003100   -0.00000000
     atom   23 type  1   force =     0.00002960   -0.00005128   -0.00000000
     atom   24 type  1   force =     0.00001931   -0.00002852    0.00000000
     atom   25 type  1   force =    -0.00018424   -0.00001209   -0.00000000
     atom   26 type  1   force =    -0.00008128    0.00002343    0.00000000
     atom   27 type  1   force =     0.00000240    0.00009661    0.00000000
     atom   28 type  1   force =     0.00002922    0.00003237   -0.00000000
     atom   29 type  1   force =     0.00012376    0.00006188    0.00000000
     atom   30 type  1   force =    -0.00000429   -0.00011871   -0.00000000
     atom   31 type  1   force =     0.00013027   -0.00002320    0.00000000
     atom   32 type  1   force =     0.00000397   -0.00008873    0.00000000
     atom   33 type  1   force =     0.00002054   -0.00003547    0.00000000
     atom   34 type  1   force =     0.00007476   -0.00004780   -0.00000000
     atom   35 type  1   force =    -0.00004497   -0.00012448    0.00000000
     atom   36 type  1   force =     0.00010490   -0.00005558   -0.00000000
     atom   37 type  1   force =    -0.00011546   -0.00007629   -0.00000000
     atom   38 type  1   force =    -0.00004263   -0.00000909   -0.00000000
     atom   39 type  1   force =    -0.00008490    0.00004621   -0.00000000
     atom   40 type  1   force =     0.00002038    0.00008209    0.00000000
     atom   41 type  1   force =     0.00014024    0.00015242   -0.00000000
     atom   42 type  1   force =    -0.00005407    0.00009362   -0.00000000
     atom   43 type  1   force =    -0.00020209   -0.00004525   -0.00000000
     atom   44 type  1   force =    -0.00009723   -0.00002871    0.00000000
     atom   45 type  1   force =    -0.00004744   -0.00000539   -0.00000000
     atom   46 type  1   force =    -0.00010721   -0.00000498   -0.00000000
     atom   47 type  1   force =     0.00010212   -0.00004281    0.00000000
     atom   48 type  1   force =    -0.00008192   -0.00009279    0.00000000
     atom   49 type  1   force =     0.00010150    0.00000163    0.00000000
     atom   50 type  1   force =    -0.00002015   -0.00008728    0.00000000
     atom   51 type  1   force =     0.00000812    0.00006255   -0.00000000
     atom   52 type  1   force =     0.00006909   -0.00011973   -0.00000000
     atom   53 type  1   force =    -0.00005821    0.00002431    0.00000000
     atom   54 type  1   force =     0.00008563   -0.00002617    0.00000000
     atom   55 type  1   force =    -0.00005217   -0.00008714   -0.00000000
     atom   56 type  1   force =     0.00012135    0.00002455   -0.00000000
     atom   57 type  1   force =    -0.00001402   -0.00010989    0.00000000
     atom   58 type  1   force =     0.00005797    0.00009040   -0.00000000
     atom   59 type  1   force =     0.00002833    0.00003835   -0.00000000
     atom   60 type  1   force =     0.00007350    0.00006985    0.00000000
     atom   61 type  1   force =    -0.00003272    0.00005673    0.00000000
     atom   62 type  1   force =     0.00002518   -0.00002135    0.00000000
     atom   63 type  1   force =    -0.00002844   -0.00009279    0.00000000
     atom   64 type  1   force =     0.00000975   -0.00002440    0.00000000
     atom   65 type  1   force =     0.00009835    0.00005188   -0.00000000
     atom   66 type  1   force =    -0.00009971    0.00004693    0.00000000
     atom   67 type  1   force =     0.00000798    0.00000443   -0.00000000
     atom   68 type  1   force =     0.00009376    0.00000178   -0.00000000
     atom   69 type  1   force =     0.00000160    0.00006452   -0.00000000
     atom   70 type  1   force =    -0.00011338   -0.00001924   -0.00000000
     atom   71 type  1   force =     0.00000134   -0.00000246    0.00000000
     atom   72 type  1   force =     0.00007340    0.00008849    0.00000000
     atom   73 type  1   force =    -0.00005659    0.00003094   -0.00000000
     atom   74 type  1   force =    -0.00004835   -0.00008030    0.00000000
     atom   75 type  1   force =    -0.00000790   -0.00000472   -0.00000000
     atom   76 type  1   force =     0.00000927    0.00010983   -0.00000000
     atom   77 type  1   force =    -0.00009418   -0.00005929   -0.00000000
     atom   78 type  1   force =     0.00001631   -0.00002063    0.00000000
     atom   79 type  1   force =     0.00009455   -0.00002179    0.00000000
     atom   80 type  1   force =     0.00000588   -0.00003250   -0.00000000
     atom   81 type  1   force =     0.00002501   -0.00007180    0.00000000
     atom   82 type  1   force =     0.00008131    0.00002501   -0.00000000
     atom   83 type  1   force =     0.00010699   -0.00002400   -0.00000000
     atom   84 type  1   force =    -0.00001308    0.00008832    0.00000000
     atom   85 type  1   force =     0.00005651    0.00000495   -0.00000000
     atom   86 type  1   force =    -0.00004238    0.00004299    0.00000000
     atom   87 type  1   force =     0.00005160   -0.00004411   -0.00000000
     atom   88 type  1   force =    -0.00014743    0.00002268   -0.00000000
     atom   89 type  1   force =     0.00020239    0.00005099   -0.00000000
     atom   90 type  1   force =    -0.00014539   -0.00014976    0.00000000
     atom   91 type  1   force =     0.00005407    0.00013891   -0.00000000
     atom   92 type  1   force =     0.00001232   -0.00006658   -0.00000000
     atom   93 type  1   force =    -0.00001589    0.00005812   -0.00000000
     atom   94 type  1   force =    -0.00003263   -0.00004643   -0.00000000
     atom   95 type  1   force =    -0.00006985    0.00005539   -0.00000000
     atom   96 type  1   force =    -0.00003275   -0.00010461    0.00000000
     atom   97 type  1   force =    -0.00006232   -0.00005793   -0.00000000
     atom   98 type  1   force =     0.00004970   -0.00005756    0.00000000
     atom   99 type  1   force =    -0.00000614    0.00001059   -0.00000000
     atom  100 type  1   force =     0.00002688   -0.00008638    0.00000000
     atom  101 type  1   force =    -0.00006172    0.00004078   -0.00000000
     atom  102 type  1   force =     0.00010927    0.00003018   -0.00000000
     atom  103 type  1   force =    -0.00000268    0.00006312    0.00000000
     atom  104 type  1   force =     0.00000509   -0.00001841    0.00000001
     atom  105 type  1   force =     0.00003893    0.00010291   -0.00000000
     atom  106 type  1   force =     0.00002520    0.00000701   -0.00000000
     atom  107 type  1   force =     0.00007737   -0.00010190    0.00000000
     atom  108 type  1   force =    -0.00005027    0.00008719    0.00000001
     atom  109 type  1   force =     0.00004954   -0.00011787   -0.00000000
     atom  110 type  1   force =    -0.00001878   -0.00001838    0.00000000
     atom  111 type  1   force =    -0.00010850    0.00001773   -0.00000000
     atom  112 type  1   force =     0.00001332   -0.00001356    0.00000000
     atom  113 type  1   force =    -0.00005321    0.00003384   -0.00000000
     atom  114 type  1   force =    -0.00008085   -0.00007946    0.00000001
     atom  115 type  1   force =    -0.00000446    0.00007380   -0.00000000
     atom  116 type  1   force =     0.00006138   -0.00006644    0.00000000
     atom  117 type  1   force =    -0.00000887   -0.00000311    0.00000000
     atom  118 type  1   force =     0.00000571   -0.00000988   -0.00000000
     atom  119 type  1   force =     0.00000711    0.00000612    0.00000000
     atom  120 type  1   force =     0.00009776    0.00005658    0.00000000
     atom  121 type  1   force =     0.00005981    0.00010052    0.00000000
     atom  122 type  1   force =     0.00001772    0.00004791   -0.00000000
     atom  123 type  1   force =     0.00006198    0.00004551    0.00000000
     atom  124 type  1   force =    -0.00003228    0.00000786   -0.00000000
     atom  125 type  1   force =     0.00004513    0.00000516    0.00000000
     atom  126 type  1   force =    -0.00003363   -0.00000239    0.00000000
     atom  127 type  1   force =    -0.00003995    0.00006933   -0.00000000
     atom  128 type  1   force =     0.00001877    0.00002787    0.00000000
     atom  129 type  1   force =    -0.00002692   -0.00003648   -0.00000000
     atom  130 type  1   force =     0.00000922    0.00003188    0.00000000
     atom  131 type  1   force =    -0.00007032   -0.00003090    0.00000000
     atom  132 type  1   force =    -0.00005034    0.00000861   -0.00000000
     atom  133 type  1   force =    -0.00011704   -0.00000153    0.00000000
     atom  134 type  1   force =    -0.00009782   -0.00005635   -0.00000000
     atom  135 type  1   force =     0.00002587    0.00000426   -0.00000000
     atom  136 type  1   force =     0.00003428   -0.00000297    0.00000000
     atom  137 type  1   force =     0.00003237   -0.00005607   -0.00000000
     atom  138 type  1   force =    -0.00001455   -0.00003116    0.00000000
     atom  139 type  1   force =    -0.00001665   -0.00002033   -0.00000000
     atom  140 type  1   force =     0.00005031    0.00011703   -0.00000000
     atom  141 type  1   force =     0.00010059   -0.00002080   -0.00000000
     atom  142 type  1   force =     0.00002357    0.00011912   -0.00000000
     atom  143 type  1   force =     0.00012089    0.00004117    0.00000000
     atom  144 type  1   force =    -0.00003298    0.00008001   -0.00000000
     atom  145 type  1   force =     0.00008983   -0.00002661    0.00000000
     atom  146 type  1   force =     0.00000824   -0.00001434   -0.00000000
     atom  147 type  1   force =    -0.00002184   -0.00009109    0.00000000
     atom  148 type  1   force =    -0.00005283    0.00006852   -0.00000000
     atom  149 type  1   force =    -0.00009608   -0.00008406    0.00000000
     atom  150 type  1   force =    -0.00011494    0.00003908   -0.00000000
     atom  151 type  1   force =    -0.00003231   -0.00009747    0.00000000
     atom  152 type  1   force =    -0.00012646    0.00001491   -0.00000000
     atom  153 type  1   force =     0.00001926    0.00002171    0.00000000
     atom  154 type  1   force =    -0.00003815    0.00001054    0.00000000
     atom  155 type  1   force =     0.00003747    0.00005041   -0.00000000
     atom  156 type  1   force =    -0.00003721    0.00006445    0.00000000
     atom  157 type  1   force =    -0.00006240   -0.00000726   -0.00000000
     atom  158 type  1   force =     0.00000996    0.00003835    0.00000000
     atom  159 type  1   force =    -0.00002845   -0.00000586    0.00000000
     atom  160 type  1   force =    -0.00004159    0.00001508   -0.00000000
     atom  161 type  1   force =     0.00000937    0.00003155    0.00000000
     atom  162 type  1   force =    -0.00002224    0.00007530    0.00000000
     atom  163 type  1   force =     0.00002550   -0.00003051   -0.00000000
     atom  164 type  1   force =     0.00001229    0.00011000    0.00000000
     atom  165 type  1   force =     0.00006942   -0.00012022   -0.00000000
     atom  166 type  1   force =    -0.00010145    0.00004435    0.00000000
     atom  167 type  1   force =     0.00001370   -0.00003733    0.00000000
     atom  168 type  1   force =    -0.00005409    0.00005688   -0.00000000
     atom  169 type  1   force =    -0.00003201    0.00000767    0.00000000
     atom  170 type  1   force =     0.00000776    0.00004355    0.00000000
     atom  171 type  1   force =    -0.00000421    0.00002790    0.00000000
     atom  172 type  1   force =     0.00002728    0.00003480    0.00000000
     atom  173 type  1   force =     0.00005040    0.00014414    0.00000000
     atom  174 type  1   force =    -0.00004216    0.00004205    0.00000000
     atom  175 type  1   force =    -0.00007801    0.00013511   -0.00000000
     atom  176 type  1   force =    -0.00001532    0.00005755    0.00000000
     atom  177 type  1   force =    -0.00015004    0.00002843   -0.00000000
     atom  178 type  1   force =    -0.00004376   -0.00000620   -0.00000000
     atom  179 type  1   force =    -0.00002208    0.00001759    0.00000000
     atom  180 type  1   force =    -0.00004033   -0.00002826    0.00000000
     atom  181 type  1   force =    -0.00000952   -0.00000504   -0.00000000
     atom  182 type  1   force =     0.00000161   -0.00006421    0.00000000
     atom  183 type  1   force =     0.00008082   -0.00015222   -0.00000001
     atom  184 type  1   force =     0.00004174   -0.00007234   -0.00000000
     atom  185 type  1   force =     0.00009145   -0.00014608   -0.00000000
     atom  186 type  1   force =     0.00005478   -0.00003352    0.00000000
     atom  187 type  1   force =     0.00000913    0.00000574    0.00000000
     atom  188 type  1   force =     0.00004464    0.00002079   -0.00000000
     atom  189 type  1   force =     0.00000790    0.00002352   -0.00000000
     atom  190 type  1   force =     0.00001698    0.00003504    0.00000000
     atom  191 type  1   force =    -0.00000291    0.00009260    0.00000000
     atom  192 type  1   force =     0.00003515    0.00007580   -0.00000000
     atom  193 type  1   force =    -0.00002771    0.00011988    0.00000000
     atom  194 type  1   force =    -0.00000550    0.00000956   -0.00000000
     atom  195 type  1   force =    -0.00008997    0.00008393    0.00000000
     atom  196 type  1   force =    -0.00008319    0.00000746    0.00000000
     atom  197 type  1   force =    -0.00007876    0.00004882   -0.00000000
     atom  198 type  1   force =    -0.00003883    0.00000281    0.00000000
     atom  199 type  1   force =    -0.00002431    0.00000492    0.00000000

     Total force =     0.001357     Total SCF correction =     0.000001
     Energy error            =      2.8E-06 Ry
     Gradient error          =      2.2E-04 Ry/Bohr

     number of scf cycles    =  13
     number of bfgs steps    =  12

     energy             old  =   -2396.9740002982 Ry
     energy             new  =   -2396.9740031189 Ry

     CASE: energy            _new < energy            _old

     new trust radius        =       0.0004328442 bohr
     new conv_thr            =            1.0E-12 Ry


ATOMIC_POSITIONS (crystal)
C                0.0333379865        0.0333082528       -0.0000000006
C                0.0666746175        0.0666424463       -0.0000000008
C                0.0333009452        0.1333409686       -0.0000000001
C                0.0666520661        0.1666739668        0.0000000006
C                0.0333009450        0.2333580859        0.0000000009
C                0.0666746166        0.2666829362        0.0000000005
C                0.0333379857        0.3333537609        0.0000000005
C                0.0667314235        0.3666679319        0.0000000004
C                0.0334005365        0.4333301920        0.0000000011
C                0.0667994233        0.4666489678        0.0000000009
C                0.0333732302        0.5333144723        0.0000000008
C                0.0666792310        0.5666660500       -0.0000000001
C                0.0333116505        0.6333376530        0.0000000005
C                0.0666518432        0.6666740792       -0.0000000005
C                0.0333116513        0.7333506979        0.0000000005
C                0.0666792322        0.7666547194        0.0000000005
C                0.0333732317        0.8333122978        0.0000000013
C                0.0667994256        0.8665516078        0.0000000011
C                0.0334005381        0.9332692708        0.0000000005
C                0.0667314251        0.9666006439       -0.0000000001
C                0.1333720691        0.0332643371       -0.0000000007
C                0.1666990280        0.0666221885        0.0000000004
C                0.1333505241        0.1333247374        0.0000000008
C                0.1666990275        0.1666787827        0.0000000012
C                0.1333720684        0.2333635931        0.0000000009
C                0.1667506982        0.2667073639        0.0000000006
C                0.1334331927        0.3333798719        0.0000000001
C                0.1668262021        0.3667201002        0.0000000001
C                0.1335252914        0.4333672729        0.0000000003
C                0.1669409340        0.4667050673       -0.0000000004
C                0.1333688644        0.5333558780       -0.0000000011
C                0.1666272125        0.5667151033       -0.0000000020
C                0.1332367263        0.6333816383       -0.0000000020
C                0.1666272156        0.6666576836       -0.0000000020
C                0.1333688676        0.7332752570       -0.0000000006
C                0.1669409392        0.7663539953       -0.0000000001
C                0.1335252955        0.8331074327        0.0000000009
C                0.1668262048        0.8664536956        0.0000000007
C                0.1334331948        0.9331869333       -0.0000000000
C                0.1667506993        0.9665419365       -0.0000000009
C                0.2333816453        0.0332648919        0.0000000006
C                0.2666995086        0.0666502450        0.0000000010
C                0.2333816448        0.1333534619        0.0000000011
C                0.2667185147        0.1667434173        0.0000000007
C                0.2334241140        0.2334191237        0.0000000008
C                0.2667958517        0.2668065514        0.0000000006
C                0.2335179839        0.3334623489       -0.0000000001
C                0.2669518301        0.3668200815       -0.0000000002
C                0.2337295919        0.4334457085       -0.0000000004
C                0.2671123428        0.4669234662       -0.0000000008
C                0.2331785813        0.5334644020       -0.0000000017
C                0.2664561616        0.5667719195       -0.0000000022
C                0.2331785835        0.6333570147       -0.0000000027
C                0.2671123528        0.6659641826       -0.0000000024
C                0.2337295989        0.7328246928       -0.0000000010
C                0.2669518357        0.7662280832        0.0000000000
C                0.2335179877        0.8330196634        0.0000000004
C                0.2667958536        0.8663975946        0.0000000002
C                0.2334241155        0.9331567598       -0.0000000005
C                0.2667185156        0.9665380667       -0.0000000002
C                0.3333684376        0.0333157808        0.0000000007
C                0.3666745949        0.0667292321        0.0000000001
C                0.3333897192        0.1334380273        0.0000000001
C                0.3667161334        0.1668570155       -0.0000000004
C                0.3334518068        0.2335516812        0.0000000001
C                0.3667869906        0.2670190659        0.0000000000
C                0.3335564891        0.3336168977        0.0000000003
C                0.3670274152        0.3671369756        0.0000000005
C                0.3339820245        0.4335099433        0.0000000001
C                0.3676482746        0.4676311851       -0.0000000012
C                0.3324294575        0.5337852695       -0.0000000021
C                0.3676482909        0.5647205230       -0.0000000022
C                0.3339820360        0.6325080185       -0.0000000026
C                0.3670274221        0.6658355987       -0.0000000018
C                0.3335564940        0.7328266051       -0.0000000005
C                0.3667869928        0.7661939387        0.0000000001
C                0.3334518087        0.8329965083        0.0000000000
C                0.3667161346        0.8664268493       -0.0000000008
C                0.3333897202        0.9331722515       -0.0000000003
C                0.3666745953        0.9665961716        0.0000000003
C                0.4333342825        0.0334141240        0.0000000003
C                0.4666390594        0.0668462340       -0.0000000001
C                0.4333614457        0.1335902875       -0.0000000010
C                0.4666755745        0.1670549290       -0.0000000011
C                0.4334127540        0.2338711216       -0.0000000004
C                0.4668562550        0.2673310339       -0.0000000004
C                0.4334183261        0.3342552381        0.0000000003
C                0.4674753607        0.3680919784       -0.0000000009
C                0.4326958621        0.4332552128       -0.0000000043
C                0.4326958871        0.5340488919       -0.0000000017
C                0.4674753658        0.5644326525       -0.0000000012
C                0.4334183301        0.6323264286       -0.0000000009
C                0.4668562561        0.6658127076       -0.0000000001
C                0.4334127552        0.7327161201        0.0000000001
C                0.4666755751        0.7662694941       -0.0000000000
C                0.4333614461        0.8330482648       -0.0000000005
C                0.4666390596        0.8665147057        0.0000000001
C                0.4333342826        0.9332515928        0.0000000001
C                0.4666337975        0.9666831010        0.0000000005
C                0.5333015301        0.0334248477       -0.0000000000
C                0.5666339557        0.0667625243       -0.0000000003
C                0.5333243149        0.1334774008       -0.0000000009
C                0.5666616237        0.1667712932       -0.0000000008
C                0.5334046505        0.2333620379       -0.0000000010
C                0.5666833725        0.2666796875       -0.0000000009
C                0.5336773583        0.3327182268       -0.0000000012
C                0.5649103427        0.3676671697       -0.0000000020
C                0.5348862550        0.4325568816        0.0000000005
C                0.5649103502        0.4674224924       -0.0000000009
C                0.5336773637        0.5336044179       -0.0000000003
C                0.5666833744        0.5666369431        0.0000000002
C                0.5334046512        0.6332333131        0.0000000003
C                0.5666616230        0.6665670842        0.0000000001
C                0.5333243141        0.7331982844       -0.0000000001
C                0.5666339558        0.7666035203        0.0000000004
C                0.5333015298        0.8332736230        0.0000000003
C                0.5666153836        0.8666613475        0.0000000007
C                0.5332978552        0.9333510727        0.0000000010
C                0.5666153836        0.9667232693        0.0000000006
C                0.6333047163        0.0333802104        0.0000000001
C                0.6666302409        0.0667340383        0.0000000005
C                0.6333326945        0.1333406724        0.0000000005
C                0.6666088956        0.1667321312        0.0000000002
C                0.6333086693        0.2333047117       -0.0000000007
C                0.6660452758        0.2671163433       -0.0000000016
C                0.6327048503        0.3339473833       -0.0000000023
C                0.6660505015        0.3669747513       -0.0000000011
C                0.6327048557        0.4333477691       -0.0000000009
C                0.6660452795        0.4668383845       -0.0000000003
C                0.6333086715        0.5333866209       -0.0000000003
C                0.6666088961        0.5666589762       -0.0000000006
C                0.6333326934        0.6333266352       -0.0000000001
C                0.6666302397        0.6666357222        0.0000000001
C                0.6333047157        0.7333150752        0.0000000009
C                0.6666346124        0.7666563339        0.0000000012
C                0.6332916317        0.8333377626        0.0000000009
C                0.6666283411        0.8666858301        0.0000000007
C                0.6332916317        0.9333706068        0.0000000004
C                0.6666346129        0.9667090542        0.0000000004
C                0.7333108139        0.0333682502        0.0000000010
C                0.7666219694        0.0667282856        0.0000000012
C                0.7332463819        0.1334259094        0.0000000008
C                0.7663823252        0.1669412915       -0.0000000001
C                0.7328998480        0.2337156638       -0.0000000008
C                0.7663343665        0.2669104551       -0.0000000004
C                0.7329996465        0.3335001779       -0.0000000003
C                0.7663343664        0.3667551819        0.0000000003
C                0.7328998497        0.4333844905        0.0000000000
C                0.7663823251        0.4666763867       -0.0000000001
C                0.7332463820        0.5333277110       -0.0000000007
C                0.7666219684        0.5666497474       -0.0000000005
C                0.7333108137        0.6333209378       -0.0000000001
C                0.7666422227        0.6666543300        0.0000000003
C                0.7333126687        0.7333331900        0.0000000010
C                0.7666449442        0.7666674958        0.0000000008
C                0.7333096657        0.8333451677        0.0000000005
C                0.7666449445        0.8666875609        0.0000000006
C                0.7333126688        0.9333541428        0.0000000006
C                0.7666422234        0.9667034480        0.0000000009
C                0.8332886196        0.0333989635        0.0000000007
C                0.8665591375        0.0667941043       -0.0000000001
C                0.8331350799        0.1335128683       -0.0000000003
C                0.8665045925        0.1667932489       -0.0000000003
C                0.8331066369        0.2334772870        0.0000000001
C                0.8664777482        0.2667611269        0.0000000006
C                0.8331066367        0.3334160780        0.0000000004
C                0.8665045921        0.3667021608        0.0000000004
C                0.8331350801        0.4333520535        0.0000000004
C                0.8665591369        0.4666467600        0.0000000004
C                0.8332886193        0.5333124186       -0.0000000002
C                0.8666558948        0.5666319770        0.0000000002
C                0.8333209118        0.6333096000        0.0000000003
C                0.8666586867        0.6666494668        0.0000000005
C                0.8333190419        0.7333321666        0.0000000006
C                0.8666545792        0.7666727110        0.0000000011
C                0.8333190422        0.8333487927        0.0000000012
C                0.8666586870        0.8666918476        0.0000000019
C                0.8333209124        0.9333694895        0.0000000014
C                0.8666558954        0.9667121292        0.0000000008
C                0.9332800130        0.0333894995       -0.0000000002
C                0.9666293697        0.0667029935       -0.0000000005
C                0.9332295996        0.1334003313       -0.0000000004
C                0.9665857627        0.1667178934        0.0000000003
C                0.9332197094        0.2333901456        0.0000000008
C                0.9665857624        0.2666963447        0.0000000008
C                0.9332295989        0.3333700702        0.0000000005
C                0.9666293686        0.3666676381        0.0000000007
C                0.9332800121        0.4333304888        0.0000000011
C                0.9666827458        0.4666390925        0.0000000014
C                0.9333378612        0.5333057605        0.0000000008
C                0.9666869873        0.5666326715        0.0000000009
C                0.9333351879        0.6333106395        0.0000000006
C                0.9666570806        0.6666647799        0.0000000008
C                0.9333138799        0.7333430608        0.0000000017
C                0.9666570810        0.7666781405        0.0000000014
C                0.9333351884        0.8333541737        0.0000000017
C                0.9666869885        0.8666803415        0.0000000013
C                0.9333378619        0.9333563790        0.0000000006
C                0.9666827472        0.9666781619        0.0000000002



     Writing config-only to output data dir /home/gregb26/links/scratch/qe_tmp/vacancy_relaxed/series/10x10/nspin1/vac_10x10_relax_nspin1.save/ :
     XML data file
     NEW-OLD atomic charge density approx. for the potential

     negative rho (up, down):  7.607E-08 0.000E+00

     total cpu time spent up to now is     2283.6 secs

     per-process dynamical memory:   459.1 Mb

     Self-consistent Calculation

     iteration #  1     ecut=   100.00 Ry     beta= 0.30
     Davidson diagonalization with overlap
     ethr =  1.00E-06,  avg # of iterations =  2.0

     Threshold (ethr) on eigenvalues was too large:
     Diagonalizing with lowered threshold

     Davidson diagonalization with overlap
     ethr =  8.92E-11,  avg # of iterations =  7.0

     negative rho (up, down):  4.551E-08 0.000E+00

     total cpu time spent up to now is     2316.3 secs

     total energy              =   -2396.97400439 Ry
     estimated scf accuracy    <       0.00000069 Ry

     iteration #  2     ecut=   100.00 Ry     beta= 0.30
     Davidson diagonalization with overlap
     ethr =  8.63E-11,  avg # of iterations =  2.0

     negative rho (up, down):  2.382E-08 0.000E+00

     total cpu time spent up to now is     2326.1 secs

     total energy              =   -2396.97400439 Ry
     estimated scf accuracy    <       0.00000023 Ry

     iteration #  3     ecut=   100.00 Ry     beta= 0.30
     Davidson diagonalization with overlap
     ethr =  2.94E-11,  avg # of iterations =  5.0

     negative rho (up, down):  1.249E-08 0.000E+00

     total cpu time spent up to now is     2336.6 secs

     total energy              =   -2396.97400438 Ry
     estimated scf accuracy    <       0.00000033 Ry

     iteration #  4     ecut=   100.00 Ry     beta= 0.30
     Davidson diagonalization with overlap
     ethr =  2.94E-11,  avg # of iterations =  5.0

     total cpu time spent up to now is     2346.5 secs

     total energy              =   -2396.97400441 Ry
     estimated scf accuracy    <       0.00000004 Ry

     iteration #  5     ecut=   100.00 Ry     beta= 0.30
     Davidson diagonalization with overlap
     ethr =  5.37E-12,  avg # of iterations =  5.0

     total cpu time spent up to now is     2356.4 secs

     total energy              =   -2396.97400441 Ry
     estimated scf accuracy    <       0.00000001 Ry

     iteration #  6     ecut=   100.00 Ry     beta= 0.30
     Davidson diagonalization with overlap
     ethr =  1.35E-12,  avg # of iterations =  5.0

     total cpu time spent up to now is     2367.0 secs

     total energy              =   -2396.97400441 Ry
     estimated scf accuracy    <          1.7E-09 Ry

     iteration #  7     ecut=   100.00 Ry     beta= 0.30
     Davidson diagonalization with overlap
     ethr =  2.17E-13,  avg # of iterations =  5.0

     total cpu time spent up to now is     2379.7 secs

     total energy              =   -2396.97400441 Ry
     estimated scf accuracy    <          2.7E-10 Ry

     iteration #  8     ecut=   100.00 Ry     beta= 0.30
     Davidson diagonalization with overlap
     ethr =  1.00E-13,  avg # of iterations =  2.0

     total cpu time spent up to now is     2389.4 secs

     total energy              =   -2396.97400441 Ry
     estimated scf accuracy    <          7.9E-11 Ry

     iteration #  9     ecut=   100.00 Ry     beta= 0.30
     Davidson diagonalization with overlap
     ethr =  1.00E-13,  avg # of iterations =  1.0

     total cpu time spent up to now is     2398.8 secs

     total energy              =   -2396.97400441 Ry
     estimated scf accuracy    <          9.9E-12 Ry

     iteration # 10     ecut=   100.00 Ry     beta= 0.30
     Davidson diagonalization with overlap
     ethr =  1.00E-13,  avg # of iterations =  1.0

     total cpu time spent up to now is     2407.4 secs

     total energy              =   -2396.97400441 Ry
     estimated scf accuracy    <          1.7E-12 Ry

     iteration # 11     ecut=   100.00 Ry     beta= 0.30
     Davidson diagonalization with overlap
     ethr =  1.00E-13,  avg # of iterations =  1.0

     total cpu time spent up to now is     2416.3 secs

     End of self-consistent calculation

          k = 0.0000 0.0000 0.0000 (476289 PWs)   bands (ev):

   -23.7948 -23.5885 -23.5828 -23.5556 -23.5471 -23.5457 -23.5412 -23.1302
   -23.1246 -23.0937 -23.0935 -23.0824 -23.0379 -22.8793 -22.8768 -22.8615
   -22.8602 -22.8545 -22.7795 -22.2214 -22.2151 -22.1969 -22.1968 -22.1756
   -22.1578 -22.1497 -22.1489 -22.1438 -22.1430 -22.1421 -21.9997 -21.7153
   -21.7151 -21.7126 -21.7078 -21.7073 -21.5746 -21.0494 -21.0488 -21.0290
   -21.0243 -21.0225 -20.9438 -20.8244 -20.8243 -20.8154 -20.7995 -20.7972
   -20.7928 -20.7889 -20.7885 -20.7832 -20.7816 -20.7803 -20.5142 -20.1420
   -20.1411 -20.1400 -20.1162 -20.1152 -19.9800 -19.5316 -19.5312 -19.5110
   -19.4700 -19.4680 -19.4579 -19.4549 -19.4534 -19.4534 -19.4500 -19.4488
   -19.2877 -19.1070 -19.1057 -19.0860 -19.0593 -19.0560 -19.0542 -19.0528
   -19.0525 -19.0505 -19.0375 -19.0363 -18.7085 -18.5703 -18.5690 -18.4068
   -17.9973 -17.9776 -17.9765 -17.9537 -17.9535 -17.8813 -17.8507 -17.8472
   -17.8471 -17.8250 -17.8249 -17.6541 -17.5062 -17.5054 -17.3187 -16.9940
   -16.9939 -16.9892 -16.9341 -16.9335 -16.8569 -16.6853 -16.6817 -16.6807
   -16.6562 -16.6560 -16.6550 -16.6356 -16.6337 -16.6334 -16.5617 -16.5598
   -16.3704 -16.2042 -16.1418 -16.1394 -16.1281 -16.1273 -15.8507 -15.6486
   -15.6423 -15.6409 -15.5731 -15.5729 -15.4616 -15.2717 -15.2480 -15.2462
   -15.2432 -15.2424 -15.2302 -15.2216 -15.2215 -15.2210 -15.1343 -15.1335
   -14.6436 -14.4822 -14.4815 -14.4579 -14.4483 -14.4435 -14.4433 -14.3228
   -14.3107 -14.3085 -14.2722 -14.2651 -14.2642 -14.2636 -14.2636 -14.2617
   -14.1184 -14.1176 -13.6466 -13.2664 -13.2633 -13.2560 -13.2341 -13.2339
   -13.1760 -13.1712 -13.1427 -13.1426 -13.1039 -13.1022 -13.0981 -13.0797
   -13.0590 -13.0580 -12.9857 -12.9848 -12.9004 -12.8918 -12.8455 -12.8446
   -12.8305 -12.8304 -12.8243 -12.8169 -12.8165 -12.8135 -12.6120 -12.6113
   -12.2033 -11.8754 -11.8543 -11.8491 -11.8371 -11.8366 -11.7793 -11.7790
   -11.7682 -11.7668 -11.7563 -11.7430 -11.7421 -11.7417 -11.7367 -11.7364
   -11.7362 -11.6328 -11.6317 -11.6192 -11.6150 -11.5887 -11.5875 -11.5841
   -11.5748 -11.5141 -11.4646 -11.4207 -11.4200 -11.3802 -11.3773 -11.3755
   -11.3746 -11.3745 -11.3684 -11.2242 -11.2224 -11.0680 -11.0641 -11.0411
   -11.0410 -11.0341 -11.0092 -10.9939 -10.9810 -10.9571 -10.9539 -10.9214
   -10.9209 -10.9173 -10.9126 -10.9118 -10.8948 -10.7839 -10.7831 -10.7816
   -10.7801 -10.7666 -10.7655 -10.7622 -10.7298 -10.6790 -10.6693 -10.6693
   -10.6366 -10.5162 -10.5125 -10.5109 -10.4767 -10.4753 -10.4726 -10.4483
   -10.4299 -10.4295 -10.2576 -10.2552 -10.0840 -10.0838 -10.0401 -10.0391
    -9.9999  -9.9957  -9.9955  -9.9943  -9.9927  -9.9865  -9.9862  -9.9747
    -9.9740  -9.9717  -9.9588  -9.9453  -9.9392  -9.9386  -9.9351  -9.9338
    -9.9331  -9.8610  -9.8595  -9.8308  -9.8258  -9.8244  -9.7969  -9.7844
    -9.7751  -9.6999  -9.6983  -9.6080  -9.6079  -9.5820  -9.4400  -9.4384
    -9.4326  -9.4294  -9.4283  -9.3033  -9.1718  -9.1714  -8.8805  -8.8536
    -8.8526  -8.8198  -8.8023  -8.7670  -8.7663  -8.7527  -8.7519  -8.7470
    -8.6578  -8.6554  -8.6515  -8.6512  -8.6416  -8.5880  -8.5694  -8.4357
    -8.4334  -8.4285  -8.4271  -8.4221  -8.4208  -8.4200  -8.4048  -8.4023
    -8.4019  -8.3993  -8.3969  -8.3959  -8.2425  -8.2420  -8.2291  -8.1508
    -7.9431  -7.9413  -7.9159  -7.8135  -7.8061  -7.8050  -7.7779  -7.7568
    -7.7567  -7.7507  -7.7467  -7.7462  -7.6023  -7.3730  -7.3720  -7.0160
    -7.0138  -6.9976  -6.9973  -6.9903  -6.9589  -6.9560  -6.9559  -6.9542
    -6.9524  -6.9521  -6.8789  -6.8101  -6.8098  -6.7691  -6.7665  -6.7660
    -6.7653  -6.7645  -6.7634  -6.7559  -6.7555  -6.7549  -6.6341  -6.6225
    -6.6214  -6.1344  -5.7821  -5.7818  -5.7690  -5.7583  -5.7583  -5.5110
    -5.2967  -5.2920  -5.2919  -5.2801  -5.2800  -4.6940  -4.4502  -4.3843
    -3.2928  -3.2395  -3.2384  -3.2292  -3.2291  -3.1515  -2.9716  -2.9667
    -2.9661  -2.9371  -2.9369  -2.7945  -2.5659  -2.5653  -2.4880  -2.2177
    -2.2173  -2.2134  -2.2007  -2.2005  -2.1796  -2.1752  -2.1747  -2.1737
    -2.1538  -2.1533  -1.9066  -1.6256

     the Fermi energy is    -4.5812 ev

!    total energy              =   -2396.97400441 Ry
     estimated scf accuracy    <          5.7E-13 Ry
     smearing contrib. (-TS)   =      -0.00002770 Ry
     internal energy E=F+TS    =   -2396.97397671 Ry

     The total energy is F=E-TS. E is the sum of the following terms:
     one-electron contribution =  -27163.25528333 Ry
     hartree contribution      =   13655.59607699 Ry
     xc contribution           =    -852.88917693 Ry
     ewald contribution        =   11963.57440656 Ry

     convergence has been achieved in  11 iterations

     Forces acting on atoms (cartesian axes, Ry/au):

     atom    1 type  1   force =     0.00000776   -0.00001247   -0.00000000
     atom    2 type  1   force =     0.00004372   -0.00002308    0.00000000
     atom    3 type  1   force =     0.00003461   -0.00002766   -0.00000000
     atom    4 type  1   force =     0.00009620   -0.00016663   -0.00000000
     atom    5 type  1   force =     0.00000665   -0.00004379   -0.00000000
     atom    6 type  1   force =    -0.00000185   -0.00004941   -0.00000000
     atom    7 type  1   force =     0.00000692   -0.00001294    0.00000000
     atom    8 type  1   force =     0.00005383   -0.00000087    0.00000000
     atom    9 type  1   force =     0.00006131    0.00006778    0.00000000
     atom   10 type  1   force =     0.00002877    0.00004781    0.00000000
     atom   11 type  1   force =     0.00007821    0.00003863    0.00000000
     atom   12 type  1   force =     0.00004786   -0.00002221    0.00000000
     atom   13 type  1   force =     0.00002770   -0.00002445   -0.00000000
     atom   14 type  1   force =    -0.00000073    0.00000128    0.00000000
     atom   15 type  1   force =     0.00000730   -0.00003620   -0.00000000
     atom   16 type  1   force =    -0.00000466   -0.00005259    0.00000000
     atom   17 type  1   force =    -0.00007257   -0.00004842   -0.00000000
     atom   18 type  1   force =    -0.00005577   -0.00000103   -0.00000000
     atom   19 type  1   force =    -0.00008934   -0.00001921    0.00000000
     atom   20 type  1   force =    -0.00002617   -0.00004706    0.00000000
     atom   21 type  1   force =     0.00000667   -0.00003893    0.00000000
     atom   22 type  1   force =     0.00007892    0.00009135   -0.00000000
     atom   23 type  1   force =     0.00002230   -0.00003862    0.00000000
     atom   24 type  1   force =    -0.00011856   -0.00002268   -0.00000000
     atom   25 type  1   force =     0.00003039   -0.00002523   -0.00000000
     atom   26 type  1   force =    -0.00003046    0.00003342   -0.00000000
     atom   27 type  1   force =     0.00004532   -0.00003884    0.00000000
     atom   28 type  1   force =     0.00003569   -0.00004398   -0.00000000
     atom   29 type  1   force =     0.00003653   -0.00004860   -0.00000000
     atom   30 type  1   force =     0.00004871    0.00000894   -0.00000000
     atom   31 type  1   force =    -0.00004307   -0.00004476    0.00000000
     atom   32 type  1   force =     0.00007822   -0.00001032    0.00000000
     atom   33 type  1   force =     0.00000532   -0.00000928    0.00000000
     atom   34 type  1   force =    -0.00003019   -0.00007284   -0.00000000
     atom   35 type  1   force =     0.00006025    0.00001494   -0.00000000
     atom   36 type  1   force =    -0.00003210   -0.00003773    0.00000000
     atom   37 type  1   force =     0.00002380   -0.00005590   -0.00000000
     atom   38 type  1   force =     0.00002024   -0.00005293    0.00000000
     atom   39 type  1   force =     0.00001098   -0.00005865   -0.00000000
     atom   40 type  1   force =    -0.00001372    0.00004307    0.00000000
     atom   41 type  1   force =    -0.00000950   -0.00002104   -0.00000000
     atom   42 type  1   force =    -0.00000422    0.00000733    0.00000000
     atom   43 type  1   force =     0.00002297   -0.00000229    0.00000000
     atom   44 type  1   force =    -0.00004248   -0.00004262    0.00000000
     atom   45 type  1   force =    -0.00010890   -0.00000549   -0.00000000
     atom   46 type  1   force =     0.00001920   -0.00000134   -0.00000000
     atom   47 type  1   force =    -0.00006042   -0.00005915    0.00000000
     atom   48 type  1   force =     0.00001951    0.00001046    0.00000000
     atom   49 type  1   force =    -0.00006177   -0.00004659   -0.00000000
     atom   50 type  1   force =     0.00000057    0.00000336    0.00000000
     atom   51 type  1   force =     0.00001159    0.00001456    0.00000000
     atom   52 type  1   force =     0.00002423   -0.00004207   -0.00000000
     atom   53 type  1   force =    -0.00001834   -0.00000279   -0.00000000
     atom   54 type  1   force =    -0.00000325    0.00000126    0.00000000
     atom   55 type  1   force =     0.00007124    0.00003022    0.00000000
     atom   56 type  1   force =    -0.00001886   -0.00001163   -0.00000000
     atom   57 type  1   force =     0.00008142    0.00002276    0.00000000
     atom   58 type  1   force =    -0.00000846   -0.00001733   -0.00000000
     atom   59 type  1   force =     0.00005923    0.00009159    0.00000000
     atom   60 type  1   force =     0.00005813    0.00001546    0.00000000
     atom   61 type  1   force =     0.00000518   -0.00000899   -0.00000000
     atom   62 type  1   force =     0.00005373    0.00001198    0.00000000
     atom   63 type  1   force =     0.00003961    0.00004644   -0.00000000
     atom   64 type  1   force =     0.00004090    0.00005257   -0.00000000
     atom   65 type  1   force =    -0.00006487    0.00004576   -0.00000000
     atom   66 type  1   force =     0.00000904   -0.00000409   -0.00000000
     atom   67 type  1   force =     0.00006985   -0.00001191   -0.00000000
     atom   68 type  1   force =    -0.00007420   -0.00002192   -0.00000000
     atom   69 type  1   force =     0.00000579    0.00004112   -0.00000000
     atom   70 type  1   force =    -0.00001174   -0.00003447    0.00000000
     atom   71 type  1   force =     0.00000650   -0.00001115   -0.00000001
     atom   72 type  1   force =     0.00003568   -0.00000706    0.00000000
     atom   73 type  1   force =    -0.00003857    0.00001550    0.00000000
     atom   74 type  1   force =     0.00005613    0.00005341    0.00000000
     atom   75 type  1   force =    -0.00002458   -0.00006643    0.00000000
     atom   76 type  1   force =    -0.00000098   -0.00000986   -0.00000000
     atom   77 type  1   force =    -0.00000717    0.00007906   -0.00000000
     atom   78 type  1   force =    -0.00006603   -0.00000915    0.00000000
     atom   79 type  1   force =    -0.00006002   -0.00001106    0.00000000
     atom   80 type  1   force =    -0.00003723   -0.00004053   -0.00000000
     atom   81 type  1   force =     0.00005544   -0.00003892   -0.00000000
     atom   82 type  1   force =     0.00002100   -0.00000915   -0.00000000
     atom   83 type  1   force =     0.00001580    0.00005390    0.00000000
     atom   84 type  1   force =     0.00002223   -0.00000442    0.00000000
     atom   85 type  1   force =    -0.00007406    0.00002511   -0.00000000
     atom   86 type  1   force =     0.00000244    0.00001437    0.00000000
     atom   87 type  1   force =    -0.00001108   -0.00001302   -0.00000000
     atom   88 type  1   force =     0.00003502    0.00005593   -0.00000001
     atom   89 type  1   force =     0.00009597    0.00001520   -0.00000001
     atom   90 type  1   force =    -0.00006118   -0.00007556   -0.00000000
     atom   91 type  1   force =    -0.00006590   -0.00000235   -0.00000000
     atom   92 type  1   force =     0.00001681    0.00000298   -0.00000000
     atom   93 type  1   force =    -0.00001365    0.00000507    0.00000000
     atom   94 type  1   force =     0.00001533    0.00007671    0.00000000
     atom   95 type  1   force =    -0.00000730   -0.00002142    0.00000000
     atom   96 type  1   force =    -0.00005455    0.00001326    0.00000000
     atom   97 type  1   force =    -0.00000259   -0.00002276   -0.00000000
     atom   98 type  1   force =     0.00000598   -0.00006748    0.00000000
     atom   99 type  1   force =     0.00002424   -0.00004197    0.00000000
     atom  100 type  1   force =     0.00006805    0.00000937    0.00000000
     atom  101 type  1   force =     0.00006022    0.00005874   -0.00000000
     atom  102 type  1   force =    -0.00003843    0.00003837   -0.00000000
     atom  103 type  1   force =     0.00005524    0.00003132    0.00000000
     atom  104 type  1   force =    -0.00000981   -0.00000344   -0.00000000
     atom  105 type  1   force =     0.00003087    0.00003367   -0.00000000
     atom  106 type  1   force =     0.00002144    0.00004771    0.00000001
     atom  107 type  1   force =     0.00003731    0.00000209    0.00000000
     atom  108 type  1   force =    -0.00001349    0.00002324    0.00000001
     atom  109 type  1   force =    -0.00002040   -0.00003131   -0.00000000
     atom  110 type  1   force =    -0.00005210    0.00000534   -0.00000001
     atom  111 type  1   force =    -0.00004456   -0.00000995   -0.00000000
     atom  112 type  1   force =     0.00000786    0.00000677    0.00000000
     atom  113 type  1   force =    -0.00005471   -0.00003218    0.00000000
     atom  114 type  1   force =    -0.00001396    0.00005245    0.00000000
     atom  115 type  1   force =    -0.00008098   -0.00002274   -0.00000000
     atom  116 type  1   force =    -0.00004216   -0.00005428    0.00000000
     atom  117 type  1   force =     0.00001144   -0.00001735    0.00000000
     atom  118 type  1   force =     0.00001720   -0.00002981   -0.00000000
     atom  119 type  1   force =     0.00000932   -0.00001857    0.00000000
     atom  120 type  1   force =     0.00001494    0.00003168    0.00000000
     atom  121 type  1   force =     0.00001767    0.00004211    0.00000000
     atom  122 type  1   force =     0.00001418    0.00000960   -0.00000000
     atom  123 type  1   force =    -0.00001873    0.00006790   -0.00000000
     atom  124 type  1   force =    -0.00001960    0.00000008    0.00000000
     atom  125 type  1   force =     0.00001310    0.00002431    0.00000000
     atom  126 type  1   force =    -0.00001233   -0.00003392    0.00000000
     atom  127 type  1   force =     0.00004462   -0.00007731   -0.00000000
     atom  128 type  1   force =     0.00003556   -0.00000626    0.00000000
     atom  129 type  1   force =    -0.00002767    0.00000079   -0.00000000
     atom  130 type  1   force =     0.00000977    0.00001706    0.00000000
     atom  131 type  1   force =    -0.00004948    0.00005016    0.00000001
     atom  132 type  1   force =    -0.00001538   -0.00000750   -0.00000001
     atom  133 type  1   force =    -0.00004524    0.00000574    0.00000000
     atom  134 type  1   force =    -0.00003494    0.00000287   -0.00000000
     atom  135 type  1   force =    -0.00003752    0.00003763   -0.00000000
     atom  136 type  1   force =    -0.00003661   -0.00008042    0.00000000
     atom  137 type  1   force =     0.00000448   -0.00000777   -0.00000000
     atom  138 type  1   force =     0.00008795   -0.00000851    0.00000000
     atom  139 type  1   force =    -0.00001381    0.00005136   -0.00000000
     atom  140 type  1   force =     0.00004172    0.00003631    0.00000000
     atom  141 type  1   force =     0.00003493    0.00007872   -0.00000000
     atom  142 type  1   force =     0.00007684   -0.00000119   -0.00000000
     atom  143 type  1   force =     0.00000493    0.00002917    0.00000000
     atom  144 type  1   force =     0.00006908   -0.00003397    0.00000000
     atom  145 type  1   force =     0.00000136   -0.00000573   -0.00000000
     atom  146 type  1   force =    -0.00002234    0.00003873   -0.00000000
     atom  147 type  1   force =     0.00000423   -0.00000409    0.00000000
     atom  148 type  1   force =    -0.00000507   -0.00007680   -0.00000000
     atom  149 type  1   force =    -0.00002774    0.00001025   -0.00000000
     atom  150 type  1   force =    -0.00003737   -0.00006712    0.00000000
     atom  151 type  1   force =    -0.00008560    0.00000906   -0.00000000
     atom  152 type  1   force =    -0.00005235   -0.00001795    0.00000000
     atom  153 type  1   force =    -0.00005752   -0.00002011    0.00000000
     atom  154 type  1   force =    -0.00007025    0.00000873   -0.00000000
     atom  155 type  1   force =     0.00000155    0.00004284   -0.00000000
     atom  156 type  1   force =     0.00000897   -0.00001552    0.00000000
     atom  157 type  1   force =    -0.00003787    0.00002009    0.00000000
     atom  158 type  1   force =     0.00002755    0.00006517    0.00000000
     atom  159 type  1   force =     0.00004619    0.00003979    0.00000000
     atom  160 type  1   force =    -0.00000136    0.00003672   -0.00000000
     atom  161 type  1   force =     0.00001763    0.00001936   -0.00000000
     atom  162 type  1   force =     0.00007434    0.00002902    0.00000000
     atom  163 type  1   force =     0.00005720    0.00003992    0.00000000
     atom  164 type  1   force =     0.00008494   -0.00003575   -0.00000000
     atom  165 type  1   force =    -0.00000211    0.00000364   -0.00000000
     atom  166 type  1   force =    -0.00001148   -0.00009144    0.00000000
     atom  167 type  1   force =    -0.00006319   -0.00002960    0.00000000
     atom  168 type  1   force =    -0.00006230   -0.00004984   -0.00000000
     atom  169 type  1   force =    -0.00002558   -0.00000560    0.00000000
     atom  170 type  1   force =    -0.00003113    0.00001956    0.00000000
     atom  171 type  1   force =    -0.00000179    0.00004160    0.00000000
     atom  172 type  1   force =    -0.00002452    0.00009746   -0.00000000
     atom  173 type  1   force =     0.00001720    0.00006128    0.00000000
     atom  174 type  1   force =     0.00000649    0.00009066    0.00000000
     atom  175 type  1   force =    -0.00003489    0.00006044    0.00000000
     atom  176 type  1   force =    -0.00008176    0.00003972    0.00000000
     atom  177 type  1   force =    -0.00006166    0.00001575   -0.00000000
     atom  178 type  1   force =    -0.00007216    0.00006996    0.00000000
     atom  179 type  1   force =    -0.00003512    0.00002236    0.00000000
     atom  180 type  1   force =    -0.00003809    0.00000033   -0.00000000
     atom  181 type  1   force =     0.00002814    0.00002914   -0.00000000
     atom  182 type  1   force =     0.00006965    0.00001676    0.00000000
     atom  183 type  1   force =     0.00003841   -0.00009028   -0.00000000
     atom  184 type  1   force =     0.00007700   -0.00013335   -0.00000000
     atom  185 type  1   force =     0.00005897   -0.00007841   -0.00000000
     atom  186 type  1   force =    -0.00004933   -0.00005194   -0.00000000
     atom  187 type  1   force =    -0.00003930   -0.00000982    0.00000000
     atom  188 type  1   force =     0.00001877    0.00003315   -0.00000000
     atom  189 type  1   force =     0.00004443    0.00004336   -0.00000000
     atom  190 type  1   force =     0.00001281    0.00008015    0.00000000
     atom  191 type  1   force =     0.00002473    0.00007519   -0.00000000
     atom  192 type  1   force =     0.00008329    0.00009465    0.00000000
     atom  193 type  1   force =    -0.00001132    0.00000033    0.00000000
     atom  194 type  1   force =    -0.00001002    0.00001735   -0.00000000
     atom  195 type  1   force =     0.00000539    0.00000997    0.00000000
     atom  196 type  1   force =    -0.00012362   -0.00002482    0.00000000
     atom  197 type  1   force =    -0.00007747    0.00001620    0.00000000
     atom  198 type  1   force =    -0.00007581    0.00002897   -0.00000000
     atom  199 type  1   force =    -0.00005978   -0.00001679    0.00000000

     Total force =     0.000876     Total SCF correction =     0.000001
     Energy error            =      1.3E-06 Ry
     Gradient error          =      1.7E-04 Ry/Bohr

     number of scf cycles    =  14
     number of bfgs steps    =  13

     energy             old  =   -2396.9740031189 Ry
     energy             new  =   -2396.9740044116 Ry

     CASE: energy            _new < energy            _old

     new trust radius        =       0.0003485595 bohr
     new conv_thr            =            1.0E-12 Ry


ATOMIC_POSITIONS (crystal)
C                0.0333395121        0.0333083977       -0.0000000006
C                0.0666775664        0.0666424387       -0.0000000007
C                0.0333056452        0.1333391244       -0.0000000001
C                0.0666588071        0.1666705963        0.0000000005
C                0.0333056448        0.2333552304        0.0000000008
C                0.0666775658        0.2666799950        0.0000000006
C                0.0333395110        0.3333520906        0.0000000006
C                0.0667309581        0.3666697158        0.0000000005
C                0.0333994759        0.4333336627        0.0000000011
C                0.0667984015        0.4666526577        0.0000000009
C                0.0333715743        0.5333182196        0.0000000008
C                0.0666802818        0.5666668309       -0.0000000000
C                0.0333125891        0.6333381619        0.0000000003
C                0.0666544962        0.6666727528       -0.0000000004
C                0.0333125895        0.7333492502        0.0000000004
C                0.0666802842        0.7666528873        0.0000000005
C                0.0333715757        0.8333102062        0.0000000013
C                0.0667984046        0.8665489395        0.0000000010
C                0.0333994778        0.9332668606        0.0000000006
C                0.0667309598        0.9665993249       -0.0000000001
C                0.1333731541        0.0332648675       -0.0000000007
C                0.1666991389        0.0666245425        0.0000000003
C                0.1333532709        0.1333233641        0.0000000008
C                0.1666991386        0.1666763179        0.0000000012
C                0.1333731533        0.2333619781        0.0000000008
C                0.1667486826        0.2667080377        0.0000000007
C                0.1334330955        0.3333814011        0.0000000002
C                0.1668265335        0.3667221731        0.0000000001
C                0.1335266056        0.4333693806        0.0000000003
C                0.1669435537        0.4667062923       -0.0000000005
C                0.1333707347        0.5333548667       -0.0000000010
C                0.1666303417        0.5667149950       -0.0000000018
C                0.1332395063        0.6333802477       -0.0000000018
C                0.1666303432        0.6666546634       -0.0000000021
C                0.1333707376        0.7332743975       -0.0000000006
C                0.1669435590        0.7663501504       -0.0000000001
C                0.1335266092        0.8331040111        0.0000000009
C                0.1668265369        0.8664512905        0.0000000007
C                0.1334330974        0.9331855017       -0.0000000001
C                0.1667486840        0.9665432779       -0.0000000007
C                0.2333817447        0.0332659618        0.0000000005
C                0.2666984893        0.0666507549        0.0000000010
C                0.2333817444        0.1333522926        0.0000000012
C                0.2667192233        0.1667406589        0.0000000007
C                0.2334229083        0.2334175352        0.0000000006
C                0.2667958961        0.2668069892        0.0000000004
C                0.2335188808        0.3334616228        0.0000000001
C                0.2669531116        0.3668204400       -0.0000000001
C                0.2337322397        0.4334443241       -0.0000000004
C                0.2671142157        0.4669234018       -0.0000000006
C                0.2331804577        0.5334640845       -0.0000000016
C                0.2664592195        0.5667703894       -0.0000000024
C                0.2331804604        0.6333554560       -0.0000000027
C                0.2671142233        0.6659623749       -0.0000000024
C                0.2337322465        0.7328234295       -0.0000000010
C                0.2669531166        0.7662264428       -0.0000000000
C                0.2335188845        0.8330194923        0.0000000005
C                0.2667958983        0.8663971117        0.0000000002
C                0.2334229096        0.9331595546       -0.0000000005
C                0.2667192242        0.9665401160       -0.0000000002
C                0.3333678398        0.0333160796        0.0000000006
C                0.3666757946        0.0667289647        0.0000000002
C                0.3333906464        0.1334378330        0.0000000001
C                0.3667171248        0.1668578826       -0.0000000004
C                0.3334507596        0.2335525699        0.0000000000
C                0.3667869648        0.2670201171       -0.0000000000
C                0.3335583599        0.3336182173        0.0000000002
C                0.3670282609        0.3671371256        0.0000000004
C                0.3339827228        0.4335111430        0.0000000000
C                0.3676498748        0.4676301608       -0.0000000012
C                0.3324313315        0.5337843327       -0.0000000026
C                0.3676498911        0.5647199471       -0.0000000020
C                0.3339827340        0.6325061198       -0.0000000025
C                0.3670282660        0.6658346063       -0.0000000015
C                0.3335583649        0.7328234150       -0.0000000005
C                0.3667869666        0.7661929132        0.0000000001
C                0.3334507618        0.8329966667       -0.0000000000
C                0.3667171255        0.8664249901       -0.0000000006
C                0.3333906473        0.9331715189       -0.0000000003
C                0.3666757950        0.9665952396        0.0000000001
C                0.4333364503        0.0334138359        0.0000000002
C                0.4666406026        0.0668468263       -0.0000000002
C                0.4333621856        0.1335923391       -0.0000000009
C                0.4666761053        0.1670573650       -0.0000000010
C                0.4334113717        0.2338729386       -0.0000000004
C                0.4668558573        0.2673328721       -0.0000000003
C                0.4334190685        0.3342563790        0.0000000001
C                0.4674739739        0.3680948592       -0.0000000012
C                0.4326989846        0.4332606238       -0.0000000050
C                0.4326990103        0.5340403563       -0.0000000019
C                0.4674739788        0.5644311590       -0.0000000014
C                0.4334190740        0.6323245439       -0.0000000010
C                0.4668558590        0.6658112674       -0.0000000001
C                0.4334113732        0.7327156863        0.0000000001
C                0.4666761053        0.7662665279        0.0000000001
C                0.4333621863        0.8330454735       -0.0000000003
C                0.4666406025        0.8665125702       -0.0000000001
C                0.4333364506        0.9332497128        0.0000000002
C                0.4666348061        0.9666825968        0.0000000005
C                0.5333028770        0.0334250384        0.0000000000
C                0.5666332891        0.0667648769       -0.0000000003
C                0.5333231432        0.1334794674       -0.0000000010
C                0.5666610218        0.1667744588       -0.0000000006
C                0.5334037386        0.2333638173       -0.0000000010
C                0.5666818048        0.2666827711       -0.0000000009
C                0.5336757921        0.3327210268       -0.0000000010
C                0.5649102486        0.3676685946       -0.0000000017
C                0.5348817445        0.4325591358        0.0000000010
C                0.5649102571        0.4674211617       -0.0000000010
C                0.5336757967        0.5336031837       -0.0000000007
C                0.5666818080        0.5666354268        0.0000000001
C                0.5334037396        0.6332324454        0.0000000005
C                0.5666610220        0.6665645211        0.0000000001
C                0.5333231431        0.7331973897        0.0000000000
C                0.5666332885        0.7666018348        0.0000000003
C                0.5333028771        0.8332720846        0.0000000004
C                0.5666157099        0.8666614786        0.0000000008
C                0.5332979599        0.9333510201        0.0000000009
C                0.5666157100        0.9667228123        0.0000000006
C                0.6333040054        0.0333825707        0.0000000002
C                0.6666283884        0.0667382352        0.0000000005
C                0.6333314543        0.1333439474        0.0000000004
C                0.6666064305        0.1667356719        0.0000000001
C                0.6333069800        0.2333067803       -0.0000000005
C                0.6660434057        0.2671186637       -0.0000000014
C                0.6327036161        0.3339480162       -0.0000000022
C                0.6660499963        0.3669750038       -0.0000000012
C                0.6327036212        0.4333483705       -0.0000000009
C                0.6660434095        0.4668379331       -0.0000000004
C                0.6333069821        0.5333862428       -0.0000000002
C                0.6666064312        0.5666579001       -0.0000000004
C                0.6333314538        0.6333246005       -0.0000000003
C                0.6666283878        0.6666333783        0.0000000003
C                0.6333040049        0.7333134249        0.0000000007
C                0.6666329748        0.7666564946        0.0000000011
C                0.6332923648        0.8333364570        0.0000000010
C                0.6666281088        0.8666859462        0.0000000007
C                0.6332923649        0.9333711792        0.0000000004
C                0.6666329749        0.9667105320        0.0000000003
C                0.7333097430        0.0333713692        0.0000000010
C                0.7666207460        0.0667316176        0.0000000011
C                0.7332460542        0.1334293112        0.0000000007
C                0.7663803029        0.1669445867        0.0000000001
C                0.7328990379        0.2337182686       -0.0000000008
C                0.7663336045        0.2669116571       -0.0000000004
C                0.7329971648        0.3335014191       -0.0000000003
C                0.7663336047        0.3667547403        0.0000000003
C                0.7328990402        0.4333826963       -0.0000000001
C                0.7663803039        0.4666751127       -0.0000000001
C                0.7332460545        0.5333246372       -0.0000000005
C                0.7666207461        0.5666476386       -0.0000000005
C                0.7333097418        0.6333188898       -0.0000000001
C                0.7666410446        0.6666534257        0.0000000004
C                0.7333111519        0.7333330849        0.0000000008
C                0.7666426775        0.7666693884        0.0000000007
C                0.7333085777        0.8333457118        0.0000000007
C                0.7666426777        0.8666879354        0.0000000006
C                0.7333111526        0.9333557640        0.0000000007
C                0.7666410450        0.9667055312        0.0000000010
C                0.8332879171        0.0333995109        0.0000000006
C                0.8665582607        0.0667950315       -0.0000000001
C                0.8331341217        0.1335151325       -0.0000000003
C                0.8665046310        0.1667942455       -0.0000000003
C                0.8331074387        0.2334783159        0.0000000000
C                0.8664788844        0.2667605585        0.0000000006
C                0.8331074386        0.3334142476        0.0000000005
C                0.8665046307        0.3667011251        0.0000000004
C                0.8331341215        0.4333507481        0.0000000002
C                0.8665582604        0.4666467096        0.0000000005
C                0.8332879162        0.5333125741       -0.0000000001
C                0.8666547007        0.5666331690        0.0000000002
C                0.8333184308        0.6333118024        0.0000000002
C                0.8666560711        0.6666525526        0.0000000005
C                0.8333153935        0.7333350721        0.0000000007
C                0.8666504587        0.7666747713        0.0000000011
C                0.8333153936        0.8333495358        0.0000000014
C                0.8666560714        0.8666913776        0.0000000018
C                0.8333184314        0.9333697678        0.0000000015
C                0.8666547012        0.9667121316        0.0000000009
C                0.9332796825        0.0333887288       -0.0000000003
C                0.9666300317        0.0667028978       -0.0000000006
C                0.9332313734        0.1334001822       -0.0000000003
C                0.9665910634        0.1667145937        0.0000000002
C                0.9332252472        0.2333873769        0.0000000008
C                0.9665910631        0.2666943437        0.0000000008
C                0.9332313729        0.3333684455        0.0000000005
C                0.9666300309        0.3666670716        0.0000000007
C                0.9332796817        0.4333315901        0.0000000010
C                0.9666821697        0.4666409223        0.0000000013
C                0.9333361052        0.5333076387        0.0000000010
C                0.9666842337        0.5666359418        0.0000000009
C                0.9333324944        0.6333148878        0.0000000006
C                0.9666558035        0.6666659721        0.0000000010
C                0.9333109270        0.7333445372        0.0000000015
C                0.9666558038        0.7666782257        0.0000000015
C                0.9333324950        0.8333526187        0.0000000017
C                0.9666842346        0.8666798252        0.0000000013
C                0.9333361062        0.9333562565        0.0000000006
C                0.9666821708        0.9666769083        0.0000000003



     Writing config-only to output data dir /home/gregb26/links/scratch/qe_tmp/vacancy_relaxed/series/10x10/nspin1/vac_10x10_relax_nspin1.save/ :
     XML data file
     NEW-OLD atomic charge density approx. for the potential

     negative rho (up, down):  4.262E-08 0.000E+00

     total cpu time spent up to now is     2421.3 secs

     per-process dynamical memory:   459.1 Mb

     Self-consistent Calculation

     iteration #  1     ecut=   100.00 Ry     beta= 0.30
     Davidson diagonalization with overlap
     ethr =  1.00E-06,  avg # of iterations =  2.0

     Threshold (ethr) on eigenvalues was too large:
     Diagonalizing with lowered threshold

     Davidson diagonalization with overlap
     ethr =  3.02E-11,  avg # of iterations =  8.0

     negative rho (up, down):  2.445E-08 0.000E+00

     total cpu time spent up to now is     2455.1 secs

     total energy              =   -2396.97400502 Ry
     estimated scf accuracy    <       0.00000031 Ry

     iteration #  2     ecut=   100.00 Ry     beta= 0.30
     Davidson diagonalization with overlap
     ethr =  3.89E-11,  avg # of iterations =  2.0

     negative rho (up, down):  1.645E-08 0.000E+00

     total cpu time spent up to now is     2464.7 secs

     total energy              =   -2396.97400502 Ry
     estimated scf accuracy    <       0.00000018 Ry

     iteration #  3     ecut=   100.00 Ry     beta= 0.30
     Davidson diagonalization with overlap
     ethr =  2.25E-11,  avg # of iterations =  5.0

     total cpu time spent up to now is     2474.7 secs

     total energy              =   -2396.97400502 Ry
     estimated scf accuracy    <       0.00000016 Ry

     iteration #  4     ecut=   100.00 Ry     beta= 0.30
     Davidson diagonalization with overlap
     ethr =  2.05E-11,  avg # of iterations =  3.0

     total cpu time spent up to now is     2484.1 secs

     total energy              =   -2396.97400504 Ry
     estimated scf accuracy    <       0.00000002 Ry

     iteration #  5     ecut=   100.00 Ry     beta= 0.30
     Davidson diagonalization with overlap
     ethr =  2.05E-12,  avg # of iterations =  5.0

     total cpu time spent up to now is     2494.9 secs

     total energy              =   -2396.97400504 Ry
     estimated scf accuracy    <          4.3E-09 Ry

     iteration #  6     ecut=   100.00 Ry     beta= 0.30
     Davidson diagonalization with overlap
     ethr =  5.39E-13,  avg # of iterations =  5.0

     total cpu time spent up to now is     2505.7 secs

     total energy              =   -2396.97400504 Ry
     estimated scf accuracy    <          7.5E-10 Ry

     iteration #  7     ecut=   100.00 Ry     beta= 0.30
     Davidson diagonalization with overlap
     ethr =  1.00E-13,  avg # of iterations =  5.0

     total cpu time spent up to now is     2518.8 secs

     total energy              =   -2396.97400504 Ry
     estimated scf accuracy    <          1.3E-10 Ry

     iteration #  8     ecut=   100.00 Ry     beta= 0.30
     Davidson diagonalization with overlap
     ethr =  1.00E-13,  avg # of iterations =  1.0

     total cpu time spent up to now is     2528.2 secs

     total energy              =   -2396.97400504 Ry
     estimated scf accuracy    <          4.3E-11 Ry

     iteration #  9     ecut=   100.00 Ry     beta= 0.30
     Davidson diagonalization with overlap
     ethr =  1.00E-13,  avg # of iterations =  1.0

     total cpu time spent up to now is     2537.2 secs

     total energy              =   -2396.97400504 Ry
     estimated scf accuracy    <          1.6E-11 Ry

     iteration # 10     ecut=   100.00 Ry     beta= 0.30
     Davidson diagonalization with overlap
     ethr =  1.00E-13,  avg # of iterations =  1.0

     total cpu time spent up to now is     2546.1 secs

     total energy              =   -2396.97400504 Ry
     estimated scf accuracy    <          1.8E-12 Ry

     iteration # 11     ecut=   100.00 Ry     beta= 0.30
     Davidson diagonalization with overlap
     ethr =  1.00E-13,  avg # of iterations =  1.0

     total cpu time spent up to now is     2554.8 secs

     End of self-consistent calculation

          k = 0.0000 0.0000 0.0000 (476289 PWs)   bands (ev):

   -23.7948 -23.5885 -23.5828 -23.5556 -23.5470 -23.5457 -23.5412 -23.1302
   -23.1245 -23.0937 -23.0935 -23.0823 -23.0381 -22.8792 -22.8768 -22.8614
   -22.8602 -22.8546 -22.7795 -22.2214 -22.2150 -22.1969 -22.1968 -22.1755
   -22.1579 -22.1498 -22.1489 -22.1436 -22.1429 -22.1420 -21.9997 -21.7153
   -21.7151 -21.7125 -21.7078 -21.7073 -21.5747 -21.0493 -21.0488 -21.0290
   -21.0243 -21.0224 -20.9440 -20.8244 -20.8243 -20.8154 -20.7996 -20.7972
   -20.7927 -20.7888 -20.7885 -20.7832 -20.7816 -20.7803 -20.5141 -20.1420
   -20.1410 -20.1400 -20.1162 -20.1152 -19.9800 -19.5316 -19.5311 -19.5110
   -19.4700 -19.4680 -19.4580 -19.4549 -19.4534 -19.4533 -19.4500 -19.4488
   -19.2878 -19.1070 -19.1056 -19.0860 -19.0592 -19.0559 -19.0541 -19.0528
   -19.0525 -19.0504 -19.0377 -19.0364 -18.7085 -18.5703 -18.5689 -18.4069
   -17.9972 -17.9776 -17.9765 -17.9537 -17.9535 -17.8812 -17.8507 -17.8472
   -17.8471 -17.8250 -17.8249 -17.6541 -17.5062 -17.5054 -17.3187 -16.9940
   -16.9938 -16.9892 -16.9342 -16.9335 -16.8569 -16.6853 -16.6817 -16.6807
   -16.6562 -16.6559 -16.6550 -16.6355 -16.6336 -16.6333 -16.5617 -16.5598
   -16.3704 -16.2042 -16.1418 -16.1394 -16.1280 -16.1273 -15.8508 -15.6486
   -15.6422 -15.6408 -15.5731 -15.5729 -15.4616 -15.2716 -15.2480 -15.2462
   -15.2432 -15.2424 -15.2303 -15.2215 -15.2214 -15.2210 -15.1344 -15.1336
   -14.6437 -14.4822 -14.4815 -14.4578 -14.4483 -14.4434 -14.4432 -14.3228
   -14.3107 -14.3085 -14.2721 -14.2651 -14.2642 -14.2636 -14.2636 -14.2616
   -14.1184 -14.1177 -13.6467 -13.2664 -13.2632 -13.2559 -13.2341 -13.2338
   -13.1760 -13.1712 -13.1428 -13.1426 -13.1039 -13.1021 -13.0981 -13.0796
   -13.0590 -13.0579 -12.9857 -12.9848 -12.9004 -12.8917 -12.8455 -12.8447
   -12.8306 -12.8305 -12.8242 -12.8168 -12.8165 -12.8135 -12.6120 -12.6113
   -12.2034 -11.8754 -11.8541 -11.8489 -11.8370 -11.8363 -11.7793 -11.7789
   -11.7683 -11.7668 -11.7562 -11.7430 -11.7421 -11.7417 -11.7367 -11.7364
   -11.7362 -11.6328 -11.6316 -11.6192 -11.6150 -11.5886 -11.5875 -11.5841
   -11.5748 -11.5141 -11.4647 -11.4207 -11.4200 -11.3801 -11.3773 -11.3755
   -11.3746 -11.3744 -11.3683 -11.2242 -11.2225 -11.0680 -11.0640 -11.0411
   -11.0410 -11.0341 -11.0091 -10.9939 -10.9811 -10.9569 -10.9537 -10.9214
   -10.9208 -10.9173 -10.9126 -10.9118 -10.8948 -10.7838 -10.7831 -10.7816
   -10.7800 -10.7666 -10.7655 -10.7622 -10.7298 -10.6789 -10.6693 -10.6693
   -10.6367 -10.5161 -10.5125 -10.5108 -10.4767 -10.4753 -10.4727 -10.4484
   -10.4299 -10.4295 -10.2576 -10.2552 -10.0839 -10.0838 -10.0401 -10.0390
    -9.9999  -9.9956  -9.9954  -9.9943  -9.9927  -9.9865  -9.9862  -9.9747
    -9.9740  -9.9717  -9.9588  -9.9454  -9.9393  -9.9386  -9.9350  -9.9337
    -9.9330  -9.8610  -9.8594  -9.8308  -9.8258  -9.8244  -9.7969  -9.7844
    -9.7752  -9.6998  -9.6982  -9.6080  -9.6079  -9.5819  -9.4400  -9.4384
    -9.4325  -9.4294  -9.4283  -9.3033  -9.1719  -9.1715  -8.8804  -8.8536
    -8.8526  -8.8199  -8.8022  -8.7670  -8.7663  -8.7526  -8.7518  -8.7470
    -8.6577  -8.6554  -8.6514  -8.6512  -8.6416  -8.5884  -8.5695  -8.4357
    -8.4334  -8.4284  -8.4271  -8.4221  -8.4208  -8.4200  -8.4047  -8.4022
    -8.4018  -8.3993  -8.3969  -8.3959  -8.2425  -8.2420  -8.2292  -8.1508
    -7.9430  -7.9413  -7.9166  -7.8135  -7.8062  -7.8051  -7.7778  -7.7568
    -7.7567  -7.7507  -7.7467  -7.7462  -7.6023  -7.3730  -7.3720  -7.0159
    -7.0137  -6.9976  -6.9973  -6.9903  -6.9590  -6.9559  -6.9559  -6.9543
    -6.9523  -6.9521  -6.8790  -6.8101  -6.8098  -6.7692  -6.7664  -6.7659
    -6.7653  -6.7646  -6.7634  -6.7560  -6.7555  -6.7549  -6.6341  -6.6225
    -6.6213  -6.1345  -5.7820  -5.7818  -5.7690  -5.7583  -5.7583  -5.5110
    -5.2967  -5.2920  -5.2918  -5.2801  -5.2800  -4.6941  -4.4504  -4.3843
    -3.2928  -3.2395  -3.2384  -3.2292  -3.2291  -3.1515  -2.9716  -2.9667
    -2.9661  -2.9371  -2.9369  -2.7945  -2.5659  -2.5653  -2.4880  -2.2177
    -2.2173  -2.2134  -2.2008  -2.2005  -2.1796  -2.1751  -2.1747  -2.1737
    -2.1538  -2.1533  -1.9066  -1.6256

     the Fermi energy is    -4.5813 ev

!    total energy              =   -2396.97400504 Ry
     estimated scf accuracy    <          4.4E-13 Ry
     smearing contrib. (-TS)   =      -0.00003099 Ry
     internal energy E=F+TS    =   -2396.97397405 Ry

     The total energy is F=E-TS. E is the sum of the following terms:
     one-electron contribution =  -27163.24420233 Ry
     hartree contribution      =   13655.59059925 Ry
     xc contribution           =    -852.88881593 Ry
     ewald contribution        =   11963.56844496 Ry

     convergence has been achieved in  11 iterations

     Forces acting on atoms (cartesian axes, Ry/au):

     atom    1 type  1   force =    -0.00003892   -0.00002496   -0.00000000
     atom    2 type  1   force =    -0.00004135   -0.00002210    0.00000000
     atom    3 type  1   force =     0.00004588   -0.00001461    0.00000000
     atom    4 type  1   force =     0.00000674   -0.00001168   -0.00000000
     atom    5 type  1   force =    -0.00001028   -0.00004704   -0.00000000
     atom    6 type  1   force =     0.00003981    0.00002477    0.00000000
     atom    7 type  1   force =     0.00004108    0.00002122    0.00000000
     atom    8 type  1   force =     0.00004374   -0.00000878    0.00000000
     atom    9 type  1   force =     0.00003446    0.00001276    0.00000000
     atom   10 type  1   force =     0.00003369   -0.00000516   -0.00000000
     atom   11 type  1   force =     0.00004868    0.00002337   -0.00000000
     atom   12 type  1   force =     0.00004316   -0.00001431    0.00000000
     atom   13 type  1   force =     0.00000920   -0.00000175   -0.00000000
     atom   14 type  1   force =    -0.00002674    0.00004629    0.00000000
     atom   15 type  1   force =    -0.00000305   -0.00000885    0.00000000
     atom   16 type  1   force =    -0.00000921   -0.00004451   -0.00000000
     atom   17 type  1   force =    -0.00004457   -0.00003049   -0.00000000
     atom   18 type  1   force =    -0.00001239   -0.00003175    0.00000000
     atom   19 type  1   force =    -0.00002829   -0.00002347    0.00000000
     atom   20 type  1   force =    -0.00001426   -0.00004227   -0.00000000
     atom   21 type  1   force =     0.00002223   -0.00003605    0.00000000
     atom   22 type  1   force =    -0.00000985   -0.00004732   -0.00000000
     atom   23 type  1   force =     0.00001657   -0.00002868   -0.00000000
     atom   24 type  1   force =     0.00004590   -0.00001512   -0.00000000
     atom   25 type  1   force =     0.00002009   -0.00003728    0.00000000
     atom   26 type  1   force =     0.00002649   -0.00003360   -0.00000000
     atom   27 type  1   force =     0.00003385   -0.00002458    0.00000000
     atom   28 type  1   force =     0.00000099   -0.00006955    0.00000000
     atom   29 type  1   force =    -0.00000101   -0.00000921   -0.00000000
     atom   30 type  1   force =    -0.00003437   -0.00001580    0.00000000
     atom   31 type  1   force =     0.00004925    0.00000914    0.00000000
     atom   32 type  1   force =    -0.00002353   -0.00000055    0.00000000
     atom   33 type  1   force =    -0.00000352    0.00000610    0.00000000
     atom   34 type  1   force =     0.00001224    0.00002006    0.00000000
     atom   35 type  1   force =    -0.00003253   -0.00003806   -0.00000000
     atom   36 type  1   force =     0.00003086    0.00002187   -0.00000000
     atom   37 type  1   force =     0.00000848   -0.00000375   -0.00000000
     atom   38 type  1   force =     0.00005974   -0.00003562   -0.00000000
     atom   39 type  1   force =     0.00000436   -0.00004163    0.00000000
     atom   40 type  1   force =     0.00001586   -0.00003973   -0.00000000
     atom   41 type  1   force =    -0.00001998   -0.00001088   -0.00000000
     atom   42 type  1   force =     0.00003244   -0.00005619   -0.00000000
     atom   43 type  1   force =     0.00001941    0.00001187   -0.00000000
     atom   44 type  1   force =     0.00002560    0.00002559   -0.00000000
     atom   45 type  1   force =    -0.00002391   -0.00000265   -0.00000000
     atom   46 type  1   force =    -0.00009183   -0.00000736   -0.00000000
     atom   47 type  1   force =    -0.00000498   -0.00001063   -0.00000000
     atom   48 type  1   force =    -0.00001547   -0.00002736   -0.00000000
     atom   49 type  1   force =    -0.00001671    0.00000879    0.00000000
     atom   50 type  1   force =    -0.00002290    0.00000857    0.00000000
     atom   51 type  1   force =     0.00002361   -0.00000949   -0.00000000
     atom   52 type  1   force =     0.00000354   -0.00000607   -0.00000000
     atom   53 type  1   force =    -0.00000362   -0.00002519   -0.00000000
     atom   54 type  1   force =     0.00000403    0.00002406   -0.00000000
     atom   55 type  1   force =     0.00000074    0.00001890    0.00000000
     atom   56 type  1   force =     0.00003143   -0.00000028   -0.00000000
     atom   57 type  1   force =     0.00001169   -0.00000101    0.00000000
     atom   58 type  1   force =     0.00005229    0.00007585   -0.00000000
     atom   59 type  1   force =     0.00001423    0.00001936    0.00000000
     atom   60 type  1   force =    -0.00003495   -0.00000937    0.00000000
     atom   61 type  1   force =     0.00003299   -0.00005714   -0.00000000
     atom   62 type  1   force =     0.00004068    0.00001019    0.00000000
     atom   63 type  1   force =     0.00004206    0.00003290    0.00000000
     atom   64 type  1   force =     0.00000083    0.00006875    0.00000000
     atom   65 type  1   force =    -0.00001095    0.00001555   -0.00000000
     atom   66 type  1   force =    -0.00001515    0.00001697   -0.00000000
     atom   67 type  1   force =    -0.00001615   -0.00000360   -0.00000000
     atom   68 type  1   force =    -0.00001865    0.00000476   -0.00000000
     atom   69 type  1   force =    -0.00000918   -0.00002597   -0.00000000
     atom   70 type  1   force =     0.00005778   -0.00000519   -0.00000000
     atom   71 type  1   force =     0.00000680   -0.00001170    0.00000000
     atom   72 type  1   force =    -0.00002444   -0.00005266   -0.00000000
     atom   73 type  1   force =     0.00002712   -0.00000504    0.00000000
     atom   74 type  1   force =     0.00000517    0.00001844    0.00000000
     atom   75 type  1   force =     0.00001121    0.00001223    0.00000000
     atom   76 type  1   force =    -0.00000707    0.00002160   -0.00000000
     atom   77 type  1   force =    -0.00000802    0.00001726   -0.00000000
     atom   78 type  1   force =    -0.00005993    0.00003366    0.00000001
     atom   79 type  1   force =    -0.00004954   -0.00001998    0.00000000
     atom   80 type  1   force =    -0.00002917   -0.00003014    0.00000000
     atom   81 type  1   force =     0.00002459   -0.00000431   -0.00000000
     atom   82 type  1   force =     0.00001686    0.00001617   -0.00000000
     atom   83 type  1   force =    -0.00001675    0.00002024    0.00000000
     atom   84 type  1   force =    -0.00004188    0.00001275   -0.00000000
     atom   85 type  1   force =    -0.00001269   -0.00000005   -0.00000000
     atom   86 type  1   force =    -0.00002420    0.00001394   -0.00000000
     atom   87 type  1   force =    -0.00000305    0.00002649   -0.00000000
     atom   88 type  1   force =     0.00009789    0.00004487   -0.00000000
     atom   89 type  1   force =     0.00000839    0.00001022   -0.00000001
     atom   90 type  1   force =    -0.00001300   -0.00000212    0.00000000
     atom   91 type  1   force =    -0.00008780   -0.00006238   -0.00000001
     atom   92 type  1   force =    -0.00002143    0.00001592    0.00000000
     atom   93 type  1   force =     0.00000001    0.00002790    0.00000000
     atom   94 type  1   force =     0.00000637    0.00001097   -0.00000000
     atom   95 type  1   force =     0.00000992    0.00004264    0.00000000
     atom   96 type  1   force =    -0.00000917    0.00002463    0.00000000
     atom   97 type  1   force =    -0.00002243   -0.00000653    0.00000000
     atom   98 type  1   force =    -0.00000856   -0.00002345   -0.00000000
     atom   99 type  1   force =     0.00002002   -0.00003469   -0.00000000
     atom  100 type  1   force =     0.00005389    0.00002355   -0.00000000
     atom  101 type  1   force =     0.00004857    0.00002866    0.00000000
     atom  102 type  1   force =     0.00003818    0.00001492    0.00000000
     atom  103 type  1   force =    -0.00002028    0.00001511   -0.00000000
     atom  104 type  1   force =     0.00003013    0.00001916    0.00000000
     atom  105 type  1   force =     0.00000137    0.00002251    0.00000000
     atom  106 type  1   force =     0.00001792    0.00002532   -0.00000001
     atom  107 type  1   force =    -0.00001086    0.00004529    0.00000000
     atom  108 type  1   force =     0.00002521   -0.00004354    0.00000001
     atom  109 type  1   force =    -0.00003381    0.00003204   -0.00000000
     atom  110 type  1   force =    -0.00003088   -0.00000284    0.00000000
     atom  111 type  1   force =    -0.00002021    0.00001010    0.00000000
     atom  112 type  1   force =    -0.00003166   -0.00001652   -0.00000001
     atom  113 type  1   force =    -0.00000296    0.00002511    0.00000000
     atom  114 type  1   force =    -0.00003200   -0.00002559    0.00000000
     atom  115 type  1   force =    -0.00004910   -0.00002775    0.00000000
     atom  116 type  1   force =    -0.00004732   -0.00003487   -0.00000000
     atom  117 type  1   force =    -0.00002003   -0.00004909    0.00000000
     atom  118 type  1   force =     0.00003190   -0.00005522   -0.00000000
     atom  119 type  1   force =     0.00005251   -0.00000722    0.00000000
     atom  120 type  1   force =     0.00001603    0.00004068   -0.00000000
     atom  121 type  1   force =    -0.00001578   -0.00003138    0.00000000
     atom  122 type  1   force =     0.00000801    0.00001826   -0.00000000
     atom  123 type  1   force =     0.00002018   -0.00001354    0.00000000
     atom  124 type  1   force =     0.00001047    0.00002889   -0.00000001
     atom  125 type  1   force =     0.00001378   -0.00002606    0.00000000
     atom  126 type  1   force =     0.00003577   -0.00001157    0.00000000
     atom  127 type  1   force =     0.00002030   -0.00003517    0.00000000
     atom  128 type  1   force =    -0.00000785   -0.00003674   -0.00000000
     atom  129 type  1   force =     0.00001570   -0.00002493   -0.00000000
     atom  130 type  1   force =    -0.00003029    0.00000535    0.00000000
     atom  131 type  1   force =     0.00000165   -0.00002424   -0.00000000
     atom  132 type  1   force =    -0.00001981    0.00000218    0.00000000
     atom  133 type  1   force =     0.00003506   -0.00000202   -0.00000000
     atom  134 type  1   force =    -0.00004321    0.00000648    0.00000000
     atom  135 type  1   force =    -0.00006439   -0.00002672   -0.00000000
     atom  136 type  1   force =    -0.00001542   -0.00000373   -0.00000000
     atom  137 type  1   force =     0.00000014   -0.00000024    0.00000000
     atom  138 type  1   force =     0.00001095    0.00001149    0.00000000
     atom  139 type  1   force =     0.00005532    0.00004237    0.00000000
     atom  140 type  1   force =     0.00002415    0.00004590   -0.00000000
     atom  141 type  1   force =     0.00002107    0.00004654    0.00000000
     atom  142 type  1   force =    -0.00000490    0.00004270   -0.00000000
     atom  143 type  1   force =     0.00004709   -0.00002686   -0.00000000
     atom  144 type  1   force =     0.00002606   -0.00001248    0.00000000
     atom  145 type  1   force =     0.00003624   -0.00002114   -0.00000000
     atom  146 type  1   force =     0.00001602   -0.00002779   -0.00000000
     atom  147 type  1   force =     0.00000023   -0.00004194   -0.00000000
     atom  148 type  1   force =    -0.00000227   -0.00002882   -0.00000000
     atom  149 type  1   force =    -0.00000026   -0.00005419    0.00000000
     atom  150 type  1   force =    -0.00003454    0.00002558    0.00000000
     atom  151 type  1   force =    -0.00005085    0.00000504    0.00000000
     atom  152 type  1   force =    -0.00005178    0.00000202    0.00000000
     atom  153 type  1   force =    -0.00006360    0.00003134   -0.00000000
     atom  154 type  1   force =    -0.00005930    0.00001218   -0.00000000
     atom  155 type  1   force =    -0.00006917    0.00002122    0.00000000
     atom  156 type  1   force =    -0.00000897    0.00001554   -0.00000000
     atom  157 type  1   force =     0.00001620    0.00007051    0.00000000
     atom  158 type  1   force =     0.00001912    0.00005747   -0.00000000
     atom  159 type  1   force =     0.00000465    0.00007071    0.00000000
     atom  160 type  1   force =     0.00000562    0.00005508    0.00000000
     atom  161 type  1   force =     0.00003197    0.00001405    0.00000000
     atom  162 type  1   force =     0.00004851    0.00000362    0.00000000
     atom  163 type  1   force =     0.00008839    0.00000865   -0.00000000
     atom  164 type  1   force =     0.00003212   -0.00002110    0.00000000
     atom  165 type  1   force =     0.00005816   -0.00010070   -0.00000000
     atom  166 type  1   force =     0.00000218   -0.00003839   -0.00000000
     atom  167 type  1   force =    -0.00005166   -0.00007221    0.00000000
     atom  168 type  1   force =    -0.00002739   -0.00004024    0.00000000
     atom  169 type  1   force =    -0.00002815   -0.00002065   -0.00000000
     atom  170 type  1   force =    -0.00005049    0.00002265    0.00000000
     atom  171 type  1   force =    -0.00001698    0.00006844    0.00000000
     atom  172 type  1   force =    -0.00001739    0.00003249    0.00000000
     atom  173 type  1   force =    -0.00000765    0.00006558    0.00000000
     atom  174 type  1   force =    -0.00000634    0.00004681   -0.00000000
     atom  175 type  1   force =     0.00000022   -0.00000038    0.00000000
     atom  176 type  1   force =    -0.00003737    0.00002889   -0.00000000
     atom  177 type  1   force =    -0.00005297    0.00003940   -0.00000000
     atom  178 type  1   force =    -0.00001943    0.00003132   -0.00000000
     atom  179 type  1   force =    -0.00005078    0.00004891    0.00000000
     atom  180 type  1   force =     0.00000462    0.00000856    0.00000000
     atom  181 type  1   force =     0.00001410    0.00001100    0.00000000
     atom  182 type  1   force =     0.00004113    0.00002349    0.00000000
     atom  183 type  1   force =     0.00004736   -0.00000416   -0.00000000
     atom  184 type  1   force =     0.00002551   -0.00004420   -0.00000000
     atom  185 type  1   force =    -0.00002006   -0.00004309    0.00000000
     atom  186 type  1   force =    -0.00004092   -0.00002388    0.00000000
     atom  187 type  1   force =    -0.00001658   -0.00000670    0.00000000
     atom  188 type  1   force =    -0.00000973    0.00000027    0.00000000
     atom  189 type  1   force =     0.00002423    0.00005564   -0.00000000
     atom  190 type  1   force =     0.00004218    0.00007777   -0.00000000
     atom  191 type  1   force =     0.00005036    0.00005794   -0.00000000
     atom  192 type  1   force =     0.00001302    0.00003871    0.00000000
     atom  193 type  1   force =     0.00005010   -0.00000580   -0.00000000
     atom  194 type  1   force =     0.00000233   -0.00000404   -0.00000000
     atom  195 type  1   force =    -0.00002003   -0.00004629   -0.00000000
     atom  196 type  1   force =    -0.00004003    0.00000809    0.00000000
     atom  197 type  1   force =    -0.00007536   -0.00001466   -0.00000000
     atom  198 type  1   force =    -0.00008843    0.00000237    0.00000000
     atom  199 type  1   force =    -0.00006029    0.00000683    0.00000000

     Total force =     0.000649     Total SCF correction =     0.000001
     Energy error            =      6.3E-07 Ry
     Gradient error          =      1.0E-04 Ry/Bohr

     number of scf cycles    =  15
     number of bfgs steps    =  14

     energy             old  =   -2396.9740044116 Ry
     energy             new  =   -2396.9740050371 Ry

     CASE: energy            _new < energy            _old

     new trust radius        =       0.0003344467 bohr
     new conv_thr            =            1.0E-12 Ry


ATOMIC_POSITIONS (crystal)
C                0.0333408334        0.0333071741       -0.0000000006
C                0.0666798153        0.0666410359       -0.0000000005
C                0.0333106117        0.1333379512        0.0000000000
C                0.0666639418        0.1666680289        0.0000000005
C                0.0333106114        0.2333514373        0.0000000007
C                0.0666798146        0.2666791490        0.0000000007
C                0.0333408324        0.3333519928        0.0000000006
C                0.0667312105        0.3666715745        0.0000000007
C                0.0333989219        0.4333370165        0.0000000010
C                0.0667981680        0.4666560085        0.0000000009
C                0.0333701541        0.5333225441        0.0000000008
C                0.0666820707        0.5666678324       -0.0000000000
C                0.0333133482        0.6333388659        0.0000000002
C                0.0666550732        0.6666724641       -0.0000000003
C                0.0333133489        0.7333477875        0.0000000004
C                0.0666820729        0.7666500969        0.0000000005
C                0.0333701562        0.8333073015        0.0000000012
C                0.0667981709        0.8665458221        0.0000000010
C                0.0333989240        0.9332640604        0.0000000006
C                0.0667312124        0.9665972138       -0.0000000001
C                0.1333753891        0.0332647281       -0.0000000006
C                0.1667007346        0.0666242847        0.0000000002
C                0.1333565274        0.1333217360        0.0000000007
C                0.1667007343        0.1666749802        0.0000000011
C                0.1333753883        0.2333598824        0.0000000008
C                0.1667485782        0.2667080297        0.0000000007
C                0.1334337957        0.3333826736        0.0000000003
C                0.1668282714        0.3667222086        0.0000000000
C                0.1335272671        0.4333711918        0.0000000002
C                0.1669450721        0.4667062479       -0.0000000005
C                0.1333727786        0.5333555891       -0.0000000008
C                0.1666327145        0.5667141863       -0.0000000017
C                0.1332419285        0.6333790362       -0.0000000016
C                0.1666327162        0.6666530985       -0.0000000020
C                0.1333727811        0.7332716318       -0.0000000006
C                0.1669450772        0.7663486760       -0.0000000001
C                0.1335272711        0.8331015379        0.0000000008
C                0.1668282747        0.8664495172        0.0000000006
C                0.1334337980        0.9331835284       -0.0000000001
C                0.1667485796        0.9665433906       -0.0000000006
C                0.2333817750        0.0332662752        0.0000000004
C                0.2666999117        0.0666500437        0.0000000009
C                0.2333817746        0.1333519490        0.0000000011
C                0.2667194491        0.1667397442        0.0000000007
C                0.2334218073        0.2334160212        0.0000000004
C                0.2667944833        0.2668055288        0.0000000002
C                0.2335194803        0.3334611956        0.0000000002
C                0.2669541240        0.3668195628       -0.0000000001
C                0.2337334909        0.4334432414       -0.0000000004
C                0.2671154060        0.4669228528       -0.0000000005
C                0.2331827452        0.5334636875       -0.0000000015
C                0.2664626335        0.5667686826       -0.0000000025
C                0.2331827473        0.6333535651       -0.0000000027
C                0.2671154139        0.6659617325       -0.0000000024
C                0.2337334966        0.7328232619       -0.0000000010
C                0.2669541285        0.7662263078       -0.0000000002
C                0.2335194841        0.8330193193        0.0000000005
C                0.2667944858        0.8663999846        0.0000000001
C                0.2334218089        0.9331621690       -0.0000000005
C                0.2667194500        0.9665408051       -0.0000000001
C                0.3333694707        0.0333152641        0.0000000006
C                0.3666771223        0.0667292735        0.0000000003
C                0.3333913256        0.1334387905        0.0000000001
C                0.3667162226        0.1668600051       -0.0000000003
C                0.3334496706        0.2335533126       -0.0000000000
C                0.3667861089        0.2670206018       -0.0000000001
C                0.3335588519        0.3336180970       -0.0000000001
C                0.3670284278        0.3671369164        0.0000000002
C                0.3339840788        0.4335111250       -0.0000000001
C                0.3676519617        0.4676296320       -0.0000000013
C                0.3324334765        0.5337832613       -0.0000000028
C                0.3676519781        0.5647183877       -0.0000000018
C                0.3339840903        0.6325047823       -0.0000000024
C                0.3670284337        0.6658346473       -0.0000000013
C                0.3335588558        0.7328230451       -0.0000000005
C                0.3667861113        0.7661932848       -0.0000000000
C                0.3334496725        0.8329970125       -0.0000000001
C                0.3667162235        0.8664237697       -0.0000000002
C                0.3333913263        0.9331698818       -0.0000000002
C                0.3666771227        0.9665936029        0.0000000000
C                0.4333384201        0.0334138892        0.0000000002
C                0.4666417042        0.0668478178       -0.0000000003
C                0.4333622693        0.1335936763       -0.0000000008
C                0.4666755728        0.1670583891       -0.0000000009
C                0.4334099899        0.2338738197       -0.0000000004
C                0.4668545659        0.2673343089       -0.0000000003
C                0.4334189786        0.3342579521       -0.0000000000
C                0.4674727678        0.3680995147       -0.0000000014
C                0.4327016489        0.4332660879       -0.0000000057
C                0.4327016749        0.5340322280       -0.0000000017
C                0.4674727735        0.5644277087       -0.0000000017
C                0.4334189839        0.6323230608       -0.0000000011
C                0.4668545687        0.6658111212       -0.0000000001
C                0.4334099912        0.7327161875        0.0000000000
C                0.4666755732        0.7662660368        0.0000000001
C                0.4333622696        0.8330440527       -0.0000000002
C                0.4666417045        0.8665104768       -0.0000000002
C                0.4333384204        0.9332476897        0.0000000002
C                0.4666367122        0.9666816435        0.0000000003
C                0.5333040932        0.0334264291        0.0000000000
C                0.5666328549        0.0667680387       -0.0000000003
C                0.5333227714        0.1334820837       -0.0000000010
C                0.5666597694        0.1667770180       -0.0000000005
C                0.5334029083        0.2333661151       -0.0000000008
C                0.5666795127        0.2666865383       -0.0000000008
C                0.5336739055        0.3327243873       -0.0000000010
C                0.5649093332        0.3676703658       -0.0000000013
C                0.5348791216        0.4325604485        0.0000000017
C                0.5649093420        0.4674203056       -0.0000000012
C                0.5336739093        0.5336017104       -0.0000000010
C                0.5666795155        0.5666339515        0.0000000001
C                0.5334029098        0.6332309776        0.0000000004
C                0.5666597703        0.6665632138        0.0000000000
C                0.5333227714        0.7331951460        0.0000000002
C                0.5666328546        0.7665991069        0.0000000003
C                0.5333040931        0.8332694780        0.0000000004
C                0.5666169446        0.8666600139        0.0000000009
C                0.5332999430        0.9333500288        0.0000000007
C                0.5666169447        0.9667230416        0.0000000006
C                0.6333026987        0.0333858091        0.0000000003
C                0.6666276014        0.0667404891        0.0000000006
C                0.6333299712        0.1333475105        0.0000000002
C                0.6666053711        0.1667385317        0.0000000002
C                0.6333051248        0.2333094570       -0.0000000006
C                0.6660429456        0.2671201853       -0.0000000012
C                0.6327032683        0.3339488775       -0.0000000020
C                0.6660507837        0.3669746098       -0.0000000012
C                0.6327032728        0.4333478581       -0.0000000010
C                0.6660429492        0.4668368719       -0.0000000005
C                0.6333051271        0.5333854205       -0.0000000001
C                0.6666053722        0.5666561000       -0.0000000003
C                0.6333299715        0.6333225204       -0.0000000004
C                0.6666276012        0.6666319115        0.0000000003
C                0.6333026983        0.7333114937        0.0000000006
C                0.6666315801        0.7666547079        0.0000000009
C                0.6332924725        0.8333355472        0.0000000010
C                0.6666277382        0.8666861314        0.0000000007
C                0.6332924727        0.9333719816        0.0000000005
C                0.6666315805        0.9667137128        0.0000000003
C                0.7333079227        0.0333754505        0.0000000010
C                0.7666189861        0.0667357128        0.0000000010
C                0.7332442450        0.1334330873        0.0000000004
C                0.7663806642        0.1669468175        0.0000000002
C                0.7328994323        0.2337201840       -0.0000000008
C                0.7663345943        0.2669122517       -0.0000000005
C                0.7329974378        0.3335012821       -0.0000000004
C                0.7663345951        0.3667531561        0.0000000001
C                0.7328994346        0.4333803855       -0.0000000002
C                0.7663806654        0.4666725210        0.0000000001
C                0.7332442458        0.5333226699       -0.0000000003
C                0.7666189859        0.5666453036       -0.0000000005
C                0.7333079222        0.6333166292       -0.0000000001
C                0.7666381178        0.6666528109        0.0000000004
C                0.7333087371        0.7333325568        0.0000000007
C                0.7666391193        0.7666702749        0.0000000007
C                0.7333068866        0.8333465574        0.0000000008
C                0.7666391195        0.8666906071        0.0000000007
C                0.7333087375        0.9333587074        0.0000000007
C                0.7666381186        0.9667090722        0.0000000011
C                0.8332860930        0.0334013990        0.0000000007
C                0.8665578208        0.0667964255       -0.0000000001
C                0.8331341906        0.1335173110       -0.0000000001
C                0.8665060373        0.1667962952       -0.0000000003
C                0.8331089854        0.2334788703        0.0000000001
C                0.8664838876        0.2667580571        0.0000000005
C                0.8331089856        0.3334121455        0.0000000006
C                0.8665060369        0.3666976696        0.0000000006
C                0.8331341912        0.4333485001        0.0000000001
C                0.8665578204        0.4666457557        0.0000000005
C                0.8332860929        0.5333125099        0.0000000000
C                0.8666517213        0.5666356780        0.0000000003
C                0.8333156552        0.6333138893        0.0000000002
C                0.8666520554        0.6666565442        0.0000000006
C                0.8333111913        0.7333383610        0.0000000008
C                0.8666472830        0.7666763592        0.0000000012
C                0.8333111914        0.8333504492        0.0000000014
C                0.8666520558        0.8666914016        0.0000000017
C                0.8333156557        0.9333704569        0.0000000014
C                0.8666517222        0.9667126016        0.0000000010
C                0.9332793992        0.0333884961       -0.0000000003
C                0.9666307698        0.0667029569       -0.0000000006
C                0.9332329345        0.1334009725       -0.0000000002
C                0.9665960264        0.1667126996        0.0000000001
C                0.9332309061        0.2333845473        0.0000000007
C                0.9665960262        0.2666912751        0.0000000008
C                0.9332329342        0.3333660940        0.0000000006
C                0.9666307690        0.3666662745        0.0000000007
C                0.9332793986        0.4333321060        0.0000000009
C                0.9666805596        0.4666441393        0.0000000012
C                0.9333334457        0.5333117383        0.0000000010
C                0.9666812631        0.5666408089        0.0000000008
C                0.9333294887        0.6333191150        0.0000000008
C                0.9666556890        0.6666677504        0.0000000011
C                0.9333085748        0.7333457133        0.0000000014
C                0.9666556893        0.7666765620        0.0000000016
C                0.9333294892        0.8333513976        0.0000000018
C                0.9666812642        0.8666779285        0.0000000013
C                0.9333334465        0.9333548169        0.0000000007
C                0.9666805610        0.9666753012        0.0000000003



     Writing config-only to output data dir /home/gregb26/links/scratch/qe_tmp/vacancy_relaxed/series/10x10/nspin1/vac_10x10_relax_nspin1.save/ :
     XML data file
     NEW-OLD atomic charge density approx. for the potential

     negative rho (up, down):  4.571E-08 0.000E+00

     total cpu time spent up to now is     2559.6 secs

     per-process dynamical memory:   459.1 Mb

     Self-consistent Calculation

     iteration #  1     ecut=   100.00 Ry     beta= 0.30
     Davidson diagonalization with overlap
     ethr =  1.00E-06,  avg # of iterations =  2.0

     Threshold (ethr) on eigenvalues was too large:
     Diagonalizing with lowered threshold

     Davidson diagonalization with overlap
     ethr =  2.38E-11,  avg # of iterations =  7.0

     negative rho (up, down):  2.640E-08 0.000E+00

     total cpu time spent up to now is     2595.8 secs

     total energy              =   -2396.97400551 Ry
     estimated scf accuracy    <       0.00000027 Ry

     iteration #  2     ecut=   100.00 Ry     beta= 0.30
     Davidson diagonalization with overlap
     ethr =  3.40E-11,  avg # of iterations =  2.0

     negative rho (up, down):  1.798E-08 0.000E+00

     total cpu time spent up to now is     2605.3 secs

     total energy              =   -2396.97400551 Ry
     estimated scf accuracy    <       0.00000016 Ry

     iteration #  3     ecut=   100.00 Ry     beta= 0.30
     Davidson diagonalization with overlap
     ethr =  2.07E-11,  avg # of iterations =  5.0

     total cpu time spent up to now is     2615.4 secs

     total energy              =   -2396.97400551 Ry
     estimated scf accuracy    <       0.00000013 Ry

     iteration #  4     ecut=   100.00 Ry     beta= 0.30
     Davidson diagonalization with overlap
     ethr =  1.69E-11,  avg # of iterations =  5.0

     total cpu time spent up to now is     2625.2 secs

     total energy              =   -2396.97400552 Ry
     estimated scf accuracy    <       0.00000002 Ry

     iteration #  5     ecut=   100.00 Ry     beta= 0.30
     Davidson diagonalization with overlap
     ethr =  2.83E-12,  avg # of iterations =  5.0

     total cpu time spent up to now is     2635.5 secs

     total energy              =   -2396.97400552 Ry
     estimated scf accuracy    <          3.1E-09 Ry

     iteration #  6     ecut=   100.00 Ry     beta= 0.30
     Davidson diagonalization with overlap
     ethr =  3.92E-13,  avg # of iterations =  4.0

     total cpu time spent up to now is     2647.1 secs

     total energy              =   -2396.97400552 Ry
     estimated scf accuracy    <          5.9E-10 Ry

     iteration #  7     ecut=   100.00 Ry     beta= 0.30
     Davidson diagonalization with overlap
     ethr =  1.00E-13,  avg # of iterations =  5.0

     total cpu time spent up to now is     2659.4 secs

     total energy              =   -2396.97400553 Ry
     estimated scf accuracy    <          9.7E-11 Ry

     iteration #  8     ecut=   100.00 Ry     beta= 0.30
     Davidson diagonalization with overlap
     ethr =  1.00E-13,  avg # of iterations =  1.0

     total cpu time spent up to now is     2668.1 secs

     total energy              =   -2396.97400552 Ry
     estimated scf accuracy    <          3.0E-11 Ry

     iteration #  9     ecut=   100.00 Ry     beta= 0.30
     Davidson diagonalization with overlap
     ethr =  1.00E-13,  avg # of iterations =  1.0

     total cpu time spent up to now is     2677.2 secs

     total energy              =   -2396.97400552 Ry
     estimated scf accuracy    <          4.4E-12 Ry

     iteration # 10     ecut=   100.00 Ry     beta= 0.30
     Davidson diagonalization with overlap
     ethr =  1.00E-13,  avg # of iterations =  1.0

     total cpu time spent up to now is     2685.8 secs

     End of self-consistent calculation

          k = 0.0000 0.0000 0.0000 (476289 PWs)   bands (ev):

   -23.7948 -23.5885 -23.5828 -23.5557 -23.5469 -23.5456 -23.5413 -23.1302
   -23.1245 -23.0936 -23.0934 -23.0823 -23.0382 -22.8792 -22.8767 -22.8615
   -22.8602 -22.8547 -22.7794 -22.2214 -22.2150 -22.1969 -22.1968 -22.1755
   -22.1579 -22.1497 -22.1489 -22.1436 -22.1428 -22.1420 -21.9999 -21.7153
   -21.7150 -21.7124 -21.7078 -21.7073 -21.5747 -21.0493 -21.0487 -21.0289
   -21.0244 -21.0225 -20.9439 -20.8244 -20.8243 -20.8155 -20.7995 -20.7972
   -20.7926 -20.7888 -20.7884 -20.7832 -20.7816 -20.7803 -20.5142 -20.1420
   -20.1410 -20.1399 -20.1162 -20.1152 -19.9800 -19.5315 -19.5311 -19.5110
   -19.4700 -19.4680 -19.4579 -19.4548 -19.4533 -19.4533 -19.4499 -19.4488
   -19.2880 -19.1070 -19.1056 -19.0860 -19.0592 -19.0559 -19.0540 -19.0527
   -19.0525 -19.0503 -19.0377 -19.0364 -18.7085 -18.5703 -18.5689 -18.4069
   -17.9971 -17.9776 -17.9764 -17.9538 -17.9536 -17.8812 -17.8507 -17.8472
   -17.8470 -17.8250 -17.8249 -17.6540 -17.5062 -17.5054 -17.3188 -16.9939
   -16.9938 -16.9891 -16.9342 -16.9336 -16.8569 -16.6852 -16.6817 -16.6807
   -16.6562 -16.6559 -16.6549 -16.6354 -16.6336 -16.6333 -16.5618 -16.5598
   -16.3703 -16.2042 -16.1418 -16.1394 -16.1280 -16.1273 -15.8508 -15.6486
   -15.6422 -15.6408 -15.5731 -15.5729 -15.4616 -15.2716 -15.2479 -15.2462
   -15.2431 -15.2423 -15.2303 -15.2215 -15.2214 -15.2210 -15.1344 -15.1336
   -14.6437 -14.4822 -14.4816 -14.4578 -14.4483 -14.4434 -14.4432 -14.3229
   -14.3107 -14.3085 -14.2720 -14.2650 -14.2641 -14.2636 -14.2635 -14.2616
   -14.1185 -14.1177 -13.6468 -13.2663 -13.2631 -13.2559 -13.2341 -13.2339
   -13.1761 -13.1712 -13.1428 -13.1426 -13.1039 -13.1021 -13.0981 -13.0795
   -13.0590 -13.0579 -12.9857 -12.9847 -12.9003 -12.8915 -12.8456 -12.8446
   -12.8306 -12.8305 -12.8242 -12.8169 -12.8165 -12.8134 -12.6121 -12.6113
   -12.2036 -11.8754 -11.8541 -11.8489 -11.8371 -11.8362 -11.7792 -11.7789
   -11.7683 -11.7669 -11.7562 -11.7430 -11.7421 -11.7417 -11.7367 -11.7364
   -11.7361 -11.6328 -11.6316 -11.6192 -11.6150 -11.5885 -11.5874 -11.5842
   -11.5749 -11.5140 -11.4647 -11.4208 -11.4201 -11.3800 -11.3772 -11.3755
   -11.3746 -11.3744 -11.3683 -11.2243 -11.2225 -11.0680 -11.0640 -11.0411
   -11.0409 -11.0340 -11.0090 -10.9940 -10.9811 -10.9568 -10.9536 -10.9214
   -10.9208 -10.9173 -10.9127 -10.9119 -10.8947 -10.7837 -10.7830 -10.7815
   -10.7800 -10.7666 -10.7655 -10.7623 -10.7298 -10.6789 -10.6693 -10.6693
   -10.6369 -10.5161 -10.5124 -10.5108 -10.4767 -10.4753 -10.4727 -10.4484
   -10.4298 -10.4294 -10.2576 -10.2552 -10.0839 -10.0837 -10.0401 -10.0390
    -9.9999  -9.9956  -9.9955  -9.9943  -9.9927  -9.9865  -9.9862  -9.9747
    -9.9740  -9.9716  -9.9587  -9.9454  -9.9392  -9.9386  -9.9350  -9.9336
    -9.9330  -9.8610  -9.8594  -9.8308  -9.8258  -9.8244  -9.7969  -9.7845
    -9.7753  -9.6996  -9.6981  -9.6079  -9.6079  -9.5819  -9.4400  -9.4384
    -9.4325  -9.4294  -9.4282  -9.3033  -9.1719  -9.1715  -8.8802  -8.8536
    -8.8526  -8.8202  -8.8022  -8.7670  -8.7664  -8.7527  -8.7519  -8.7469
    -8.6577  -8.6554  -8.6514  -8.6512  -8.6416  -8.5888  -8.5695  -8.4357
    -8.4334  -8.4284  -8.4271  -8.4222  -8.4208  -8.4200  -8.4046  -8.4022
    -8.4018  -8.3993  -8.3969  -8.3959  -8.2424  -8.2420  -8.2291  -8.1508
    -7.9431  -7.9413  -7.9171  -7.8134  -7.8062  -7.8051  -7.7779  -7.7568
    -7.7567  -7.7507  -7.7467  -7.7462  -7.6023  -7.3730  -7.3720  -7.0160
    -7.0137  -6.9977  -6.9973  -6.9903  -6.9589  -6.9559  -6.9559  -6.9542
    -6.9523  -6.9521  -6.8791  -6.8101  -6.8097  -6.7692  -6.7664  -6.7659
    -6.7654  -6.7647  -6.7634  -6.7559  -6.7555  -6.7549  -6.6341  -6.6225
    -6.6213  -6.1346  -5.7820  -5.7817  -5.7690  -5.7584  -5.7584  -5.5110
    -5.2966  -5.2920  -5.2918  -5.2801  -5.2800  -4.6942  -4.4507  -4.3841
    -3.2928  -3.2395  -3.2384  -3.2292  -3.2291  -3.1515  -2.9716  -2.9666
    -2.9660  -2.9371  -2.9370  -2.7945  -2.5659  -2.5653  -2.4880  -2.2177
    -2.2173  -2.2133  -2.2008  -2.2005  -2.1796  -2.1752  -2.1747  -2.1737
    -2.1538  -2.1533  -1.9066  -1.6255

     the Fermi energy is    -4.5815 ev

!    total energy              =   -2396.97400552 Ry
     estimated scf accuracy    <          8.0E-13 Ry
     smearing contrib. (-TS)   =      -0.00003256 Ry
     internal energy E=F+TS    =   -2396.97397296 Ry

     The total energy is F=E-TS. E is the sum of the following terms:
     one-electron contribution =  -27163.23392405 Ry
     hartree contribution      =   13655.58548447 Ry
     xc contribution           =    -852.88850922 Ry
     ewald contribution        =   11963.56297584 Ry

     convergence has been achieved in  10 iterations

     Forces acting on atoms (cartesian axes, Ry/au):

     atom    1 type  1   force =    -0.00004511   -0.00002195   -0.00000000
     atom    2 type  1   force =    -0.00002694   -0.00002039    0.00000000
     atom    3 type  1   force =    -0.00004306   -0.00001586   -0.00000000
     atom    4 type  1   force =    -0.00001129    0.00001957    0.00000000
     atom    5 type  1   force =     0.00003526    0.00002936   -0.00000000
     atom    6 type  1   force =     0.00003113    0.00001312   -0.00000000
     atom    7 type  1   force =     0.00004156    0.00002810   -0.00000000
     atom    8 type  1   force =     0.00004291    0.00000029    0.00000000
     atom    9 type  1   force =     0.00000100    0.00000013    0.00000000
     atom   10 type  1   force =     0.00001922   -0.00000329   -0.00000000
     atom   11 type  1   force =     0.00001760   -0.00001166   -0.00000000
     atom   12 type  1   force =     0.00002199    0.00001589   -0.00000000
     atom   13 type  1   force =    -0.00000656    0.00001737    0.00000000
     atom   14 type  1   force =     0.00000355   -0.00000614   -0.00000000
     atom   15 type  1   force =    -0.00001178    0.00001436    0.00000000
     atom   16 type  1   force =    -0.00002476   -0.00001108   -0.00000000
     atom   17 type  1   force =     0.00000129   -0.00002105    0.00000000
     atom   18 type  1   force =    -0.00000677   -0.00001830    0.00000000
     atom   19 type  1   force =    -0.00000061   -0.00000079   -0.00000000
     atom   20 type  1   force =    -0.00002171   -0.00003702    0.00000000
     atom   21 type  1   force =    -0.00004880   -0.00002059    0.00000000
     atom   22 type  1   force =    -0.00002131   -0.00006052   -0.00000000
     atom   23 type  1   force =     0.00001283   -0.00002222   -0.00000000
     atom   24 type  1   force =     0.00006306   -0.00001180   -0.00000000
     atom   25 type  1   force =     0.00004223    0.00003197    0.00000000
     atom   26 type  1   force =     0.00002650   -0.00002386   -0.00000000
     atom   27 type  1   force =    -0.00000473   -0.00003665    0.00000000
     atom   28 type  1   force =    -0.00000274    0.00000288    0.00000000
     atom   29 type  1   force =    -0.00004448   -0.00002489   -0.00000000
     atom   30 type  1   force =    -0.00001686    0.00000901   -0.00000000
     atom   31 type  1   force =    -0.00000218   -0.00000701   -0.00000000
     atom   32 type  1   force =     0.00000175    0.00001530    0.00000000
     atom   33 type  1   force =    -0.00002993    0.00005184   -0.00000000
     atom   34 type  1   force =    -0.00001412    0.00000615    0.00000000
     atom   35 type  1   force =     0.00000713   -0.00000165    0.00000000
     atom   36 type  1   force =     0.00000063    0.00001913   -0.00000000
     atom   37 type  1   force =     0.00004379    0.00002609   -0.00000000
     atom   38 type  1   force =    -0.00000113    0.00000380   -0.00000000
     atom   39 type  1   force =     0.00003411   -0.00001422    0.00000000
     atom   40 type  1   force =     0.00000741   -0.00003490   -0.00000000
     atom   41 type  1   force =     0.00002822   -0.00006654   -0.00000000
     atom   42 type  1   force =     0.00002421   -0.00004193   -0.00000000
     atom   43 type  1   force =     0.00004352   -0.00005771   -0.00000000
     atom   44 type  1   force =     0.00003388    0.00002074    0.00000000
     atom   45 type  1   force =     0.00003737   -0.00000192    0.00000000
     atom   46 type  1   force =    -0.00002012    0.00000375   -0.00000000
     atom   47 type  1   force =    -0.00002433   -0.00003732   -0.00000000
     atom   48 type  1   force =    -0.00001556   -0.00001628    0.00000000
     atom   49 type  1   force =     0.00000814    0.00001645    0.00000000
     atom   50 type  1   force =    -0.00000972    0.00000440   -0.00000000
     atom   51 type  1   force =    -0.00000192   -0.00002926   -0.00000000
     atom   52 type  1   force =    -0.00002459    0.00004261    0.00000000
     atom   53 type  1   force =     0.00002629   -0.00001297    0.00000000
     atom   54 type  1   force =     0.00000108    0.00001063   -0.00000000
     atom   55 type  1   force =    -0.00001835    0.00000113    0.00000000
     atom   56 type  1   force =     0.00002189    0.00000535   -0.00000000
     atom   57 type  1   force =     0.00004450    0.00000243   -0.00000000
     atom   58 type  1   force =     0.00000679    0.00001931    0.00000000
     atom   59 type  1   force =    -0.00001702   -0.00003333    0.00000000
     atom   60 type  1   force =    -0.00003492   -0.00001898   -0.00000000
     atom   61 type  1   force =     0.00003223   -0.00005582   -0.00000000
     atom   62 type  1   force =     0.00003597   -0.00000320   -0.00000000
     atom   63 type  1   force =    -0.00000316    0.00002768    0.00000000
     atom   64 type  1   force =    -0.00000618    0.00000416   -0.00000000
     atom   65 type  1   force =    -0.00001858    0.00003397   -0.00000000
     atom   66 type  1   force =    -0.00001314    0.00001602    0.00000000
     atom   67 type  1   force =    -0.00002108    0.00000199    0.00000000
     atom   68 type  1   force =     0.00001856    0.00001342   -0.00000000
     atom   69 type  1   force =    -0.00001498   -0.00003392    0.00000000
     atom   70 type  1   force =     0.00005639    0.00002342   -0.00000000
     atom   71 type  1   force =     0.00000487   -0.00000852    0.00000001
     atom   72 type  1   force =    -0.00004851   -0.00003710    0.00000000
     atom   73 type  1   force =     0.00003686   -0.00000401    0.00000001
     atom   74 type  1   force =    -0.00002088   -0.00000935   -0.00000000
     atom   75 type  1   force =     0.00000879    0.00001919   -0.00000000
     atom   76 type  1   force =    -0.00000732    0.00001940    0.00000000
     atom   77 type  1   force =    -0.00002009    0.00003309    0.00000000
     atom   78 type  1   force =    -0.00000052    0.00000745   -0.00000000
     atom   79 type  1   force =    -0.00002239    0.00001657    0.00000000
     atom   80 type  1   force =    -0.00001523   -0.00003276   -0.00000000
     atom   81 type  1   force =    -0.00000706    0.00000040   -0.00000000
     atom   82 type  1   force =     0.00000917    0.00001480    0.00000000
     atom   83 type  1   force =    -0.00004437    0.00002521    0.00000000
     atom   84 type  1   force =    -0.00001539    0.00001791    0.00000000
     atom   85 type  1   force =     0.00001760   -0.00000665   -0.00000000
     atom   86 type  1   force =     0.00000134    0.00000407   -0.00000000
     atom   87 type  1   force =     0.00001947    0.00004380   -0.00000000
     atom   88 type  1   force =     0.00006174    0.00000773   -0.00000000
     atom   89 type  1   force =    -0.00003781    0.00001825   -0.00000001
     atom   90 type  1   force =     0.00000319    0.00004196   -0.00000001
     atom   91 type  1   force =    -0.00003751   -0.00004966   -0.00000000
     atom   92 type  1   force =    -0.00004767    0.00000504    0.00000000
     atom   93 type  1   force =    -0.00000421    0.00000090    0.00000000
     atom   94 type  1   force =    -0.00000303   -0.00001861    0.00000000
     atom   95 type  1   force =    -0.00000784    0.00002228   -0.00000000
     atom   96 type  1   force =     0.00000036    0.00005102    0.00000000
     atom   97 type  1   force =    -0.00001740   -0.00000052    0.00000000
     atom   98 type  1   force =     0.00000318    0.00000631   -0.00000000
     atom   99 type  1   force =     0.00001293   -0.00002238   -0.00000000
     atom  100 type  1   force =     0.00002776    0.00002652   -0.00000000
     atom  101 type  1   force =     0.00001959    0.00001423    0.00000000
     atom  102 type  1   force =     0.00000451    0.00002555    0.00000000
     atom  103 type  1   force =     0.00001472    0.00001008   -0.00000000
     atom  104 type  1   force =     0.00001363    0.00004897    0.00000000
     atom  105 type  1   force =    -0.00001232   -0.00001886   -0.00000000
     atom  106 type  1   force =     0.00001341    0.00000637    0.00000000
     atom  107 type  1   force =    -0.00001614    0.00002305    0.00000000
     atom  108 type  1   force =     0.00004414   -0.00007648    0.00000002
     atom  109 type  1   force =    -0.00001185    0.00002552   -0.00000000
     atom  110 type  1   force =    -0.00001216   -0.00000845   -0.00000000
     atom  111 type  1   force =     0.00002248    0.00000123   -0.00000000
     atom  112 type  1   force =    -0.00004921    0.00001268   -0.00000000
     atom  113 type  1   force =    -0.00001610   -0.00000769    0.00000000
     atom  114 type  1   force =    -0.00002441    0.00000884    0.00000000
     atom  115 type  1   force =    -0.00002209   -0.00000984    0.00000000
     atom  116 type  1   force =    -0.00003685   -0.00001079   -0.00000000
     atom  117 type  1   force =    -0.00004502   -0.00002845   -0.00000000
     atom  118 type  1   force =     0.00002037   -0.00003532   -0.00000000
     atom  119 type  1   force =     0.00004717    0.00002477   -0.00000000
     atom  120 type  1   force =     0.00001517    0.00001107   -0.00000000
     atom  121 type  1   force =     0.00001276    0.00002806   -0.00000000
     atom  122 type  1   force =    -0.00002151   -0.00002804   -0.00000000
     atom  123 type  1   force =     0.00000710    0.00001412   -0.00000000
     atom  124 type  1   force =     0.00003559    0.00002946    0.00000000
     atom  125 type  1   force =     0.00001068   -0.00003317   -0.00000000
     atom  126 type  1   force =     0.00004182   -0.00000018    0.00000000
     atom  127 type  1   force =     0.00000295   -0.00000507    0.00000000
     atom  128 type  1   force =    -0.00002076   -0.00003634   -0.00000000
     atom  129 type  1   force =     0.00002338   -0.00002584    0.00000000
     atom  130 type  1   force =    -0.00004329   -0.00001610   -0.00000000
     atom  131 type  1   force =    -0.00001579    0.00000090   -0.00000000
     atom  132 type  1   force =     0.00003505    0.00000460    0.00000000
     atom  133 type  1   force =    -0.00003068    0.00000298   -0.00000000
     atom  134 type  1   force =    -0.00001718   -0.00000760   -0.00000000
     atom  135 type  1   force =    -0.00003767    0.00000925    0.00000000
     atom  136 type  1   force =    -0.00001704   -0.00001765    0.00000000
     atom  137 type  1   force =    -0.00001571    0.00002722    0.00000000
     atom  138 type  1   force =     0.00002378    0.00000592    0.00000000
     atom  139 type  1   force =     0.00001083    0.00003726    0.00000000
     atom  140 type  1   force =     0.00000148    0.00000917    0.00000000
     atom  141 type  1   force =    -0.00000190    0.00002570   -0.00000000
     atom  142 type  1   force =     0.00002254    0.00000430    0.00000000
     atom  143 type  1   force =     0.00002461   -0.00001251   -0.00000000
     atom  144 type  1   force =    -0.00000148   -0.00001097    0.00000000
     atom  145 type  1   force =     0.00004194   -0.00002496   -0.00000000
     atom  146 type  1   force =     0.00002367   -0.00004096   -0.00000000
     atom  147 type  1   force =     0.00000061   -0.00004880   -0.00000000
     atom  148 type  1   force =     0.00001026   -0.00000419    0.00000000
     atom  149 type  1   force =    -0.00000149   -0.00002759    0.00000000
     atom  150 type  1   force =    -0.00001498   -0.00001736    0.00000000
     atom  151 type  1   force =    -0.00002130    0.00001448    0.00000000
     atom  152 type  1   force =    -0.00000870    0.00000330    0.00000000
     atom  153 type  1   force =    -0.00003812    0.00001774   -0.00000000
     atom  154 type  1   force =    -0.00006026    0.00000398   -0.00000000
     atom  155 type  1   force =    -0.00004219    0.00001954    0.00000000
     atom  156 type  1   force =    -0.00001762    0.00003051   -0.00000000
     atom  157 type  1   force =     0.00000417    0.00004631    0.00000000
     atom  158 type  1   force =     0.00002667    0.00005416   -0.00000000
     atom  159 type  1   force =     0.00000370    0.00004192   -0.00000000
     atom  160 type  1   force =     0.00001698    0.00003555   -0.00000000
     atom  161 type  1   force =     0.00001856    0.00001402    0.00000000
     atom  162 type  1   force =     0.00005458   -0.00002984    0.00000000
     atom  163 type  1   force =     0.00002465   -0.00002241   -0.00000000
     atom  164 type  1   force =     0.00005954   -0.00002759   -0.00000000
     atom  165 type  1   force =     0.00002602   -0.00004512   -0.00000000
     atom  166 type  1   force =    -0.00000584   -0.00006534    0.00000000
     atom  167 type  1   force =     0.00000707   -0.00003258   -0.00000000
     atom  168 type  1   force =    -0.00000144   -0.00006217    0.00000000
     atom  169 type  1   force =    -0.00002142   -0.00000908   -0.00000000
     atom  170 type  1   force =    -0.00003930    0.00000308   -0.00000000
     atom  171 type  1   force =    -0.00003504    0.00003712    0.00000000
     atom  172 type  1   force =    -0.00002582    0.00004139    0.00000000
     atom  173 type  1   force =    -0.00001736    0.00001462    0.00000000
     atom  174 type  1   force =    -0.00002708    0.00000973    0.00000000
     atom  175 type  1   force =     0.00000527   -0.00000913    0.00000000
     atom  176 type  1   force =     0.00000511    0.00002831   -0.00000000
     atom  177 type  1   force =    -0.00000398    0.00002235    0.00000000
     atom  178 type  1   force =    -0.00002294    0.00004304   -0.00000000
     atom  179 type  1   force =    -0.00001461    0.00004894   -0.00000000
     atom  180 type  1   force =     0.00001303   -0.00000633    0.00000000
     atom  181 type  1   force =    -0.00000695    0.00000362    0.00000000
     atom  182 type  1   force =     0.00004232   -0.00001817   -0.00000000
     atom  183 type  1   force =     0.00002137    0.00000982    0.00000000
     atom  184 type  1   force =    -0.00000198    0.00000346   -0.00000000
     atom  185 type  1   force =    -0.00001920   -0.00001361   -0.00000000
     atom  186 type  1   force =    -0.00000542   -0.00004572    0.00000000
     atom  187 type  1   force =     0.00000034    0.00000782   -0.00000000
     atom  188 type  1   force =    -0.00000104   -0.00001444    0.00000000
     atom  189 type  1   force =     0.00001431    0.00003157   -0.00000000
     atom  190 type  1   force =     0.00001967    0.00004840   -0.00000000
     atom  191 type  1   force =     0.00004558    0.00000825   -0.00000000
     atom  192 type  1   force =     0.00001081    0.00003166    0.00000000
     atom  193 type  1   force =     0.00000089    0.00000293   -0.00000000
     atom  194 type  1   force =     0.00001479   -0.00002560    0.00000000
     atom  195 type  1   force =    -0.00000298    0.00000068   -0.00000000
     atom  196 type  1   force =    -0.00003283    0.00000647   -0.00000000
     atom  197 type  1   force =    -0.00002993   -0.00003536   -0.00000000
     atom  198 type  1   force =    -0.00005175    0.00000715    0.00000000
     atom  199 type  1   force =    -0.00003449    0.00000340   -0.00000000

     Total force =     0.000515     Total SCF correction =     0.000001
     Energy error            =      4.9E-07 Ry
     Gradient error          =      7.6E-05 Ry/Bohr

     bfgs converged in  16 scf cycles and  15 bfgs steps
     (criteria: energy <  1.0E-05 Ry, force <  1.0E-04 Ry/Bohr)

     End of BFGS Geometry Optimization

     Final energy             =   -2396.9740055248 Ry

     File /home/gregb26/links/scratch/qe_tmp/vacancy_relaxed/series/10x10/nspin1/vac_10x10_relax_nspin1.bfgs deleted, as requested
Begin final coordinates

ATOMIC_POSITIONS (crystal)
C                0.0333408334        0.0333071741       -0.0000000006
C                0.0666798153        0.0666410359       -0.0000000005
C                0.0333106117        0.1333379512        0.0000000000
C                0.0666639418        0.1666680289        0.0000000005
C                0.0333106114        0.2333514373        0.0000000007
C                0.0666798146        0.2666791490        0.0000000007
C                0.0333408324        0.3333519928        0.0000000006
C                0.0667312105        0.3666715745        0.0000000007
C                0.0333989219        0.4333370165        0.0000000010
C                0.0667981680        0.4666560085        0.0000000009
C                0.0333701541        0.5333225441        0.0000000008
C                0.0666820707        0.5666678324       -0.0000000000
C                0.0333133482        0.6333388659        0.0000000002
C                0.0666550732        0.6666724641       -0.0000000003
C                0.0333133489        0.7333477875        0.0000000004
C                0.0666820729        0.7666500969        0.0000000005
C                0.0333701562        0.8333073015        0.0000000012
C                0.0667981709        0.8665458221        0.0000000010
C                0.0333989240        0.9332640604        0.0000000006
C                0.0667312124        0.9665972138       -0.0000000001
C                0.1333753891        0.0332647281       -0.0000000006
C                0.1667007346        0.0666242847        0.0000000002
C                0.1333565274        0.1333217360        0.0000000007
C                0.1667007343        0.1666749802        0.0000000011
C                0.1333753883        0.2333598824        0.0000000008
C                0.1667485782        0.2667080297        0.0000000007
C                0.1334337957        0.3333826736        0.0000000003
C                0.1668282714        0.3667222086        0.0000000000
C                0.1335272671        0.4333711918        0.0000000002
C                0.1669450721        0.4667062479       -0.0000000005
C                0.1333727786        0.5333555891       -0.0000000008
C                0.1666327145        0.5667141863       -0.0000000017
C                0.1332419285        0.6333790362       -0.0000000016
C                0.1666327162        0.6666530985       -0.0000000020
C                0.1333727811        0.7332716318       -0.0000000006
C                0.1669450772        0.7663486760       -0.0000000001
C                0.1335272711        0.8331015379        0.0000000008
C                0.1668282747        0.8664495172        0.0000000006
C                0.1334337980        0.9331835284       -0.0000000001
C                0.1667485796        0.9665433906       -0.0000000006
C                0.2333817750        0.0332662752        0.0000000004
C                0.2666999117        0.0666500437        0.0000000009
C                0.2333817746        0.1333519490        0.0000000011
C                0.2667194491        0.1667397442        0.0000000007
C                0.2334218073        0.2334160212        0.0000000004
C                0.2667944833        0.2668055288        0.0000000002
C                0.2335194803        0.3334611956        0.0000000002
C                0.2669541240        0.3668195628       -0.0000000001
C                0.2337334909        0.4334432414       -0.0000000004
C                0.2671154060        0.4669228528       -0.0000000005
C                0.2331827452        0.5334636875       -0.0000000015
C                0.2664626335        0.5667686826       -0.0000000025
C                0.2331827473        0.6333535651       -0.0000000027
C                0.2671154139        0.6659617325       -0.0000000024
C                0.2337334966        0.7328232619       -0.0000000010
C                0.2669541285        0.7662263078       -0.0000000002
C                0.2335194841        0.8330193193        0.0000000005
C                0.2667944858        0.8663999846        0.0000000001
C                0.2334218089        0.9331621690       -0.0000000005
C                0.2667194500        0.9665408051       -0.0000000001
C                0.3333694707        0.0333152641        0.0000000006
C                0.3666771223        0.0667292735        0.0000000003
C                0.3333913256        0.1334387905        0.0000000001
C                0.3667162226        0.1668600051       -0.0000000003
C                0.3334496706        0.2335533126       -0.0000000000
C                0.3667861089        0.2670206018       -0.0000000001
C                0.3335588519        0.3336180970       -0.0000000001
C                0.3670284278        0.3671369164        0.0000000002
C                0.3339840788        0.4335111250       -0.0000000001
C                0.3676519617        0.4676296320       -0.0000000013
C                0.3324334765        0.5337832613       -0.0000000028
C                0.3676519781        0.5647183877       -0.0000000018
C                0.3339840903        0.6325047823       -0.0000000024
C                0.3670284337        0.6658346473       -0.0000000013
C                0.3335588558        0.7328230451       -0.0000000005
C                0.3667861113        0.7661932848       -0.0000000000
C                0.3334496725        0.8329970125       -0.0000000001
C                0.3667162235        0.8664237697       -0.0000000002
C                0.3333913263        0.9331698818       -0.0000000002
C                0.3666771227        0.9665936029        0.0000000000
C                0.4333384201        0.0334138892        0.0000000002
C                0.4666417042        0.0668478178       -0.0000000003
C                0.4333622693        0.1335936763       -0.0000000008
C                0.4666755728        0.1670583891       -0.0000000009
C                0.4334099899        0.2338738197       -0.0000000004
C                0.4668545659        0.2673343089       -0.0000000003
C                0.4334189786        0.3342579521       -0.0000000000
C                0.4674727678        0.3680995147       -0.0000000014
C                0.4327016489        0.4332660879       -0.0000000057
C                0.4327016749        0.5340322280       -0.0000000017
C                0.4674727735        0.5644277087       -0.0000000017
C                0.4334189839        0.6323230608       -0.0000000011
C                0.4668545687        0.6658111212       -0.0000000001
C                0.4334099912        0.7327161875        0.0000000000
C                0.4666755732        0.7662660368        0.0000000001
C                0.4333622696        0.8330440527       -0.0000000002
C                0.4666417045        0.8665104768       -0.0000000002
C                0.4333384204        0.9332476897        0.0000000002
C                0.4666367122        0.9666816435        0.0000000003
C                0.5333040932        0.0334264291        0.0000000000
C                0.5666328549        0.0667680387       -0.0000000003
C                0.5333227714        0.1334820837       -0.0000000010
C                0.5666597694        0.1667770180       -0.0000000005
C                0.5334029083        0.2333661151       -0.0000000008
C                0.5666795127        0.2666865383       -0.0000000008
C                0.5336739055        0.3327243873       -0.0000000010
C                0.5649093332        0.3676703658       -0.0000000013
C                0.5348791216        0.4325604485        0.0000000017
C                0.5649093420        0.4674203056       -0.0000000012
C                0.5336739093        0.5336017104       -0.0000000010
C                0.5666795155        0.5666339515        0.0000000001
C                0.5334029098        0.6332309776        0.0000000004
C                0.5666597703        0.6665632138        0.0000000000
C                0.5333227714        0.7331951460        0.0000000002
C                0.5666328546        0.7665991069        0.0000000003
C                0.5333040931        0.8332694780        0.0000000004
C                0.5666169446        0.8666600139        0.0000000009
C                0.5332999430        0.9333500288        0.0000000007
C                0.5666169447        0.9667230416        0.0000000006
C                0.6333026987        0.0333858091        0.0000000003
C                0.6666276014        0.0667404891        0.0000000006
C                0.6333299712        0.1333475105        0.0000000002
C                0.6666053711        0.1667385317        0.0000000002
C                0.6333051248        0.2333094570       -0.0000000006
C                0.6660429456        0.2671201853       -0.0000000012
C                0.6327032683        0.3339488775       -0.0000000020
C                0.6660507837        0.3669746098       -0.0000000012
C                0.6327032728        0.4333478581       -0.0000000010
C                0.6660429492        0.4668368719       -0.0000000005
C                0.6333051271        0.5333854205       -0.0000000001
C                0.6666053722        0.5666561000       -0.0000000003
C                0.6333299715        0.6333225204       -0.0000000004
C                0.6666276012        0.6666319115        0.0000000003
C                0.6333026983        0.7333114937        0.0000000006
C                0.6666315801        0.7666547079        0.0000000009
C                0.6332924725        0.8333355472        0.0000000010
C                0.6666277382        0.8666861314        0.0000000007
C                0.6332924727        0.9333719816        0.0000000005
C                0.6666315805        0.9667137128        0.0000000003
C                0.7333079227        0.0333754505        0.0000000010
C                0.7666189861        0.0667357128        0.0000000010
C                0.7332442450        0.1334330873        0.0000000004
C                0.7663806642        0.1669468175        0.0000000002
C                0.7328994323        0.2337201840       -0.0000000008
C                0.7663345943        0.2669122517       -0.0000000005
C                0.7329974378        0.3335012821       -0.0000000004
C                0.7663345951        0.3667531561        0.0000000001
C                0.7328994346        0.4333803855       -0.0000000002
C                0.7663806654        0.4666725210        0.0000000001
C                0.7332442458        0.5333226699       -0.0000000003
C                0.7666189859        0.5666453036       -0.0000000005
C                0.7333079222        0.6333166292       -0.0000000001
C                0.7666381178        0.6666528109        0.0000000004
C                0.7333087371        0.7333325568        0.0000000007
C                0.7666391193        0.7666702749        0.0000000007
C                0.7333068866        0.8333465574        0.0000000008
C                0.7666391195        0.8666906071        0.0000000007
C                0.7333087375        0.9333587074        0.0000000007
C                0.7666381186        0.9667090722        0.0000000011
C                0.8332860930        0.0334013990        0.0000000007
C                0.8665578208        0.0667964255       -0.0000000001
C                0.8331341906        0.1335173110       -0.0000000001
C                0.8665060373        0.1667962952       -0.0000000003
C                0.8331089854        0.2334788703        0.0000000001
C                0.8664838876        0.2667580571        0.0000000005
C                0.8331089856        0.3334121455        0.0000000006
C                0.8665060369        0.3666976696        0.0000000006
C                0.8331341912        0.4333485001        0.0000000001
C                0.8665578204        0.4666457557        0.0000000005
C                0.8332860929        0.5333125099        0.0000000000
C                0.8666517213        0.5666356780        0.0000000003
C                0.8333156552        0.6333138893        0.0000000002
C                0.8666520554        0.6666565442        0.0000000006
C                0.8333111913        0.7333383610        0.0000000008
C                0.8666472830        0.7666763592        0.0000000012
C                0.8333111914        0.8333504492        0.0000000014
C                0.8666520558        0.8666914016        0.0000000017
C                0.8333156557        0.9333704569        0.0000000014
C                0.8666517222        0.9667126016        0.0000000010
C                0.9332793992        0.0333884961       -0.0000000003
C                0.9666307698        0.0667029569       -0.0000000006
C                0.9332329345        0.1334009725       -0.0000000002
C                0.9665960264        0.1667126996        0.0000000001
C                0.9332309061        0.2333845473        0.0000000007
C                0.9665960262        0.2666912751        0.0000000008
C                0.9332329342        0.3333660940        0.0000000006
C                0.9666307690        0.3666662745        0.0000000007
C                0.9332793986        0.4333321060        0.0000000009
C                0.9666805596        0.4666441393        0.0000000012
C                0.9333334457        0.5333117383        0.0000000010
C                0.9666812631        0.5666408089        0.0000000008
C                0.9333294887        0.6333191150        0.0000000008
C                0.9666556890        0.6666677504        0.0000000011
C                0.9333085748        0.7333457133        0.0000000014
C                0.9666556893        0.7666765620        0.0000000016
C                0.9333294892        0.8333513976        0.0000000018
C                0.9666812642        0.8666779285        0.0000000013
C                0.9333334465        0.9333548169        0.0000000007
C                0.9666805610        0.9666753012        0.0000000003
End final coordinates



     Writing all to output data dir /home/gregb26/links/scratch/qe_tmp/vacancy_relaxed/series/10x10/nspin1/vac_10x10_relax_nspin1.save/ :
     XML data file, charge density, pseudopotentials, collected wavefunctions

     init_run     :     10.45s CPU     11.01s WALL (       1 calls)
     electrons    :   2574.67s CPU   2606.53s WALL (      16 calls)
     update_pot   :      4.40s CPU      4.55s WALL (      15 calls)
     forces       :     61.15s CPU     62.32s WALL (      16 calls)

     Called by init_run:
     wfcinit      :      7.01s CPU      7.18s WALL (       1 calls)
     potinit      :      0.19s CPU      0.39s WALL (       1 calls)
     hinit0       :      0.94s CPU      1.07s WALL (       1 calls)

     Called by electrons:
     c_bands      :   2303.96s CPU   2328.11s WALL (     228 calls)
     sum_band     :    230.25s CPU    232.19s WALL (     228 calls)
     v_of_rho     :     33.87s CPU     35.69s WALL (     232 calls)
     mix_rho      :      5.02s CPU      5.31s WALL (     228 calls)

     Called by c_bands:
     init_us_2    :     20.59s CPU     20.79s WALL (     473 calls)
     regterg      :   2269.33s CPU   2292.98s WALL (     228 calls)

     Called by *egterg:
     rdiaghg      :     51.07s CPU     51.54s WALL (    1115 calls)
     h_psi        :   1600.66s CPU   1612.62s WALL (    1143 calls)
     g_psi        :      2.09s CPU      2.11s WALL (     914 calls)

     Called by h_psi:
     h_psi:calbec :    289.15s CPU    291.19s WALL (    1143 calls)
     vloc_psi     :   1085.07s CPU   1093.58s WALL (    1143 calls)
                                        0.00s GPU  (    1143 calls)
     add_vuspsi   :    221.71s CPU    223.08s WALL (    1143 calls)

     General routines
     calbec       :    321.79s CPU    324.05s WALL (    1207 calls)
     fft          :     26.09s CPU     28.36s WALL (    2011 calls)
     ffts         :      1.87s CPU      1.91s WALL (     228 calls)
     fftw         :   1175.49s CPU   1184.60s WALL (  284384 calls)

     Parallel routines

     PWSCF        :   2657.76s CPU   2696.40s WALL


   This run was terminated on:  10:23:15  23Sep2026            

=------------------------------------------------------------------------------=
   JOB DONE.
=------------------------------------------------------------------------------=
