
     Program PWSCF v.7.5 starts on 23Sep2026 at  9:26:48 

     This program is part of the open-source Quantum ESPRESSO suite
     for quantum simulation of materials; please cite
         "P. Giannozzi et al., J. Phys.:Condens. Matter 21 395502 (2009);
         "P. Giannozzi et al., J. Phys.:Condens. Matter 29 465901 (2017);
         "P. Giannozzi et al., J. Chem. Phys. 152 154105 (2020);
          URL http://www.quantum-espresso.org", 
     in publications or presentations arising from this work. More details at
     http://www.quantum-espresso.org/quote

     Parallel version (MPI & OpenMP), running on      64 processor cores
     Number of MPI processes:                64
     Threads/MPI process:                     1

     MPI processes distributed on    15 nodes
     626307 MiB available memory on the printing compute node when the environment starts

     Waiting for input...
     Reading input from standard input

     Current dimensions of program PWSCF are:
     Max number of different atomic species (ntypx) = 10
     Max number of k-points (npk) =  40000
     Max angular momentum in pseudopotentials (lmaxx) =  4

     gamma-point specific algorithms are used

     R & G space division:  proc/nbgrp/npool/nimage =      64
     Subspace diagonalization in iterative solution of the eigenvalue problem:
     one sub-group per band group will be used
     ELPA distributed-memory algorithm (size of sub-group:  2*  2 procs)


     Parallelization info
     --------------------
     sticks:   dense  smooth     PW     G-vecs:    dense   smooth      PW
     Min         456     456    113                58336    58336    7290
     Max         458     458    116                58358    58358    7298
     Sum       29305   29305   7315              3734495  3734495  466817

     Using Slab Decomposition



     bravais-lattice index     =            0
     lattice parameter (alat)  =      32.6185  a.u.
     unit-cell volume          =   27642.6493 (a.u.)^3
     number of atoms/cell      =           97
     number of atomic types    =            2
     number of electrons       =       388.00
     number of Kohn-Sham states=          224
     kinetic-energy cutoff     =     100.0000  Ry
     charge density cutoff     =     400.0000  Ry
     scf convergence threshold =      1.0E-10
     mixing beta               =       0.3000
     number of iterations used =            8  plain     mixing
     energy convergence thresh.=      1.0E-05
     force convergence thresh. =      1.0E-04
     Exchange-correlation= PBE
                           (   1   4   3   4   0   0   0)
     nstep                     =          200


     celldm(1)=  32.618493  celldm(2)=   0.000000  celldm(3)=   0.000000
     celldm(4)=   0.000000  celldm(5)=   0.000000  celldm(6)=   0.000000

     crystal axes: (cart. coord. in units of alat)
               a(1) = (   0.866025  -0.500000   0.000000 )  
               a(2) = (   0.866025   0.500000   0.000000 )  
               a(3) = (   0.000000   0.000000   0.919724 )  

     reciprocal axes: (cart. coord. in units 2 pi/alat)
               b(1) = (  0.577350 -1.000000  0.000000 )  
               b(2) = (  0.577350  1.000000 -0.000000 )  
               b(3) = ( -0.000000  0.000000  1.087283 )  


     PseudoPot. # 1 for C  read from file:
     /home/gregb26/links/projects/rrg-cotemich-ac/gregb26/abinit_processing/pseudo/C.upf
     MD5 check sum: 34a24e64c0a39f27c6c36b90a16ac686
     Pseudo is Norm-conserving + core correction, Zval =  4.0
     Generated using ONCVPSP code by D. R. Hamann
     Using radial grid of 1248 points,  4 beta functions with: 
                l(1) =   0
                l(2) =   0
                l(3) =   1
                l(4) =   1

     PseudoPot. # 2 for C  read from file:
     /home/gregb26/links/projects/rrg-cotemich-ac/gregb26/abinit_processing/pseudo/C.upf
     MD5 check sum: 34a24e64c0a39f27c6c36b90a16ac686
     Pseudo is Norm-conserving + core correction, Zval =  4.0
     Generated using ONCVPSP code by D. R. Hamann
     Using radial grid of 1248 points,  4 beta functions with: 
                l(1) =   0
                l(2) =   0
                l(3) =   1
                l(4) =   1

     atomic species   valence    mass     pseudopotential
     C                 4.00    12.01100     C ( 1.00)
     C1                4.00    12.01100     C ( 1.00)

     Starting magnetic structure 
     atomic species   magnetization
     C               0.000
     C1              0.500

     No symmetry found



   Cartesian axes

     site n.     atom                  positions (alat units)
         1        C      tau(   1) = (   0.0824786  -0.0000000   0.0000000  )
         2        C      tau(   2) = (   0.1649572  -0.0000000   0.0000000  )
         3        C      tau(   3) = (   0.2061965   0.0714286   0.0000000  )
         4        C      tau(   4) = (   0.2886751   0.0714286   0.0000000  )
         5        C      tau(   5) = (   0.3299144   0.1428571   0.0000000  )
         6        C      tau(   6) = (   0.4123930   0.1428571   0.0000000  )
         7        C      tau(   7) = (   0.4536324   0.2142857   0.0000000  )
         8        C      tau(   8) = (   0.5361110   0.2142857   0.0000000  )
         9        C      tau(   9) = (   0.5773503   0.2857143   0.0000000  )
        10        C      tau(  10) = (   0.6598289   0.2857143   0.0000000  )
        11        C      tau(  11) = (   0.7010682   0.3571429   0.0000000  )
        12        C      tau(  12) = (   0.7835468   0.3571429   0.0000000  )
        13        C      tau(  13) = (   0.8247861   0.4285714   0.0000000  )
        14        C      tau(  14) = (   0.9072647   0.4285714   0.0000000  )
        15        C      tau(  15) = (   0.2061965  -0.0714286   0.0000000  )
        16        C      tau(  16) = (   0.2886751  -0.0714286   0.0000000  )
        17        C      tau(  17) = (   0.3299144  -0.0000000   0.0000000  )
        18        C      tau(  18) = (   0.4123930  -0.0000000   0.0000000  )
        19        C      tau(  19) = (   0.4536324   0.0714286   0.0000000  )
        20        C      tau(  20) = (   0.5361110   0.0714286   0.0000000  )
        21        C      tau(  21) = (   0.5773503   0.1428571   0.0000000  )
        22        C      tau(  22) = (   0.6598289   0.1428571   0.0000000  )
        23        C      tau(  23) = (   0.7010682   0.2142857   0.0000000  )
        24        C      tau(  24) = (   0.7835468   0.2142857   0.0000000  )
        25        C      tau(  25) = (   0.8247861   0.2857143   0.0000000  )
        26        C      tau(  26) = (   0.9072647   0.2857143   0.0000000  )
        27        C      tau(  27) = (   0.9485040   0.3571429   0.0000000  )
        28        C      tau(  28) = (   1.0309826   0.3571429   0.0000000  )
        29        C      tau(  29) = (   0.3299144  -0.1428571   0.0000000  )
        30        C      tau(  30) = (   0.4123930  -0.1428571   0.0000000  )
        31        C      tau(  31) = (   0.4536324  -0.0714286   0.0000000  )
        32        C      tau(  32) = (   0.5361110  -0.0714286   0.0000000  )
        33        C      tau(  33) = (   0.5773503   0.0000000   0.0000000  )
        34        C      tau(  34) = (   0.6598289  -0.0000000   0.0000000  )
        35        C      tau(  35) = (   0.7010682   0.0714286   0.0000000  )
        36        C1     tau(  36) = (   0.7835468   0.0696905   0.0000000  )
        37        C      tau(  37) = (   0.8247861   0.1428571   0.0000000  )
        38        C      tau(  38) = (   0.9072647   0.1428571   0.0000000  )
        39        C      tau(  39) = (   0.9485040   0.2142857   0.0000000  )
        40        C      tau(  40) = (   1.0309826   0.2142857   0.0000000  )
        41        C      tau(  41) = (   1.0722219   0.2857143   0.0000000  )
        42        C      tau(  42) = (   1.1547005   0.2857143   0.0000000  )
        43        C      tau(  43) = (   0.4536324  -0.2142857   0.0000000  )
        44        C      tau(  44) = (   0.5361110  -0.2142857   0.0000000  )
        45        C      tau(  45) = (   0.5773503  -0.1428571   0.0000000  )
        46        C      tau(  46) = (   0.6598289  -0.1428571   0.0000000  )
        47        C      tau(  47) = (   0.7010682  -0.0714286   0.0000000  )
        48        C1     tau(  48) = (   0.7835468  -0.0696905   0.0000000  )
        49        C1     tau(  49) = (   0.9072647   0.0000000   0.0000000  )
        50        C      tau(  50) = (   0.9485040   0.0714286   0.0000000  )
        51        C      tau(  51) = (   1.0309826   0.0714286   0.0000000  )
        52        C      tau(  52) = (   1.0722219   0.1428571   0.0000000  )
        53        C      tau(  53) = (   1.1547005   0.1428571   0.0000000  )
        54        C      tau(  54) = (   1.1959398   0.2142857   0.0000000  )
        55        C      tau(  55) = (   1.2784185   0.2142857   0.0000000  )
        56        C      tau(  56) = (   0.5773503  -0.2857143   0.0000000  )
        57        C      tau(  57) = (   0.6598289  -0.2857143   0.0000000  )
        58        C      tau(  58) = (   0.7010682  -0.2142857   0.0000000  )
        59        C      tau(  59) = (   0.7835468  -0.2142857   0.0000000  )
        60        C      tau(  60) = (   0.8247861  -0.1428571   0.0000000  )
        61        C      tau(  61) = (   0.9072647  -0.1428571   0.0000000  )
        62        C      tau(  62) = (   0.9485040  -0.0714286   0.0000000  )
        63        C      tau(  63) = (   1.0309826  -0.0714286   0.0000000  )
        64        C      tau(  64) = (   1.0722219   0.0000000   0.0000000  )
        65        C      tau(  65) = (   1.1547005   0.0000000   0.0000000  )
        66        C      tau(  66) = (   1.1959398   0.0714286   0.0000000  )
        67        C      tau(  67) = (   1.2784185   0.0714286   0.0000000  )
        68        C      tau(  68) = (   1.3196578   0.1428571   0.0000000  )
        69        C      tau(  69) = (   1.4021364   0.1428571   0.0000000  )
        70        C      tau(  70) = (   0.7010682  -0.3571429   0.0000000  )
        71        C      tau(  71) = (   0.7835468  -0.3571429   0.0000000  )
        72        C      tau(  72) = (   0.8247861  -0.2857143   0.0000000  )
        73        C      tau(  73) = (   0.9072647  -0.2857143   0.0000000  )
        74        C      tau(  74) = (   0.9485040  -0.2142857   0.0000000  )
        75        C      tau(  75) = (   1.0309826  -0.2142857   0.0000000  )
        76        C      tau(  76) = (   1.0722219  -0.1428571   0.0000000  )
        77        C      tau(  77) = (   1.1547005  -0.1428571   0.0000000  )
        78        C      tau(  78) = (   1.1959398  -0.0714286   0.0000000  )
        79        C      tau(  79) = (   1.2784185  -0.0714286   0.0000000  )
        80        C      tau(  80) = (   1.3196578  -0.0000000   0.0000000  )
        81        C      tau(  81) = (   1.4021364  -0.0000000   0.0000000  )
        82        C      tau(  82) = (   1.4433757   0.0714286   0.0000000  )
        83        C      tau(  83) = (   1.5258543   0.0714286   0.0000000  )
        84        C      tau(  84) = (   0.8247861  -0.4285714   0.0000000  )
        85        C      tau(  85) = (   0.9072647  -0.4285714   0.0000000  )
        86        C      tau(  86) = (   0.9485040  -0.3571429   0.0000000  )
        87        C      tau(  87) = (   1.0309826  -0.3571429   0.0000000  )
        88        C      tau(  88) = (   1.0722219  -0.2857143   0.0000000  )
        89        C      tau(  89) = (   1.1547005  -0.2857143   0.0000000  )
        90        C      tau(  90) = (   1.1959398  -0.2142857   0.0000000  )
        91        C      tau(  91) = (   1.2784185  -0.2142857   0.0000000  )
        92        C      tau(  92) = (   1.3196578  -0.1428571   0.0000000  )
        93        C      tau(  93) = (   1.4021364  -0.1428571   0.0000000  )
        94        C      tau(  94) = (   1.4433757  -0.0714286   0.0000000  )
        95        C      tau(  95) = (   1.5258543  -0.0714286   0.0000000  )
        96        C      tau(  96) = (   1.5670936  -0.0000000   0.0000000  )
        97        C      tau(  97) = (   1.6495722  -0.0000000   0.0000000  )

     number of k points=     1  Marzari-Vanderbilt smearing, width (Ry)=  0.0100
                       cart. coord. in units 2pi/alat
        k(    1) = (   0.0000000   0.0000000   0.0000000), wk =   1.0000000

     Dense  grid:  1867248 G-vectors     FFT dimensions: ( 216, 216, 192)

     Estimated max dynamical RAM per process >     170.68 MB

     Estimated total dynamical RAM >      10.67 GB
 ----2D----2D----2D----2D----2D----2D----2D----2D----2D----2D----2D----2D
  The code is running with the 2D cutoff
  Please refer to:
  Sohier, T., Calandra, M., & Mauri, F. (2017), 
  Density functional perturbation theory for gated two-dimensional heterostructures:
  Theoretical developments and application to flexural phonons in graphene.
  Physical Review B, 96(7), 75448. https://doi.org/10.1103/PhysRevB.96.075448
 ----2D----2D----2D----2D----2D----2D----2D----2D----2D----2D----2D----2D
     Generating pointlists ...
     new r_m :   0.0340 (alat units)  1.1098 (a.u.) for type    1
     new r_m :   0.0340 (alat units)  1.1098 (a.u.) for type    2

     Initial potential from superposition of free atoms

     starting charge     387.9957, renormalised to     388.0000

     negative rho (up, down):  3.791E-05 3.676E-05
     Starting wfcs are  388 randomized atomic wfcs

     total cpu time spent up to now is        4.7 secs

     per-process dynamical memory:   227.1 Mb

     Self-consistent Calculation

     iteration #  1     ecut=   100.00 Ry     beta= 0.30
     Davidson diagonalization with overlap
     ethr =  1.00E-02,  avg # of iterations =  2.5

     negative rho (up, down):  2.276E-07 1.855E-07

     total cpu time spent up to now is        9.5 secs

     total energy              =   -1169.02290251 Ry
     estimated scf accuracy    <       8.29208019 Ry

     total magnetization       =     2.00 Bohr mag/cell
     absolute magnetization    =     3.22 Bohr mag/cell

     iteration #  2     ecut=   100.00 Ry     beta= 0.30
     Davidson diagonalization with overlap
     ethr =  2.14E-03,  avg # of iterations =  1.0
     Minimization algorithm failed to find Fermi energy: reverting to bisection
     Possible cause: smearing is larger than the electronic band-gap.

     negative rho (up, down):  4.646E-08 3.180E-08

     total cpu time spent up to now is       12.8 secs

     total energy              =   -1167.50195649 Ry
     estimated scf accuracy    <       3.71082486 Ry

     total magnetization       =     1.65 Bohr mag/cell
     absolute magnetization    =     3.45 Bohr mag/cell

     iteration #  3     ecut=   100.00 Ry     beta= 0.30
     Davidson diagonalization with overlap
     ethr =  9.56E-04,  avg # of iterations =  2.0

     total cpu time spent up to now is       16.6 secs

     total energy              =   -1167.91941735 Ry
     estimated scf accuracy    <       1.13470521 Ry

     total magnetization       =     0.75 Bohr mag/cell
     absolute magnetization    =     1.90 Bohr mag/cell

     iteration #  4     ecut=   100.00 Ry     beta= 0.30
     Davidson diagonalization with overlap
     ethr =  2.92E-04,  avg # of iterations =  3.0

     total cpu time spent up to now is       20.2 secs

     total energy              =   -1168.04081168 Ry
     estimated scf accuracy    <       0.16067950 Ry

     total magnetization       =     1.96 Bohr mag/cell
     absolute magnetization    =     2.84 Bohr mag/cell

     iteration #  5     ecut=   100.00 Ry     beta= 0.30
     Davidson diagonalization with overlap
     ethr =  4.14E-05,  avg # of iterations =  4.5

     total cpu time spent up to now is       23.8 secs

     total energy              =   -1168.04912904 Ry
     estimated scf accuracy    <       0.07958031 Ry

     total magnetization       =     1.87 Bohr mag/cell
     absolute magnetization    =     2.69 Bohr mag/cell

     iteration #  6     ecut=   100.00 Ry     beta= 0.30
     Davidson diagonalization with overlap
     ethr =  2.05E-05,  avg # of iterations =  2.0

     total cpu time spent up to now is       27.1 secs

     total energy              =   -1168.06217436 Ry
     estimated scf accuracy    <       0.02922195 Ry

     total magnetization       =     1.99 Bohr mag/cell
     absolute magnetization    =     2.83 Bohr mag/cell

     iteration #  7     ecut=   100.00 Ry     beta= 0.30
     Davidson diagonalization with overlap
     ethr =  7.53E-06,  avg # of iterations =  4.0

     total cpu time spent up to now is       31.0 secs

     total energy              =   -1168.06548672 Ry
     estimated scf accuracy    <       0.01136191 Ry

     total magnetization       =     1.95 Bohr mag/cell
     absolute magnetization    =     2.79 Bohr mag/cell

     iteration #  8     ecut=   100.00 Ry     beta= 0.30
     Davidson diagonalization with overlap
     ethr =  2.93E-06,  avg # of iterations =  5.5

     total cpu time spent up to now is       34.8 secs

     total energy              =   -1168.06819107 Ry
     estimated scf accuracy    <       0.00571626 Ry

     total magnetization       =     1.86 Bohr mag/cell
     absolute magnetization    =     2.72 Bohr mag/cell

     iteration #  9     ecut=   100.00 Ry     beta= 0.30
     Davidson diagonalization with overlap
     ethr =  1.47E-06,  avg # of iterations =  4.0

     total cpu time spent up to now is       38.3 secs

     total energy              =   -1168.06879134 Ry
     estimated scf accuracy    <       0.00472120 Ry

     total magnetization       =     1.79 Bohr mag/cell
     absolute magnetization    =     2.66 Bohr mag/cell

     iteration # 10     ecut=   100.00 Ry     beta= 0.30
     Davidson diagonalization with overlap
     ethr =  1.22E-06,  avg # of iterations =  2.0

     negative rho (up, down):  1.483E-08 1.331E-08

     total cpu time spent up to now is       41.8 secs

     total energy              =   -1168.06922065 Ry
     estimated scf accuracy    <       0.00184352 Ry

     total magnetization       =     1.73 Bohr mag/cell
     absolute magnetization    =     2.61 Bohr mag/cell

     iteration # 11     ecut=   100.00 Ry     beta= 0.30
     Davidson diagonalization with overlap
     ethr =  4.75E-07,  avg # of iterations =  3.5

     negative rho (up, down):  1.268E-07 1.508E-07

     total cpu time spent up to now is       45.4 secs

     total energy              =   -1168.06995733 Ry
     estimated scf accuracy    <       0.00053559 Ry

     total magnetization       =     1.75 Bohr mag/cell
     absolute magnetization    =     2.61 Bohr mag/cell

     iteration # 12     ecut=   100.00 Ry     beta= 0.30
     Davidson diagonalization with overlap
     c_bands:  1 eigenvalues not converged
     ethr =  1.38E-07,  avg # of iterations = 12.5

     negative rho (up, down):  9.773E-06 1.144E-05

     total cpu time spent up to now is       50.7 secs

     total energy              =   -1168.07053524 Ry
     estimated scf accuracy    <       0.00082214 Ry

     total magnetization       =     1.67 Bohr mag/cell
     absolute magnetization    =     2.52 Bohr mag/cell

     iteration # 13     ecut=   100.00 Ry     beta= 0.30
     Davidson diagonalization with overlap
     ethr =  1.38E-07,  avg # of iterations =  5.0

     negative rho (up, down):  8.962E-06 1.037E-05

     total cpu time spent up to now is       55.2 secs

     total energy              =   -1168.07115680 Ry
     estimated scf accuracy    <       0.00011504 Ry

     total magnetization       =     1.59 Bohr mag/cell
     absolute magnetization    =     2.42 Bohr mag/cell

     iteration # 14     ecut=   100.00 Ry     beta= 0.30
     Davidson diagonalization with overlap
     ethr =  2.96E-08,  avg # of iterations =  5.5

     negative rho (up, down):  5.386E-06 6.214E-06

     total cpu time spent up to now is       60.0 secs

     total energy              =   -1168.07128674 Ry
     estimated scf accuracy    <       0.00002430 Ry

     total magnetization       =     1.60 Bohr mag/cell
     absolute magnetization    =     2.40 Bohr mag/cell

     iteration # 15     ecut=   100.00 Ry     beta= 0.30
     Davidson diagonalization with overlap
     ethr =  6.26E-09,  avg # of iterations =  2.5

     negative rho (up, down):  7.388E-07 8.233E-07

     total cpu time spent up to now is       63.5 secs

     total energy              =   -1168.07130496 Ry
     estimated scf accuracy    <       0.00000789 Ry

     total magnetization       =     1.60 Bohr mag/cell
     absolute magnetization    =     2.40 Bohr mag/cell

     iteration # 16     ecut=   100.00 Ry     beta= 0.30
     Davidson diagonalization with overlap
     ethr =  2.03E-09,  avg # of iterations =  5.0

     negative rho (up, down):  7.681E-07 8.597E-07

     total cpu time spent up to now is       68.0 secs

     total energy              =   -1168.07131479 Ry
     estimated scf accuracy    <       0.00000493 Ry

     total magnetization       =     1.61 Bohr mag/cell
     absolute magnetization    =     2.39 Bohr mag/cell

     iteration # 17     ecut=   100.00 Ry     beta= 0.30
     Davidson diagonalization with overlap
     ethr =  1.27E-09,  avg # of iterations =  4.0

     total cpu time spent up to now is       72.0 secs

     total energy              =   -1168.07132002 Ry
     estimated scf accuracy    <       0.00000151 Ry

     total magnetization       =     1.61 Bohr mag/cell
     absolute magnetization    =     2.39 Bohr mag/cell

     iteration # 18     ecut=   100.00 Ry     beta= 0.30
     Davidson diagonalization with overlap
     ethr =  3.90E-10,  avg # of iterations =  5.0

     total cpu time spent up to now is       77.0 secs

     total energy              =   -1168.07132282 Ry
     estimated scf accuracy    <       0.00000359 Ry

     total magnetization       =     1.62 Bohr mag/cell
     absolute magnetization    =     2.39 Bohr mag/cell

     iteration # 19     ecut=   100.00 Ry     beta= 0.30
     Davidson diagonalization with overlap
     ethr =  3.90E-10,  avg # of iterations =  4.5

     total cpu time spent up to now is       81.1 secs

     total energy              =   -1168.07132418 Ry
     estimated scf accuracy    <       0.00000085 Ry

     total magnetization       =     1.62 Bohr mag/cell
     absolute magnetization    =     2.38 Bohr mag/cell

     iteration # 20     ecut=   100.00 Ry     beta= 0.30
     Davidson diagonalization with overlap
     ethr =  2.20E-10,  avg # of iterations =  4.5

     total cpu time spent up to now is       85.1 secs

     total energy              =   -1168.07132466 Ry
     estimated scf accuracy    <       0.00000078 Ry

     total magnetization       =     1.62 Bohr mag/cell
     absolute magnetization    =     2.38 Bohr mag/cell

     iteration # 21     ecut=   100.00 Ry     beta= 0.30
     Davidson diagonalization with overlap
     ethr =  2.02E-10,  avg # of iterations =  3.5

     negative rho (up, down):  1.154E-07 1.393E-07

     total cpu time spent up to now is       88.7 secs

     total energy              =   -1168.07132488 Ry
     estimated scf accuracy    <       0.00000047 Ry

     total magnetization       =     1.62 Bohr mag/cell
     absolute magnetization    =     2.38 Bohr mag/cell

     iteration # 22     ecut=   100.00 Ry     beta= 0.30
     Davidson diagonalization with overlap
     ethr =  1.22E-10,  avg # of iterations =  4.0

     negative rho (up, down):  3.289E-07 3.875E-07

     total cpu time spent up to now is       92.5 secs

     total energy              =   -1168.07132507 Ry
     estimated scf accuracy    <       0.00000009 Ry

     total magnetization       =     1.62 Bohr mag/cell
     absolute magnetization    =     2.38 Bohr mag/cell

     iteration # 23     ecut=   100.00 Ry     beta= 0.30
     Davidson diagonalization with overlap
     ethr =  2.29E-11,  avg # of iterations =  5.0

     negative rho (up, down):  3.233E-07 3.805E-07

     total cpu time spent up to now is       97.4 secs

     total energy              =   -1168.07132516 Ry
     estimated scf accuracy    <       0.00000003 Ry

     total magnetization       =     1.62 Bohr mag/cell
     absolute magnetization    =     2.38 Bohr mag/cell

     iteration # 24     ecut=   100.00 Ry     beta= 0.30
     Davidson diagonalization with overlap
     ethr =  8.29E-12,  avg # of iterations =  5.0

     negative rho (up, down):  1.497E-07 1.765E-07

     total cpu time spent up to now is      101.7 secs

     total energy              =   -1168.07132520 Ry
     estimated scf accuracy    <       0.00000002 Ry

     total magnetization       =     1.62 Bohr mag/cell
     absolute magnetization    =     2.38 Bohr mag/cell

     iteration # 25     ecut=   100.00 Ry     beta= 0.30
     Davidson diagonalization with overlap
     ethr =  5.99E-12,  avg # of iterations =  5.0

     negative rho (up, down):  5.005E-08 5.965E-08

     total cpu time spent up to now is      106.2 secs

     total energy              =   -1168.07132524 Ry
     estimated scf accuracy    <       0.00000002 Ry

     total magnetization       =     1.62 Bohr mag/cell
     absolute magnetization    =     2.39 Bohr mag/cell

     iteration # 26     ecut=   100.00 Ry     beta= 0.30
     Davidson diagonalization with overlap
     ethr =  4.48E-12,  avg # of iterations =  3.5

     negative rho (up, down):  1.167E-08 1.431E-08

     total cpu time spent up to now is      109.6 secs

     total energy              =   -1168.07132526 Ry
     estimated scf accuracy    <       0.00000002 Ry

     total magnetization       =     1.62 Bohr mag/cell
     absolute magnetization    =     2.39 Bohr mag/cell

     iteration # 27     ecut=   100.00 Ry     beta= 0.30
     Davidson diagonalization with overlap
     ethr =  4.48E-12,  avg # of iterations =  4.0

     total cpu time spent up to now is      113.4 secs

     total energy              =   -1168.07132527 Ry
     estimated scf accuracy    <       0.00000002 Ry

     total magnetization       =     1.62 Bohr mag/cell
     absolute magnetization    =     2.39 Bohr mag/cell

     iteration # 28     ecut=   100.00 Ry     beta= 0.30
     Davidson diagonalization with overlap
     ethr =  4.48E-12,  avg # of iterations =  3.5

     total cpu time spent up to now is      116.8 secs

     total energy              =   -1168.07132526 Ry
     estimated scf accuracy    <       0.00000002 Ry

     total magnetization       =     1.62 Bohr mag/cell
     absolute magnetization    =     2.39 Bohr mag/cell

     iteration # 29     ecut=   100.00 Ry     beta= 0.30
     Davidson diagonalization with overlap
     ethr =  4.48E-12,  avg # of iterations =  3.5

     total cpu time spent up to now is      120.3 secs

     total energy              =   -1168.07132518 Ry
     estimated scf accuracy    <       0.00000002 Ry

     total magnetization       =     1.62 Bohr mag/cell
     absolute magnetization    =     2.39 Bohr mag/cell

     iteration # 30     ecut=   100.00 Ry     beta= 0.30
     Davidson diagonalization with overlap
     ethr =  4.48E-12,  avg # of iterations =  5.0

     total cpu time spent up to now is      124.5 secs

     total energy              =   -1168.07132514 Ry
     estimated scf accuracy    <       0.00000001 Ry

     total magnetization       =     1.62 Bohr mag/cell
     absolute magnetization    =     2.39 Bohr mag/cell

     iteration # 31     ecut=   100.00 Ry     beta= 0.30
     Davidson diagonalization with overlap
     ethr =  3.86E-12,  avg # of iterations =  5.0

     total cpu time spent up to now is      128.9 secs

     total energy              =   -1168.07132501 Ry
     estimated scf accuracy    <          7.6E-09 Ry

     total magnetization       =     1.62 Bohr mag/cell
     absolute magnetization    =     2.39 Bohr mag/cell

     iteration # 32     ecut=   100.00 Ry     beta= 0.30
     Davidson diagonalization with overlap
     ethr =  1.95E-12,  avg # of iterations =  6.5

     total cpu time spent up to now is      134.5 secs

     total energy              =   -1168.07132515 Ry
     estimated scf accuracy    <          1.6E-09 Ry

     total magnetization       =     1.62 Bohr mag/cell
     absolute magnetization    =     2.39 Bohr mag/cell

     iteration # 33     ecut=   100.00 Ry     beta= 0.30
     Davidson diagonalization with overlap
     ethr =  4.16E-13,  avg # of iterations =  5.0

     total cpu time spent up to now is      139.2 secs

     total energy              =   -1168.07132512 Ry
     estimated scf accuracy    <          8.0E-10 Ry

     total magnetization       =     1.62 Bohr mag/cell
     absolute magnetization    =     2.39 Bohr mag/cell

     iteration # 34     ecut=   100.00 Ry     beta= 0.30
     Davidson diagonalization with overlap
     ethr =  2.06E-13,  avg # of iterations =  8.0

     total cpu time spent up to now is      145.3 secs

     total energy              =   -1168.07132514 Ry
     estimated scf accuracy    <          2.4E-10 Ry

     total magnetization       =     1.62 Bohr mag/cell
     absolute magnetization    =     2.39 Bohr mag/cell

     iteration # 35     ecut=   100.00 Ry     beta= 0.30
     Davidson diagonalization with overlap
     ethr =  1.00E-13,  avg # of iterations =  8.0

     Magnetic moment per site  (integrated on atomic sphere of radius R)
     atom   1 (R=0.034)  charge=  1.7122  magn= -0.0017
     atom   2 (R=0.034)  charge=  1.7121  magn=  0.0030
     atom   3 (R=0.034)  charge=  1.7116  magn= -0.0022
     atom   4 (R=0.034)  charge=  1.7117  magn=  0.0034
     atom   5 (R=0.034)  charge=  1.7113  magn= -0.0018
     atom   6 (R=0.034)  charge=  1.7115  magn=  0.0015
     atom   7 (R=0.034)  charge=  1.7107  magn= -0.0020
     atom   8 (R=0.034)  charge=  1.7111  magn=  0.0034
     atom   9 (R=0.034)  charge=  1.7114  magn= -0.0024
     atom  10 (R=0.034)  charge=  1.7115  magn=  0.0063
     atom  11 (R=0.034)  charge=  1.7117  magn= -0.0025
     atom  12 (R=0.034)  charge=  1.7115  magn=  0.0034
     atom  13 (R=0.034)  charge=  1.7121  magn= -0.0021
     atom  14 (R=0.034)  charge=  1.7121  magn=  0.0014
     atom  15 (R=0.034)  charge=  1.7116  magn= -0.0022
     atom  16 (R=0.034)  charge=  1.7117  magn=  0.0034
     atom  17 (R=0.034)  charge=  1.7108  magn= -0.0022
     atom  18 (R=0.034)  charge=  1.7122  magn=  0.0102
     atom  19 (R=0.034)  charge=  1.7106  magn= -0.0032
     atom  20 (R=0.034)  charge=  1.7121  magn=  0.0120
     atom  21 (R=0.034)  charge=  1.7103  magn= -0.0032
     atom  22 (R=0.034)  charge=  1.7084  magn=  0.0060
     atom  23 (R=0.034)  charge=  1.7109  magn= -0.0033
     atom  24 (R=0.034)  charge=  1.7080  magn=  0.0041
     atom  25 (R=0.034)  charge=  1.7108  magn= -0.0044
     atom  26 (R=0.034)  charge=  1.7119  magn=  0.0116
     atom  27 (R=0.034)  charge=  1.7120  magn= -0.0031
     atom  28 (R=0.034)  charge=  1.7119  magn=  0.0100
     atom  29 (R=0.034)  charge=  1.7113  magn= -0.0018
     atom  30 (R=0.034)  charge=  1.7115  magn=  0.0015
     atom  31 (R=0.034)  charge=  1.7106  magn= -0.0032
     atom  32 (R=0.034)  charge=  1.7121  magn=  0.0120
     atom  33 (R=0.034)  charge=  1.7101  magn= -0.0063
     atom  34 (R=0.034)  charge=  1.7126  magn=  0.0374
     atom  35 (R=0.034)  charge=  1.7041  magn= -0.0041
     atom  36 (R=0.034)  charge=  1.5637  magn=  0.0853
     atom  37 (R=0.034)  charge=  1.6896  magn= -0.0122
     atom  38 (R=0.034)  charge=  1.7118  magn=  0.0425
     atom  39 (R=0.034)  charge=  1.7113  magn= -0.0076
     atom  40 (R=0.034)  charge=  1.7112  magn=  0.0130
     atom  41 (R=0.034)  charge=  1.7116  magn= -0.0036
     atom  42 (R=0.034)  charge=  1.7114  magn=  0.0016
     atom  43 (R=0.034)  charge=  1.7107  magn= -0.0020
     atom  44 (R=0.034)  charge=  1.7111  magn=  0.0034
     atom  45 (R=0.034)  charge=  1.7103  magn= -0.0032
     atom  46 (R=0.034)  charge=  1.7084  magn=  0.0060
     atom  47 (R=0.034)  charge=  1.7040  magn= -0.0041
     atom  48 (R=0.034)  charge=  1.5637  magn=  0.0853
     atom  49 (R=0.034)  charge=  1.6034  magn=  0.3071
     atom  50 (R=0.034)  charge=  1.7046  magn= -0.0093
     atom  51 (R=0.034)  charge=  1.7086  magn=  0.0179
     atom  52 (R=0.034)  charge=  1.7115  magn= -0.0025
     atom  53 (R=0.034)  charge=  1.7106  magn=  0.0045
     atom  54 (R=0.034)  charge=  1.7114  magn= -0.0020
     atom  55 (R=0.034)  charge=  1.7107  magn=  0.0043
     atom  56 (R=0.034)  charge=  1.7114  magn= -0.0024
     atom  57 (R=0.034)  charge=  1.7115  magn=  0.0063
     atom  58 (R=0.034)  charge=  1.7109  magn= -0.0033
     atom  59 (R=0.034)  charge=  1.7080  magn=  0.0041
     atom  60 (R=0.034)  charge=  1.6896  magn= -0.0122
     atom  61 (R=0.034)  charge=  1.7118  magn=  0.0425
     atom  62 (R=0.034)  charge=  1.7046  magn= -0.0093
     atom  63 (R=0.034)  charge=  1.7086  magn=  0.0179
     atom  64 (R=0.034)  charge=  1.7121  magn= -0.0082
     atom  65 (R=0.034)  charge=  1.7103  magn=  0.0078
     atom  66 (R=0.034)  charge=  1.7119  magn= -0.0034
     atom  67 (R=0.034)  charge=  1.7107  magn=  0.0019
     atom  68 (R=0.034)  charge=  1.7115  magn= -0.0018
     atom  69 (R=0.034)  charge=  1.7113  magn=  0.0016
     atom  70 (R=0.034)  charge=  1.7117  magn= -0.0025
     atom  71 (R=0.034)  charge=  1.7115  magn=  0.0034
     atom  72 (R=0.034)  charge=  1.7108  magn= -0.0044
     atom  73 (R=0.034)  charge=  1.7119  magn=  0.0116
     atom  74 (R=0.034)  charge=  1.7113  magn= -0.0076
     atom  75 (R=0.034)  charge=  1.7112  magn=  0.0130
     atom  76 (R=0.034)  charge=  1.7115  magn= -0.0025
     atom  77 (R=0.034)  charge=  1.7106  magn=  0.0045
     atom  78 (R=0.034)  charge=  1.7119  magn= -0.0034
     atom  79 (R=0.034)  charge=  1.7107  magn=  0.0019
     atom  80 (R=0.034)  charge=  1.7120  magn= -0.0021
     atom  81 (R=0.034)  charge=  1.7108  magn=  0.0034
     atom  82 (R=0.034)  charge=  1.7117  magn= -0.0017
     atom  83 (R=0.034)  charge=  1.7116  magn=  0.0016
     atom  84 (R=0.034)  charge=  1.7121  magn= -0.0021
     atom  85 (R=0.034)  charge=  1.7121  magn=  0.0014
     atom  86 (R=0.034)  charge=  1.7120  magn= -0.0031
     atom  87 (R=0.034)  charge=  1.7119  magn=  0.0100
     atom  88 (R=0.034)  charge=  1.7116  magn= -0.0036
     atom  89 (R=0.034)  charge=  1.7114  magn=  0.0016
     atom  90 (R=0.034)  charge=  1.7114  magn= -0.0020
     atom  91 (R=0.034)  charge=  1.7107  magn=  0.0043
     atom  92 (R=0.034)  charge=  1.7115  magn= -0.0018
     atom  93 (R=0.034)  charge=  1.7113  magn=  0.0016
     atom  94 (R=0.034)  charge=  1.7117  magn= -0.0017
     atom  95 (R=0.034)  charge=  1.7116  magn=  0.0016
     atom  96 (R=0.034)  charge=  1.7120  magn= -0.0017
     atom  97 (R=0.034)  charge=  1.7120  magn=  0.0040

     total cpu time spent up to now is      151.2 secs

     End of self-consistent calculation

 ------ SPIN UP ------------


          k = 0.0000 0.0000 0.0000 (233409 PWs)   bands (ev):

   -23.8023 -23.3681 -23.3537 -23.3458 -23.3410 -23.3362 -23.1391 -22.4084
   -22.4046 -22.3997 -22.3741 -22.3718 -22.2160 -21.9386 -21.9302 -21.9243
   -21.8902 -21.8899 -21.5501 -20.5696 -20.5421 -20.5391 -20.5389 -20.5359
   -20.5321 -20.5292 -20.5244 -20.5221 -20.4288 -20.4257 -20.0514 -19.6440
   -19.6373 -19.6367 -19.5761 -19.5753 -19.1793 -18.3676 -18.3573 -18.3491
   -18.3218 -18.3185 -18.3099 -18.2923 -18.2858 -18.2824 -18.2045 -18.1811
   -17.5908 -17.2676 -17.2613 -17.2599 -17.1272 -17.1157 -16.8377 -16.3333
   -16.3201 -16.3150 -16.2341 -16.2246 -16.1074 -15.8292 -15.8288 -15.8199
   -15.7312 -15.7274 -15.0996 -14.4145 -14.4127 -14.4031 -14.3962 -14.3956
   -14.3905 -14.3896 -14.3724 -14.3701 -14.3082 -14.2957 -14.1984 -14.1901
   -14.1888 -14.1752 -13.8448 -13.8374 -13.1837 -12.6874 -12.6745 -12.6703
   -12.6002 -12.5948 -12.2843 -12.1488 -12.1438 -12.1258 -12.0178 -12.0104
   -11.8870 -11.8719 -11.6348 -11.6331 -11.6268 -11.6234 -11.6209 -11.6158
   -11.6132 -11.6101 -11.5863 -11.4207 -11.3651 -11.3590 -11.3572 -11.3476
   -11.3384 -11.3358 -11.3292 -11.2081 -11.2007 -11.1917 -11.1278 -10.9656
   -10.9552 -10.6285 -10.6227 -10.6226 -10.6078 -10.3552 -10.3501 -10.2257
   -10.2229 -10.2199 -10.2053 -10.1997 -10.0864 -10.0366  -9.9895  -9.9805
    -9.9784  -9.8474  -9.8451  -9.7218  -9.7049  -9.7018  -9.6995  -9.6850
    -9.6773  -9.6758  -9.6596  -9.6548  -9.6132  -9.3451  -9.3270  -9.3161
    -9.1008  -9.0950  -9.0890  -8.5426  -8.5405  -8.3581  -8.2440  -8.2344
    -8.2203  -8.2184  -8.1304  -8.1229  -8.1192  -8.1154  -8.1148  -8.1104
    -8.1069  -8.1017  -8.0946  -8.0717  -8.0630  -7.7055  -7.4828  -7.4741
    -7.3114  -7.3069  -7.2975  -7.2942  -7.2858  -6.8867  -6.2233  -6.2192
    -6.2146  -6.1909  -6.1829  -6.0106  -5.7976  -5.7963  -5.7854  -5.7805
    -5.7762  -4.8600  -4.6439  -4.3620  -2.8046  -2.8021  -2.7928  -2.7809
    -2.7717  -2.7705  -2.7566  -2.7449  -2.7446  -2.7199  -2.7105  -2.2116
    -1.7633  -1.7571  -1.7507  -1.7302  -1.7158  -1.2342  -0.3177  -0.3144
    -0.3068  -0.2980  -0.2939  -0.2922  -0.2908  -0.2852  -0.2739  -0.2336

 ------ SPIN DOWN ----------


          k = 0.0000 0.0000 0.0000 (233409 PWs)   bands (ev):

   -23.7933 -23.3605 -23.3489 -23.3366 -23.3318 -23.3240 -23.1032 -22.4032
   -22.3954 -22.3892 -22.3603 -22.3488 -22.2004 -21.9294 -21.9195 -21.9138
   -21.8751 -21.8609 -21.4973 -20.5631 -20.5354 -20.5318 -20.5280 -20.5276
   -20.5238 -20.5201 -20.5102 -20.5069 -20.4017 -20.3758 -20.0189 -19.6356
   -19.6249 -19.6194 -19.5579 -19.5395 -19.1297 -18.3624 -18.3403 -18.3350
   -18.3167 -18.3128 -18.3030 -18.2858 -18.2786 -18.2700 -18.1717 -18.1085
   -17.5006 -17.2595 -17.2522 -17.2494 -17.1008 -17.0980 -16.7903 -16.3107
   -16.3091 -16.3080 -16.2094 -16.2093 -16.0911 -15.8220 -15.8217 -15.8107
   -15.6981 -15.6574 -15.0406 -14.4043 -14.4013 -14.3979 -14.3882 -14.3869
   -14.3850 -14.3728 -14.3576 -14.3538 -14.2867 -14.2560 -14.1899 -14.1826
   -14.1819 -14.1661 -13.8088 -13.7887 -13.1176 -12.6730 -12.6586 -12.6558
   -12.5864 -12.5691 -12.2588 -12.1379 -12.1353 -12.1097 -12.0065 -12.0023
   -11.8708 -11.8401 -11.6307 -11.6260 -11.6196 -11.6169 -11.6098 -11.6091
   -11.6042 -11.5967 -11.5547 -11.3947 -11.3455 -11.3436 -11.3399 -11.3370
   -11.3266 -11.3171 -11.3077 -11.2019 -11.1803 -11.1783 -11.0704 -10.9557
   -10.9270 -10.6210 -10.6192 -10.6181 -10.5867 -10.3298 -10.3271 -10.2165
   -10.2055 -10.1993 -10.1781 -10.1677 -10.0464 -10.0079  -9.9758  -9.9704
    -9.9591  -9.8402  -9.8399  -9.7152  -9.6943  -9.6913  -9.6719  -9.6683
    -9.6601  -9.6557  -9.6296  -9.6163  -9.4836  -9.2995  -9.2898  -9.2629
    -9.0947  -9.0845  -9.0701  -8.5246  -8.5097  -8.2358  -8.2302  -8.2085
    -8.2005  -8.1274  -8.1072  -8.1034  -8.0991  -8.0981  -8.0944  -8.0921
    -8.0748  -8.0718  -8.0170  -7.9814  -7.9608  -7.6598  -7.4609  -7.4577
    -7.2988  -7.2906  -7.2831  -7.2504  -7.2245  -6.8129  -6.2092  -6.2040
    -6.1956  -6.1579  -6.1303  -5.9782  -5.7958  -5.7763  -5.7737  -5.7098
    -5.6657  -4.5238  -4.0062  -3.0924  -2.7947  -2.7761  -2.7753  -2.7596
    -2.7555  -2.7546  -2.7399  -2.7331  -2.7249  -2.6326  -2.5748  -2.1733
    -1.7442  -1.7416  -1.7259  -1.6721  -1.6408  -1.1754  -0.9733  -0.3035
    -0.2846  -0.2845  -0.2811  -0.2777  -0.2755  -0.2719  -0.2578  -0.2577

     the Fermi energy is    -4.5742 ev

!    total energy              =   -1168.07132515 Ry
     estimated scf accuracy    <          9.1E-11 Ry
     smearing contrib. (-TS)   =      -0.00135072 Ry
     internal energy E=F+TS    =   -1168.06997443 Ry

     The total energy is F=E-TS. E is the sum of the following terms:
     one-electron contribution =  -13176.44272418 Ry
     hartree contribution      =    6624.25269658 Ry
     xc contribution           =    -415.37690512 Ry
     ewald contribution        =    5799.49695829 Ry

     total magnetization       =     1.62 Bohr mag/cell
     absolute magnetization    =     2.39 Bohr mag/cell

     convergence has been achieved in  35 iterations

     Forces acting on atoms (cartesian axes, Ry/au):

     atom    1 type  1   force =    -0.00035128   -0.00000003    0.00000001
     atom    2 type  1   force =     0.00056148   -0.00000000    0.00000000
     atom    3 type  1   force =    -0.00009436    0.00020284   -0.00000000
     atom    4 type  1   force =    -0.00029152   -0.00034928   -0.00000000
     atom    5 type  1   force =     0.00016962    0.00028665   -0.00000000
     atom    6 type  1   force =    -0.00033449    0.00037528   -0.00000001
     atom    7 type  1   force =    -0.00005313   -0.00121060    0.00000000
     atom    8 type  1   force =     0.00114579    0.00123268    0.00000001
     atom    9 type  1   force =     0.00121668   -0.00012691   -0.00000001
     atom   10 type  1   force =    -0.00226417    0.00367964    0.00000001
     atom   11 type  1   force =    -0.00072100   -0.00096923   -0.00000000
     atom   12 type  1   force =    -0.00235615   -0.00122560   -0.00000001
     atom   13 type  1   force =     0.00147067   -0.00048941    0.00000000
     atom   14 type  1   force =    -0.00002325    0.00029978   -0.00000000
     atom   15 type  1   force =    -0.00009436   -0.00020275   -0.00000000
     atom   16 type  1   force =    -0.00029156    0.00034934   -0.00000000
     atom   17 type  1   force =     0.00069335    0.00000004   -0.00000000
     atom   18 type  1   force =    -0.00185333    0.00000012    0.00000000
     atom   19 type  1   force =     0.00268548    0.00055742    0.00000000
     atom   20 type  1   force =    -0.00538930    0.00421381    0.00000001
     atom   21 type  1   force =    -0.00001622   -0.00533442    0.00000002
     atom   22 type  1   force =     0.00280820    0.01796867   -0.00000001
     atom   23 type  1   force =     0.00217898   -0.00501356    0.00000000
     atom   24 type  1   force =    -0.02263926   -0.00174718    0.00000001
     atom   25 type  1   force =     0.00712278   -0.00275731   -0.00000001
     atom   26 type  1   force =    -0.00068356    0.00548250   -0.00000001
     atom   27 type  1   force =    -0.00169887   -0.00144500   -0.00000001
     atom   28 type  1   force =     0.00083472    0.00096993   -0.00000000
     atom   29 type  1   force =     0.00016961   -0.00028664    0.00000001
     atom   30 type  1   force =    -0.00033455   -0.00037525   -0.00000001
     atom   31 type  1   force =     0.00268553   -0.00055738    0.00000000
     atom   32 type  1   force =    -0.00538951   -0.00421366   -0.00000000
     atom   33 type  1   force =     0.01679081   -0.00000002    0.00000001
     atom   34 type  1   force =    -0.04630279    0.00000006    0.00000000
     atom   35 type  1   force =     0.05913127   -0.04599392    0.00000000
     atom   36 type  2   force =    -0.06475531    0.03784979    0.00000001
     atom   37 type  1   force =     0.02046437   -0.09615786   -0.00000000
     atom   38 type  1   force =     0.01379459    0.02870501   -0.00000000
     atom   39 type  1   force =    -0.00731615   -0.01159790   -0.00000001
     atom   40 type  1   force =     0.00509697    0.00170552   -0.00000000
     atom   41 type  1   force =    -0.00059002   -0.00187039    0.00000001
     atom   42 type  1   force =     0.00032801    0.00013623    0.00000000
     atom   43 type  1   force =    -0.00005323    0.00121077   -0.00000000
     atom   44 type  1   force =     0.00114586   -0.00123288   -0.00000002
     atom   45 type  1   force =    -0.00001629    0.00533531    0.00000000
     atom   46 type  1   force =     0.00280983   -0.01797018    0.00000000
     atom   47 type  1   force =     0.05913104    0.04600066    0.00000001
     atom   48 type  2   force =    -0.06474018   -0.03784796   -0.00000000
     atom   49 type  2   force =     0.09023216   -0.00001140   -0.00000001
     atom   50 type  1   force =    -0.04720003   -0.03007137    0.00000000
     atom   51 type  1   force =     0.01168563   -0.00716148    0.00000001
     atom   52 type  1   force =    -0.00196207    0.00160176   -0.00000001
     atom   53 type  1   force =     0.00019531   -0.00105960    0.00000000
     atom   54 type  1   force =    -0.00046095    0.00057192    0.00000000
     atom   55 type  1   force =     0.00006389   -0.00038282    0.00000000
     atom   56 type  1   force =     0.00121665    0.00012689    0.00000001
     atom   57 type  1   force =    -0.00226428   -0.00367984    0.00000001
     atom   58 type  1   force =     0.00217884    0.00501372   -0.00000001
     atom   59 type  1   force =    -0.02263971    0.00174699    0.00000001
     atom   60 type  1   force =     0.02046555    0.09615981   -0.00000000
     atom   61 type  1   force =     0.01379506   -0.02870595   -0.00000000
     atom   62 type  1   force =    -0.04719690    0.03007515   -0.00000001
     atom   63 type  1   force =     0.01168560    0.00715988    0.00000000
     atom   64 type  1   force =    -0.00429854    0.00000010    0.00000001
     atom   65 type  1   force =     0.00293731   -0.00000002    0.00000001
     atom   66 type  1   force =    -0.00009520   -0.00088251   -0.00000000
     atom   67 type  1   force =     0.00019831    0.00002831   -0.00000000
     atom   68 type  1   force =     0.00033010   -0.00048361    0.00000000
     atom   69 type  1   force =    -0.00029028   -0.00058148    0.00000000
     atom   70 type  1   force =    -0.00072103    0.00096923    0.00000002
     atom   71 type  1   force =    -0.00235613    0.00122555   -0.00000002
     atom   72 type  1   force =     0.00712317    0.00275743   -0.00000001
     atom   73 type  1   force =    -0.00068344   -0.00548264    0.00000000
     atom   74 type  1   force =    -0.00731611    0.01159809    0.00000001
     atom   75 type  1   force =     0.00509714   -0.00170537    0.00000000
     atom   76 type  1   force =    -0.00196174   -0.00160149   -0.00000000
     atom   77 type  1   force =     0.00019526    0.00105940    0.00000001
     atom   78 type  1   force =    -0.00009519    0.00088247    0.00000000
     atom   79 type  1   force =     0.00019833   -0.00002835   -0.00000000
     atom   80 type  1   force =     0.00027551   -0.00000000   -0.00000000
     atom   81 type  1   force =    -0.00031907   -0.00000009   -0.00000000
     atom   82 type  1   force =     0.00008711    0.00020159    0.00000000
     atom   83 type  1   force =    -0.00030352   -0.00040364   -0.00000000
     atom   84 type  1   force =     0.00147074    0.00048940    0.00000000
     atom   85 type  1   force =    -0.00002323   -0.00029984    0.00000000
     atom   86 type  1   force =    -0.00169885    0.00144509    0.00000000
     atom   87 type  1   force =     0.00083489   -0.00096994   -0.00000000
     atom   88 type  1   force =    -0.00059002    0.00187045    0.00000000
     atom   89 type  1   force =     0.00032805   -0.00013619   -0.00000000
     atom   90 type  1   force =    -0.00046089   -0.00057180    0.00000000
     atom   91 type  1   force =     0.00006394    0.00038273   -0.00000000
     atom   92 type  1   force =     0.00033013    0.00048358    0.00000000
     atom   93 type  1   force =    -0.00029022    0.00058137   -0.00000001
     atom   94 type  1   force =     0.00008710   -0.00020161   -0.00000000
     atom   95 type  1   force =    -0.00030348    0.00040352   -0.00000001
     atom   96 type  1   force =    -0.00049630   -0.00000004    0.00000000
     atom   97 type  1   force =    -0.00083040   -0.00000007   -0.00000000

     Total force =     0.252422     Total SCF correction =     0.000012

     BFGS Geometry Optimization
     Energy error            =      6.4E-02 Ry
     Gradient error          =      9.6E-02 Ry/Bohr

     number of scf cycles    =   1
     number of bfgs steps    =   0

     energy             new  =   -1168.0713251505 Ry

     new trust radius        =       0.0983135162 bohr
     new conv_thr            =            1.0E-10 Ry


ATOMIC_POSITIONS (crystal)
C                0.0476128310        0.0476128289        0.0000000002
C                0.0952480335        0.0952480333        0.0000000001
C                0.0476111589        0.1904807387       -0.0000000002
C                0.0952436433        0.2380793701       -0.0000000000
C                0.0476132619        0.3333451234       -0.0000000001
C                0.0952206696        0.3809579657       -0.0000000003
C                0.0476552212        0.4761524219        0.0000000000
C                0.0952205847        0.5238675953        0.0000000003
C                0.0476444738        0.6190652635       -0.0000000003
C                0.0950852107        0.6667393992        0.0000000002
C                0.0476360000        0.7618622861       -0.0000000001
C                0.0952339648        0.8094445317       -0.0000000003
C                0.0476600827        0.9047729316        0.0000000000
C                0.0952284932        0.9523897315       -0.0000000000
C                0.1904807360        0.0476111616       -0.0000000000
C                0.2380793675        0.0952436444       -0.0000000000
C                0.1904884616        0.1904884641       -0.0000000001
C                0.2380624304        0.2380624375        0.0000000000
C                0.1905066347        0.3333979557        0.0000000000
C                0.2378706624        0.3809861744        0.0000000002
C                0.1906394431        0.4760266494        0.0000000005
C                0.2375940700        0.5244101028       -0.0000000004
C                0.1906684616        0.6189324841        0.0000000000
C                0.2377480853        0.6662123858        0.0000000003
C                0.1906867963        0.7619463036       -0.0000000004
C                0.2379150596        0.8096797899       -0.0000000002
C                0.1904904204        0.9046875346       -0.0000000004
C                0.2380802773        0.9524254626       -0.0000000001
C                0.3333451229        0.0476132622        0.0000000002
C                0.3809579637        0.0952206696       -0.0000000005
C                0.3333979553        0.1905066369        0.0000000001
C                0.3809861664        0.2378706633       -0.0000000002
C                0.3336305328        0.3336305314        0.0000000002
C                0.3801328154        0.3801328193        0.0000000000
C                0.3357900186        0.4758270486        0.0000000001
C1               0.3803838538        0.5220857012        0.0000000003
C                0.3366435097        0.6164618850       -0.0000000000
C                0.3803165239        0.6677908548       -0.0000000001
C                0.3335593988        0.7614197032       -0.0000000002
C                0.3809903110        0.8096663132       -0.0000000000
C                0.3333802313        0.9046941198        0.0000000003
C                0.3809540105        0.9523909345        0.0000000001
C                0.4761524149        0.0476552245       -0.0000000001
C                0.5238676024        0.0952205800       -0.0000000006
C                0.4760266210        0.1906394691        0.0000000002
C                0.5244101780        0.2375940525        0.0000000001
C                0.4758268376        0.3357902214        0.0000000004
C1               0.5220859130        0.3803841777       -0.0000000001
C1               0.5254069908        0.5254062915       -0.0000000004
C                0.4762769430        0.6172902626        0.0000000001
C                0.5242359133        0.6666539508        0.0000000002
C                0.4761066414        0.7619191392       -0.0000000003
C                0.5238454655        0.8094947817        0.0000000001
C                0.4761647838        0.9047712796        0.0000000001
C                0.5238223911        0.9523703469        0.0000000001
C                0.6190652639        0.0476444725        0.0000000004
C                0.6667394032        0.0950852026        0.0000000003
C                0.6189324768        0.1906684641       -0.0000000004
C                0.6662123834        0.2377480714        0.0000000004
C                0.6164618461        0.3366435905       -0.0000000001
C                0.6677908919        0.3803165034       -0.0000000001
C                0.6172902022        0.4762771143       -0.0000000003
C                0.6666539991        0.5242358636        0.0000000001
C                0.6189715314        0.6189715376        0.0000000002
C                0.6667186581        0.6667186567        0.0000000003
C                0.6190729896        0.7618760213       -0.0000000001
C                0.6666693087        0.8095281877       -0.0000000000
C                0.6190682882        0.9047529212        0.0000000001
C                0.6666793556        0.9523579877        0.0000000001
C                0.7618622854        0.0476359995        0.0000000006
C                0.8094445334        0.0952339638       -0.0000000005
C                0.7619463067        0.1906868071       -0.0000000002
C                0.8096797964        0.2379150573        0.0000000000
C                0.7614196982        0.3335594055        0.0000000003
C                0.8096663117        0.3809903185        0.0000000001
C                0.7619191367        0.4761066556       -0.0000000001
C                0.8094947870        0.5238454586        0.0000000003
C                0.7618760227        0.6190729885        0.0000000000
C                0.8095281889        0.6666693081       -0.0000000001
C                0.7619096384        0.7619096383       -0.0000000001
C                0.8095181648        0.8095181592       -0.0000000000
C                0.7619001233        0.9047696269        0.0000000000
C                0.8095308117        0.9523632054       -0.0000000001
C                0.9047729334        0.0476600835        0.0000000001
C                0.9523897337        0.0952284917        0.0000000000
C                0.9046875322        0.1904904235        0.0000000001
C                0.9524254659        0.2380802797       -0.0000000000
C                0.9046941182        0.3333802330        0.0000000000
C                0.9523909342        0.3809540121       -0.0000000001
C                0.9047712771        0.4761647884        0.0000000001
C                0.9523703507        0.5238223889       -0.0000000000
C                0.9047529228        0.6190682877        0.0000000001
C                0.9523579921        0.6666793532       -0.0000000002
C                0.9047696272        0.7619001228       -0.0000000001
C                0.9523632098        0.8095308088       -0.0000000002
C                0.9047531216        0.9047531190        0.0000000000
C                0.9523662563        0.9523662523       -0.0000000001



     Writing config-only to output data dir /home/gregb26/links/scratch/qe_tmp/vacancy_relaxed/series/7x7/nspin2/vac_7x7_relax_nspin2.save/ :
     XML data file
     NEW-OLD atomic charge density approx. for the potential

     negative rho (up, down):  7.699E-06 7.967E-06
     Generating pointlists ...
     new r_m :   0.0325 (alat units)  1.0587 (a.u.) for type    1
     new r_m :   0.0325 (alat units)  1.0587 (a.u.) for type    2

     total cpu time spent up to now is      154.3 secs

     per-process dynamical memory:   280.9 Mb

     Self-consistent Calculation

     iteration #  1     ecut=   100.00 Ry     beta= 0.30
     Davidson diagonalization with overlap
     ethr =  1.00E-06,  avg # of iterations = 15.5

     negative rho (up, down):  6.851E-06 5.983E-06

     total cpu time spent up to now is      165.7 secs

     total energy              =   -1168.08511827 Ry
     estimated scf accuracy    <       0.02427618 Ry

     total magnetization       =     1.53 Bohr mag/cell
     absolute magnetization    =     2.27 Bohr mag/cell

     iteration #  2     ecut=   100.00 Ry     beta= 0.30
     Davidson diagonalization with overlap
     ethr =  6.26E-06,  avg # of iterations =  3.0

     negative rho (up, down):  5.763E-06 5.039E-06

     total cpu time spent up to now is      169.3 secs

     total energy              =   -1168.08557260 Ry
     estimated scf accuracy    <       0.02762528 Ry

     total magnetization       =     0.79 Bohr mag/cell
     absolute magnetization    =     1.65 Bohr mag/cell

     iteration #  3     ecut=   100.00 Ry     beta= 0.30
     Davidson diagonalization with overlap
     ethr =  6.26E-06,  avg # of iterations =  2.0

     negative rho (up, down):  3.714E-06 3.261E-06

     total cpu time spent up to now is      172.6 secs

     total energy              =   -1168.08736136 Ry
     estimated scf accuracy    <       0.00772967 Ry

     total magnetization       =     1.65 Bohr mag/cell
     absolute magnetization    =     2.36 Bohr mag/cell

     iteration #  4     ecut=   100.00 Ry     beta= 0.30
     Davidson diagonalization with overlap
     ethr =  1.99E-06,  avg # of iterations =  2.0

     negative rho (up, down):  1.661E-06 1.475E-06

     total cpu time spent up to now is      175.9 secs

     total energy              =   -1168.08799066 Ry
     estimated scf accuracy    <       0.00133045 Ry

     total magnetization       =     1.29 Bohr mag/cell
     absolute magnetization    =     2.04 Bohr mag/cell

     iteration #  5     ecut=   100.00 Ry     beta= 0.30
     Davidson diagonalization with overlap
     ethr =  3.43E-07,  avg # of iterations =  4.0

     negative rho (up, down):  7.590E-07 6.846E-07

     total cpu time spent up to now is      179.5 secs

     total energy              =   -1168.08814456 Ry
     estimated scf accuracy    <       0.00032948 Ry

     total magnetization       =     1.31 Bohr mag/cell
     absolute magnetization    =     2.03 Bohr mag/cell

     iteration #  6     ecut=   100.00 Ry     beta= 0.30
     Davidson diagonalization with overlap
     ethr =  8.49E-08,  avg # of iterations =  3.0

     negative rho (up, down):  2.597E-07 2.400E-07

     total cpu time spent up to now is      182.9 secs

     total energy              =   -1168.08820328 Ry
     estimated scf accuracy    <       0.00016415 Ry

     total magnetization       =     1.30 Bohr mag/cell
     absolute magnetization    =     2.02 Bohr mag/cell

     iteration #  7     ecut=   100.00 Ry     beta= 0.30
     Davidson diagonalization with overlap
     ethr =  4.23E-08,  avg # of iterations =  4.5

     negative rho (up, down):  5.402E-08 5.223E-08

     total cpu time spent up to now is      186.4 secs

     total energy              =   -1168.08824369 Ry
     estimated scf accuracy    <       0.00007507 Ry

     total magnetization       =     1.30 Bohr mag/cell
     absolute magnetization    =     2.00 Bohr mag/cell

     iteration #  8     ecut=   100.00 Ry     beta= 0.30
     Davidson diagonalization with overlap
     ethr =  1.93E-08,  avg # of iterations =  3.5

     total cpu time spent up to now is      190.0 secs

     total energy              =   -1168.08827336 Ry
     estimated scf accuracy    <       0.00006606 Ry

     total magnetization       =     1.28 Bohr mag/cell
     absolute magnetization    =     1.97 Bohr mag/cell

     iteration #  9     ecut=   100.00 Ry     beta= 0.30
     Davidson diagonalization with overlap
     ethr =  1.70E-08,  avg # of iterations =  3.5

     negative rho (up, down):  6.060E-08 4.632E-08

     total cpu time spent up to now is      193.5 secs

     total energy              =   -1168.08829491 Ry
     estimated scf accuracy    <       0.00004637 Ry

     total magnetization       =     1.27 Bohr mag/cell
     absolute magnetization    =     1.95 Bohr mag/cell

     iteration # 10     ecut=   100.00 Ry     beta= 0.30
     Davidson diagonalization with overlap
     ethr =  1.20E-08,  avg # of iterations =  4.0

     negative rho (up, down):  7.731E-08 5.838E-08

     total cpu time spent up to now is      197.3 secs

     total energy              =   -1168.08831390 Ry
     estimated scf accuracy    <       0.00001985 Ry

     total magnetization       =     1.26 Bohr mag/cell
     absolute magnetization    =     1.92 Bohr mag/cell

     iteration # 11     ecut=   100.00 Ry     beta= 0.30
     Davidson diagonalization with overlap
     ethr =  5.12E-09,  avg # of iterations =  4.5

     negative rho (up, down):  4.839E-08 3.578E-08

     total cpu time spent up to now is      201.4 secs

     total energy              =   -1168.08832275 Ry
     estimated scf accuracy    <       0.00000751 Ry

     total magnetization       =     1.25 Bohr mag/cell
     absolute magnetization    =     1.89 Bohr mag/cell

     iteration # 12     ecut=   100.00 Ry     beta= 0.30
     Davidson diagonalization with overlap
     ethr =  1.94E-09,  avg # of iterations =  4.5

     negative rho (up, down):  2.122E-08 1.465E-08

     total cpu time spent up to now is      205.8 secs

     total energy              =   -1168.08832609 Ry
     estimated scf accuracy    <       0.00000297 Ry

     total magnetization       =     1.24 Bohr mag/cell
     absolute magnetization    =     1.87 Bohr mag/cell

     iteration # 13     ecut=   100.00 Ry     beta= 0.30
     Davidson diagonalization with overlap
     ethr =  7.65E-10,  avg # of iterations =  5.5

     total cpu time spent up to now is      210.9 secs

     total energy              =   -1168.08833402 Ry
     estimated scf accuracy    <       0.00000016 Ry

     total magnetization       =     1.22 Bohr mag/cell
     absolute magnetization    =     1.84 Bohr mag/cell

     iteration # 14     ecut=   100.00 Ry     beta= 0.30
     Davidson diagonalization with overlap
     ethr =  4.01E-11,  avg # of iterations =  6.0

     total cpu time spent up to now is      216.4 secs

     total energy              =   -1168.08833425 Ry
     estimated scf accuracy    <       0.00000005 Ry

     total magnetization       =     1.22 Bohr mag/cell
     absolute magnetization    =     1.83 Bohr mag/cell

     iteration # 15     ecut=   100.00 Ry     beta= 0.30
     Davidson diagonalization with overlap
     ethr =  1.38E-11,  avg # of iterations =  5.5

     total cpu time spent up to now is      221.0 secs

     total energy              =   -1168.08833423 Ry
     estimated scf accuracy    <       0.00000004 Ry

     total magnetization       =     1.22 Bohr mag/cell
     absolute magnetization    =     1.83 Bohr mag/cell

     iteration # 16     ecut=   100.00 Ry     beta= 0.30
     Davidson diagonalization with overlap
     ethr =  9.49E-12,  avg # of iterations =  6.0

     total cpu time spent up to now is      226.8 secs

     total energy              =   -1168.08833442 Ry
     estimated scf accuracy    <       0.00000001 Ry

     total magnetization       =     1.22 Bohr mag/cell
     absolute magnetization    =     1.82 Bohr mag/cell

     iteration # 17     ecut=   100.00 Ry     beta= 0.30
     Davidson diagonalization with overlap
     ethr =  3.25E-12,  avg # of iterations =  4.5

     total cpu time spent up to now is      231.4 secs

     total energy              =   -1168.08833444 Ry
     estimated scf accuracy    <          4.0E-09 Ry

     total magnetization       =     1.22 Bohr mag/cell
     absolute magnetization    =     1.82 Bohr mag/cell

     iteration # 18     ecut=   100.00 Ry     beta= 0.30
     Davidson diagonalization with overlap
     ethr =  1.03E-12,  avg # of iterations =  6.0

     total cpu time spent up to now is      237.0 secs

     total energy              =   -1168.08833445 Ry
     estimated scf accuracy    <          1.6E-09 Ry

     total magnetization       =     1.22 Bohr mag/cell
     absolute magnetization    =     1.82 Bohr mag/cell

     iteration # 19     ecut=   100.00 Ry     beta= 0.30
     Davidson diagonalization with overlap
     ethr =  4.16E-13,  avg # of iterations =  6.0

     total cpu time spent up to now is      242.4 secs

     total energy              =   -1168.08833445 Ry
     estimated scf accuracy    <          7.9E-10 Ry

     total magnetization       =     1.22 Bohr mag/cell
     absolute magnetization    =     1.82 Bohr mag/cell

     iteration # 20     ecut=   100.00 Ry     beta= 0.30
     Davidson diagonalization with overlap
     ethr =  2.04E-13,  avg # of iterations =  5.5

     total cpu time spent up to now is      247.6 secs

     total energy              =   -1168.08833445 Ry
     estimated scf accuracy    <          1.7E-10 Ry

     total magnetization       =     1.22 Bohr mag/cell
     absolute magnetization    =     1.82 Bohr mag/cell

     iteration # 21     ecut=   100.00 Ry     beta= 0.30
     Davidson diagonalization with overlap
     ethr =  1.00E-13,  avg # of iterations =  4.5

     total cpu time spent up to now is      252.4 secs

     total energy              =   -1168.08833446 Ry
     estimated scf accuracy    <          1.1E-10 Ry

     total magnetization       =     1.22 Bohr mag/cell
     absolute magnetization    =     1.82 Bohr mag/cell

     iteration # 22     ecut=   100.00 Ry     beta= 0.30
     Davidson diagonalization with overlap
     ethr =  1.00E-13,  avg # of iterations =  4.0

     Magnetic moment per site  (integrated on atomic sphere of radius R)
     atom   1 (R=0.032)  charge=  1.5261  magn= -0.0013
     atom   2 (R=0.032)  charge=  1.5259  magn=  0.0022
     atom   3 (R=0.032)  charge=  1.5266  magn= -0.0018
     atom   4 (R=0.032)  charge=  1.5260  magn=  0.0030
     atom   5 (R=0.032)  charge=  1.5270  magn= -0.0015
     atom   6 (R=0.032)  charge=  1.5266  magn=  0.0012
     atom   7 (R=0.032)  charge=  1.5267  magn= -0.0016
     atom   8 (R=0.032)  charge=  1.5252  magn=  0.0029
     atom   9 (R=0.032)  charge=  1.5275  magn= -0.0018
     atom  10 (R=0.032)  charge=  1.5256  magn=  0.0057
     atom  11 (R=0.032)  charge=  1.5271  magn= -0.0018
     atom  12 (R=0.032)  charge=  1.5242  magn=  0.0030
     atom  13 (R=0.032)  charge=  1.5254  magn= -0.0016
     atom  14 (R=0.032)  charge=  1.5263  magn=  0.0010
     atom  15 (R=0.032)  charge=  1.5266  magn= -0.0018
     atom  16 (R=0.032)  charge=  1.5260  magn=  0.0030
     atom  17 (R=0.032)  charge=  1.5273  magn= -0.0019
     atom  18 (R=0.032)  charge=  1.5262  magn=  0.0093
     atom  19 (R=0.032)  charge=  1.5280  magn= -0.0027
     atom  20 (R=0.032)  charge=  1.5265  magn=  0.0108
     atom  21 (R=0.032)  charge=  1.5260  magn= -0.0027
     atom  22 (R=0.032)  charge=  1.5099  magn=  0.0045
     atom  23 (R=0.032)  charge=  1.5345  magn= -0.0021
     atom  24 (R=0.032)  charge=  1.5054  magn=  0.0027
     atom  25 (R=0.032)  charge=  1.5226  magn= -0.0030
     atom  26 (R=0.032)  charge=  1.5275  magn=  0.0091
     atom  27 (R=0.032)  charge=  1.5264  magn= -0.0024
     atom  28 (R=0.032)  charge=  1.5264  magn=  0.0081
     atom  29 (R=0.032)  charge=  1.5270  magn= -0.0015
     atom  30 (R=0.032)  charge=  1.5266  magn=  0.0012
     atom  31 (R=0.032)  charge=  1.5280  magn= -0.0027
     atom  32 (R=0.032)  charge=  1.5265  magn=  0.0108
     atom  33 (R=0.032)  charge=  1.5345  magn= -0.0050
     atom  34 (R=0.032)  charge=  1.5369  magn=  0.0301
     atom  35 (R=0.032)  charge=  1.5300  magn= -0.0048
     atom  36 (R=0.032)  charge=  1.4466  magn=  0.0493
     atom  37 (R=0.032)  charge=  1.5026  magn= -0.0083
     atom  38 (R=0.032)  charge=  1.5336  magn=  0.0313
     atom  39 (R=0.032)  charge=  1.5293  magn= -0.0052
     atom  40 (R=0.032)  charge=  1.5268  magn=  0.0103
     atom  41 (R=0.032)  charge=  1.5263  magn= -0.0027
     atom  42 (R=0.032)  charge=  1.5270  magn=  0.0013
     atom  43 (R=0.032)  charge=  1.5267  magn= -0.0016
     atom  44 (R=0.032)  charge=  1.5252  magn=  0.0029
     atom  45 (R=0.032)  charge=  1.5260  magn= -0.0027
     atom  46 (R=0.032)  charge=  1.5099  magn=  0.0045
     atom  47 (R=0.032)  charge=  1.5300  magn= -0.0048
     atom  48 (R=0.032)  charge=  1.4466  magn=  0.0493
     atom  49 (R=0.032)  charge=  1.4706  magn=  0.1950
     atom  50 (R=0.032)  charge=  1.5247  magn= -0.0075
     atom  51 (R=0.032)  charge=  1.5158  magn=  0.0140
     atom  52 (R=0.032)  charge=  1.5255  magn= -0.0018
     atom  53 (R=0.032)  charge=  1.5269  magn=  0.0036
     atom  54 (R=0.032)  charge=  1.5263  magn= -0.0016
     atom  55 (R=0.032)  charge=  1.5266  magn=  0.0039
     atom  56 (R=0.032)  charge=  1.5275  magn= -0.0018
     atom  57 (R=0.032)  charge=  1.5256  magn=  0.0057
     atom  58 (R=0.032)  charge=  1.5345  magn= -0.0021
     atom  59 (R=0.032)  charge=  1.5054  magn=  0.0027
     atom  60 (R=0.032)  charge=  1.5026  magn= -0.0083
     atom  61 (R=0.032)  charge=  1.5336  magn=  0.0313
     atom  62 (R=0.032)  charge=  1.5247  magn= -0.0075
     atom  63 (R=0.032)  charge=  1.5158  magn=  0.0140
     atom  64 (R=0.032)  charge=  1.5310  magn= -0.0050
     atom  65 (R=0.032)  charge=  1.5279  magn=  0.0065
     atom  66 (R=0.032)  charge=  1.5268  magn= -0.0023
     atom  67 (R=0.032)  charge=  1.5278  magn=  0.0015
     atom  68 (R=0.032)  charge=  1.5267  magn= -0.0015
     atom  69 (R=0.032)  charge=  1.5269  magn=  0.0014
     atom  70 (R=0.032)  charge=  1.5271  magn= -0.0018
     atom  71 (R=0.032)  charge=  1.5242  magn=  0.0030
     atom  72 (R=0.032)  charge=  1.5226  magn= -0.0030
     atom  73 (R=0.032)  charge=  1.5275  magn=  0.0091
     atom  74 (R=0.032)  charge=  1.5293  magn= -0.0052
     atom  75 (R=0.032)  charge=  1.5268  magn=  0.0103
     atom  76 (R=0.032)  charge=  1.5255  magn= -0.0018
     atom  77 (R=0.032)  charge=  1.5269  magn=  0.0036
     atom  78 (R=0.032)  charge=  1.5268  magn= -0.0023
     atom  79 (R=0.032)  charge=  1.5278  magn=  0.0015
     atom  80 (R=0.032)  charge=  1.5264  magn= -0.0015
     atom  81 (R=0.032)  charge=  1.5271  magn=  0.0031
     atom  82 (R=0.032)  charge=  1.5262  magn= -0.0013
     atom  83 (R=0.032)  charge=  1.5263  magn=  0.0013
     atom  84 (R=0.032)  charge=  1.5254  magn= -0.0016
     atom  85 (R=0.032)  charge=  1.5263  magn=  0.0010
     atom  86 (R=0.032)  charge=  1.5264  magn= -0.0024
     atom  87 (R=0.032)  charge=  1.5264  magn=  0.0081
     atom  88 (R=0.032)  charge=  1.5263  magn= -0.0027
     atom  89 (R=0.032)  charge=  1.5270  magn=  0.0013
     atom  90 (R=0.032)  charge=  1.5263  magn= -0.0016
     atom  91 (R=0.032)  charge=  1.5266  magn=  0.0039
     atom  92 (R=0.032)  charge=  1.5267  magn= -0.0015
     atom  93 (R=0.032)  charge=  1.5269  magn=  0.0014
     atom  94 (R=0.032)  charge=  1.5262  magn= -0.0013
     atom  95 (R=0.032)  charge=  1.5263  magn=  0.0013
     atom  96 (R=0.032)  charge=  1.5262  magn= -0.0014
     atom  97 (R=0.032)  charge=  1.5254  magn=  0.0036

     total cpu time spent up to now is      256.1 secs

     End of self-consistent calculation

 ------ SPIN UP ------------


          k = 0.0000 0.0000 0.0000 (233409 PWs)   bands (ev):

   -23.8020 -23.3632 -23.3583 -23.3435 -23.3371 -23.3337 -23.1722 -22.4091
   -22.4050 -22.3975 -22.3943 -22.3737 -22.2326 -21.9420 -21.9332 -21.9245
   -21.9105 -21.9042 -21.6202 -20.5955 -20.5914 -20.5508 -20.5340 -20.5292
   -20.5250 -20.5232 -20.5227 -20.5091 -20.4928 -20.4715 -20.0801 -19.6722
   -19.6531 -19.6209 -19.6151 -19.5977 -19.2503 -18.4141 -18.3872 -18.3372
   -18.3309 -18.3185 -18.3105 -18.2968 -18.2864 -18.2750 -18.2562 -18.2544
   -17.6774 -17.2769 -17.2576 -17.2569 -17.1720 -17.1322 -16.8046 -16.3738
   -16.3663 -16.3465 -16.2293 -16.2063 -16.1281 -15.8770 -15.8202 -15.8198
   -15.7290 -15.7278 -15.0395 -14.4764 -14.4587 -14.4478 -14.4300 -14.3958
   -14.3936 -14.3921 -14.3876 -14.3805 -14.3266 -14.3207 -14.2179 -14.2016
   -14.1726 -14.1670 -13.8495 -13.7983 -13.1316 -12.7667 -12.7389 -12.7254
   -12.5676 -12.5643 -12.2981 -12.2021 -12.1346 -12.1297 -12.0269 -12.0130
   -11.8862 -11.8598 -11.7403 -11.6653 -11.6596 -11.6434 -11.6190 -11.6178
   -11.6035 -11.5896 -11.5553 -11.4576 -11.3964 -11.3783 -11.3501 -11.3476
   -11.3363 -11.3320 -11.3287 -11.2597 -11.2396 -11.1919 -11.1588 -10.9429
   -10.9321 -10.6934 -10.6308 -10.6277 -10.5917 -10.4074 -10.3799 -10.2260
   -10.2253 -10.2177 -10.2143 -10.2042 -10.1321 -10.0532 -10.0424 -10.0108
    -9.9917  -9.8440  -9.8365  -9.7686  -9.7478  -9.7388  -9.6936  -9.6891
    -9.6783  -9.6639  -9.6566  -9.6110  -9.5779  -9.4133  -9.3992  -9.3673
    -9.1335  -9.1150  -9.1080  -8.5655  -8.5478  -8.3020  -8.2746  -8.2702
    -8.1731  -8.1626  -8.1617  -8.1529  -8.1470  -8.1227  -8.1071  -8.1062
    -8.1040  -8.0818  -8.0799  -8.0526  -7.9619  -7.7211  -7.5081  -7.4864
    -7.3384  -7.3325  -7.3171  -7.2828  -7.2664  -6.9227  -6.2648  -6.2422
    -6.2040  -6.1954  -6.1876  -6.0168  -5.8367  -5.8318  -5.7942  -5.7935
    -5.7381  -4.7826  -4.5930  -4.1042  -2.8823  -2.8031  -2.7914  -2.7782
    -2.7674  -2.7628  -2.7619  -2.7537  -2.7488  -2.6651  -2.6384  -2.1734
    -1.8216  -1.7914  -1.7302  -1.6889  -1.6636  -1.1548  -0.9763  -0.4020
    -0.3553  -0.3394  -0.2972  -0.2905  -0.2794  -0.2680  -0.2679  -0.2646

 ------ SPIN DOWN ----------


          k = 0.0000 0.0000 0.0000 (233409 PWs)   bands (ev):

   -23.7927 -23.3523 -23.3470 -23.3368 -23.3296 -23.3275 -23.1395 -22.4005
   -22.3901 -22.3882 -22.3769 -22.3624 -22.2176 -21.9307 -21.9157 -21.9100
   -21.9017 -21.8907 -21.5801 -20.5760 -20.5637 -20.5412 -20.5283 -20.5245
   -20.5190 -20.5170 -20.5064 -20.4811 -20.4809 -20.4581 -20.0549 -19.6545
   -19.6388 -19.6092 -19.5936 -19.5881 -19.2174 -18.3896 -18.3566 -18.3278
   -18.3235 -18.3149 -18.3048 -18.2906 -18.2772 -18.2656 -18.2452 -18.2252
   -17.6133 -17.2707 -17.2499 -17.2499 -17.1522 -17.1218 -16.7759 -16.3640
   -16.3602 -16.3303 -16.2098 -16.1947 -16.1179 -15.8686 -15.8128 -15.8125
   -15.7087 -15.6842 -14.9990 -14.4576 -14.4426 -14.4321 -14.4163 -14.3911
   -14.3874 -14.3837 -14.3814 -14.3685 -14.3163 -14.2981 -14.2131 -14.1980
   -14.1670 -14.1628 -13.8096 -13.7800 -13.0840 -12.7533 -12.7221 -12.7135
   -12.5544 -12.5494 -12.2803 -12.1836 -12.1269 -12.1232 -12.0169 -12.0049
   -11.8701 -11.8372 -11.7255 -11.6551 -11.6530 -11.6338 -11.6148 -11.6122
   -11.5856 -11.5818 -11.5506 -11.4391 -11.3827 -11.3624 -11.3360 -11.3311
   -11.3214 -11.3180 -11.3129 -11.2500 -11.2280 -11.1855 -11.1100 -10.9251
   -10.9223 -10.6802 -10.6272 -10.6212 -10.5864 -10.3839 -10.3620 -10.2085
   -10.2016 -10.1993 -10.1919 -10.1827 -10.1073 -10.0322 -10.0278  -9.9942
    -9.9816  -9.8373  -9.8325  -9.7642  -9.7374  -9.7314  -9.6702  -9.6604
    -9.6595  -9.6419  -9.6405  -9.6033  -9.4994  -9.3945  -9.3482  -9.3414
    -9.1289  -9.1080  -9.0954  -8.5414  -8.5375  -8.2960  -8.2654  -8.2606
    -8.1697  -8.1221  -8.1205  -8.1152  -8.1095  -8.0983  -8.0930  -8.0908
    -8.0877  -8.0678  -8.0675  -8.0476  -7.6882  -7.6634  -7.4844  -7.4785
    -7.3084  -7.3039  -7.2892  -7.2740  -7.2467  -6.8727  -6.2330  -6.2061
    -6.1912  -6.1733  -6.1698  -5.9898  -5.7989  -5.7796  -5.7789  -5.7728
    -5.7394  -4.5660  -3.8977  -3.5241  -2.8826  -2.7950  -2.7824  -2.7628
    -2.7546  -2.7482  -2.7474  -2.7359  -2.7315  -2.5808  -2.5695  -2.1453
    -1.8069  -1.7832  -1.7007  -1.6388  -1.6293  -1.1111  -0.9719  -0.3972
    -0.3381  -0.3225  -0.2815  -0.2745  -0.2699  -0.2507  -0.2327  -0.2278

     the Fermi energy is    -4.5682 ev

!    total energy              =   -1168.08833446 Ry
     estimated scf accuracy    <          6.9E-11 Ry
     smearing contrib. (-TS)   =      -0.00167040 Ry
     internal energy E=F+TS    =   -1168.08666406 Ry

     The total energy is F=E-TS. E is the sum of the following terms:
     one-electron contribution =  -13177.19012461 Ry
     hartree contribution      =    6624.46554908 Ry
     xc contribution           =    -415.44287051 Ry
     ewald contribution        =    5800.08078198 Ry

     total magnetization       =     1.22 Bohr mag/cell
     absolute magnetization    =     1.82 Bohr mag/cell

     convergence has been achieved in  22 iterations

     Forces acting on atoms (cartesian axes, Ry/au):

     atom    1 type  1   force =     0.00096218    0.00000005    0.00000001
     atom    2 type  1   force =    -0.00041159    0.00000004   -0.00000001
     atom    3 type  1   force =     0.00013099    0.00014760    0.00000001
     atom    4 type  1   force =     0.00008490   -0.00003267    0.00000000
     atom    5 type  1   force =    -0.00018351   -0.00060006    0.00000000
     atom    6 type  1   force =     0.00031284   -0.00037476   -0.00000000
     atom    7 type  1   force =     0.00097986    0.00111376   -0.00000001
     atom    8 type  1   force =     0.00038514   -0.00149622   -0.00000001
     atom    9 type  1   force =     0.00024742    0.00067391   -0.00000001
     atom   10 type  1   force =    -0.00052349    0.00119661    0.00000001
     atom   11 type  1   force =    -0.00130807   -0.00031431   -0.00000000
     atom   12 type  1   force =     0.00286313   -0.00145174    0.00000000
     atom   13 type  1   force =    -0.00254297   -0.00085694    0.00000001
     atom   14 type  1   force =     0.00056327   -0.00071754   -0.00000002
     atom   15 type  1   force =     0.00013100   -0.00014762    0.00000001
     atom   16 type  1   force =     0.00008497    0.00003262   -0.00000001
     atom   17 type  1   force =    -0.00018285    0.00000004    0.00000002
     atom   18 type  1   force =     0.00150633   -0.00000015    0.00000003
     atom   19 type  1   force =    -0.00258740   -0.00079873    0.00000001
     atom   20 type  1   force =     0.00460486   -0.00457356   -0.00000001
     atom   21 type  1   force =     0.00581428    0.00196634   -0.00000001
     atom   22 type  1   force =     0.01372307   -0.02926947    0.00000001
     atom   23 type  1   force =    -0.00744829    0.00583428    0.00000001
     atom   24 type  1   force =     0.02952332   -0.03698630   -0.00000001
     atom   25 type  1   force =    -0.00925202   -0.00954507    0.00000001
     atom   26 type  1   force =     0.00249950   -0.00707887    0.00000001
     atom   27 type  1   force =     0.00261208    0.00243537    0.00000000
     atom   28 type  1   force =    -0.00115268   -0.00061163    0.00000000
     atom   29 type  1   force =    -0.00018358    0.00060018   -0.00000001
     atom   30 type  1   force =     0.00031290    0.00037493    0.00000002
     atom   31 type  1   force =    -0.00258786    0.00079880    0.00000001
     atom   32 type  1   force =     0.00460528    0.00457377    0.00000000
     atom   33 type  1   force =    -0.03309963   -0.00000004    0.00000000
     atom   34 type  1   force =     0.03524020    0.00000103    0.00000000
     atom   35 type  1   force =    -0.06733325    0.00845319   -0.00000000
     atom   36 type  2   force =     0.03648195    0.00502797    0.00000001
     atom   37 type  1   force =    -0.01468446    0.01895050   -0.00000001
     atom   38 type  1   force =    -0.01250509   -0.03885305   -0.00000001
     atom   39 type  1   force =     0.01033487    0.02101060   -0.00000001
     atom   40 type  1   force =    -0.00565796   -0.00235318   -0.00000002
     atom   41 type  1   force =     0.00032928    0.00176559   -0.00000002
     atom   42 type  1   force =    -0.00030564   -0.00033831   -0.00000001
     atom   43 type  1   force =     0.00098009   -0.00111402   -0.00000000
     atom   44 type  1   force =     0.00038516    0.00149676    0.00000001
     atom   45 type  1   force =     0.00581539   -0.00196706    0.00000001
     atom   46 type  1   force =     0.01372350    0.02927450   -0.00000000
     atom   47 type  1   force =    -0.06732098   -0.00845500    0.00000000
     atom   48 type  2   force =     0.03647584   -0.00502153    0.00000003
     atom   49 type  2   force =     0.00667003    0.00000800   -0.00000000
     atom   50 type  1   force =     0.02599598    0.03277943    0.00000000
     atom   51 type  1   force =    -0.02158818   -0.00245629    0.00000001
     atom   52 type  1   force =    -0.00079735   -0.00209578    0.00000000
     atom   53 type  1   force =    -0.00056498   -0.00009924    0.00000001
     atom   54 type  1   force =     0.00017273   -0.00073210   -0.00000000
     atom   55 type  1   force =     0.00008152    0.00032278   -0.00000002
     atom   56 type  1   force =     0.00024749   -0.00067393   -0.00000001
     atom   57 type  1   force =    -0.00052352   -0.00119667   -0.00000002
     atom   58 type  1   force =    -0.00744704   -0.00583508   -0.00000001
     atom   59 type  1   force =     0.02952395    0.03698649   -0.00000002
     atom   60 type  1   force =    -0.01468151   -0.01895273    0.00000001
     atom   61 type  1   force =    -0.01250303    0.03885189   -0.00000002
     atom   62 type  1   force =     0.02600047   -0.03279410   -0.00000001
     atom   63 type  1   force =    -0.02158446    0.00245766   -0.00000000
     atom   64 type  1   force =     0.00794786   -0.00000120    0.00000001
     atom   65 type  1   force =     0.00172380   -0.00000000    0.00000001
     atom   66 type  1   force =     0.00009897   -0.00080486    0.00000003
     atom   67 type  1   force =     0.00053124   -0.00039203    0.00000001
     atom   68 type  1   force =    -0.00000333    0.00016348   -0.00000001
     atom   69 type  1   force =    -0.00010275   -0.00037805   -0.00000002
     atom   70 type  1   force =    -0.00130787    0.00031441    0.00000000
     atom   71 type  1   force =     0.00286305    0.00145171    0.00000002
     atom   72 type  1   force =    -0.00925239    0.00954565   -0.00000001
     atom   73 type  1   force =     0.00249964    0.00707872    0.00000001
     atom   74 type  1   force =     0.01033450   -0.02101031    0.00000002
     atom   75 type  1   force =    -0.00565747    0.00235271    0.00000001
     atom   76 type  1   force =    -0.00079756    0.00209515   -0.00000002
     atom   77 type  1   force =    -0.00056459    0.00009953   -0.00000004
     atom   78 type  1   force =     0.00009882    0.00080472   -0.00000001
     atom   79 type  1   force =     0.00053131    0.00039200    0.00000001
     atom   80 type  1   force =    -0.00038095   -0.00000004    0.00000001
     atom   81 type  1   force =     0.00044814    0.00000005   -0.00000000
     atom   82 type  1   force =    -0.00027591   -0.00025594   -0.00000001
     atom   83 type  1   force =    -0.00024575   -0.00021733    0.00000001
     atom   84 type  1   force =    -0.00254303    0.00085702    0.00000000
     atom   85 type  1   force =     0.00056333    0.00071750   -0.00000001
     atom   86 type  1   force =     0.00261213   -0.00243542   -0.00000002
     atom   87 type  1   force =    -0.00115279    0.00061157   -0.00000001
     atom   88 type  1   force =     0.00032909   -0.00176529    0.00000000
     atom   89 type  1   force =    -0.00030550    0.00033836    0.00000001
     atom   90 type  1   force =     0.00017265    0.00073184   -0.00000002
     atom   91 type  1   force =     0.00008152   -0.00032265   -0.00000001
     atom   92 type  1   force =    -0.00000338   -0.00016348    0.00000001
     atom   93 type  1   force =    -0.00010272    0.00037806   -0.00000002
     atom   94 type  1   force =    -0.00027588    0.00025585   -0.00000002
     atom   95 type  1   force =    -0.00024577    0.00021725   -0.00000001
     atom   96 type  1   force =    -0.00028047    0.00000005    0.00000000
     atom   97 type  1   force =     0.00121772    0.00000003    0.00000003

     Total force =     0.178796     Total SCF correction =     0.000012
     Energy error            =      1.7E-02 Ry
     Gradient error          =      6.7E-02 Ry/Bohr

     number of scf cycles    =   2
     number of bfgs steps    =   1

     energy             old  =   -1168.0713251505 Ry
     energy             new  =   -1168.0883344555 Ry

     CASE: energy            _new < energy            _old

     new trust radius        =       0.0381040100 bohr
     new conv_thr            =            1.0E-10 Ry


ATOMIC_POSITIONS (crystal)
C                0.0476236222        0.0476236219        0.0000000004
C                0.0952443780        0.0952443795        0.0000000000
C                0.0476086119        0.1904860064        0.0000000001
C                0.0952460842        0.2380776151        0.0000000000
C                0.0476228273        0.3333319214       -0.0000000000
C                0.0952299778        0.3809546450       -0.0000000004
C                0.0476485438        0.4761825050       -0.0000000002
C                0.0952541997        0.5238486373        0.0000000001
C                0.0476367310        0.6190846703       -0.0000000006
C                0.0950336741        0.6667677077        0.0000000005
C                0.0476290225        0.7618343138       -0.0000000001
C                0.0952983274        0.8094382645       -0.0000000003
C                0.0476527263        0.9047257795        0.0000000003
C                0.0952490240        0.9523826893       -0.0000000004
C                0.1904860040        0.0476086146        0.0000000002
C                0.2380776140        0.0952460851       -0.0000000002
C                0.1904878751        0.1904878797        0.0000000003
C                0.2380762801        0.2380762817        0.0000000007
C                0.1904961257        0.3333585662        0.0000000002
C                0.2379921839        0.3809506059       -0.0000000000
C                0.1906900854        0.4761162893        0.0000000003
C                0.2383053953        0.5240431916       -0.0000000002
C                0.1904819941        0.6189493406        0.0000000003
C                0.2388318009        0.6657354707        0.0000000002
C                0.1908025021        0.7616405701       -0.0000000002
C                0.2380694117        0.8095825788        0.0000000000
C                0.1904729148        0.9047601496       -0.0000000004
C                0.2380771742        0.9524046443       -0.0000000000
C                0.3333319176        0.0476228292        0.0000000000
C                0.3809546398        0.0952299819       -0.0000000002
C                0.3333585588        0.1904961240        0.0000000003
C                0.3809505974        0.2379921944       -0.0000000001
C                0.3332702883        0.3332702852        0.0000000003
C                0.3804498522        0.3804498996        0.0000000001
C                0.3351251949        0.4751430289        0.0000000000
C1               0.3804142988        0.5226330345        0.0000000006
C                0.3365074835        0.6163391506       -0.0000000001
C                0.3808938296        0.6669762000       -0.0000000003
C                0.3332747648        0.7619196008       -0.0000000004
C                0.3809762265        0.8095676553       -0.0000000005
C                0.3333534912        0.9047260488       -0.0000000001
C                0.3809576092        0.9523814917       -0.0000000001
C                0.4761825052        0.0476485448       -0.0000000001
C                0.5238486343        0.0952542060       -0.0000000004
C                0.4761162854        0.1906901132        0.0000000004
C                0.5240431768        0.2383054857        0.0000000000
C                0.4751429762        0.3351255347        0.0000000005
C1               0.5226330657        0.3804147265        0.0000000006
C1               0.5256984162        0.5256979591       -0.0000000006
C                0.4759168544        0.6180571136        0.0000000002
C                0.5240830346        0.6663403474        0.0000000005
C                0.4761297541        0.7618676004       -0.0000000002
C                0.5238454700        0.8094820520        0.0000000003
C                0.4761787790        0.9047592980        0.0000000001
C                0.5238183272        0.9523766776       -0.0000000002
C                0.6190846720        0.0476367300        0.0000000002
C                0.6667677130        0.0950336633       -0.0000000001
C                0.6189493642        0.1904819954       -0.0000000006
C                0.6657354717        0.2388317969        0.0000000001
C                0.6163391887        0.3365075640        0.0000000000
C                0.6669762910        0.3808938072       -0.0000000005
C                0.6180574062        0.4759167959       -0.0000000005
C                0.6663404183        0.5240830519       -0.0000000000
C                0.6190574341        0.6190573909        0.0000000004
C                0.6667463345        0.6667463329        0.0000000006
C                0.6190943631        0.7618565917        0.0000000005
C                0.6666842659        0.8095269824        0.0000000003
C                0.6190675614        0.9047551118       -0.0000000002
C                0.6666876957        0.9523458095       -0.0000000004
C                0.7618343135        0.0476290264        0.0000000008
C                0.8094382659        0.0952983248       -0.0000000001
C                0.7616405571        0.1908025218       -0.0000000004
C                0.8095825909        0.2380694078        0.0000000004
C                0.7619195846        0.3332747738        0.0000000009
C                0.8095676692        0.3809762309        0.0000000004
C                0.7618676083        0.4761297544       -0.0000000006
C                0.8094820565        0.5238454730       -0.0000000006
C                0.7618565946        0.6190943570       -0.0000000001
C                0.8095269852        0.6666842653        0.0000000000
C                0.7619056856        0.7619056837        0.0000000001
C                0.8095228269        0.8095228228       -0.0000000001
C                0.7619015309        0.9047619663       -0.0000000002
C                0.8095333142        0.9523533506        0.0000000002
C                0.9047257790        0.0476527282        0.0000000002
C                0.9523826933        0.0952490223       -0.0000000002
C                0.9047601486        0.1904729177       -0.0000000004
C                0.9524046479        0.2380771744       -0.0000000003
C                0.9047260386        0.3333534970        0.0000000001
C                0.9523814919        0.3809576141        0.0000000001
C                0.9047592996        0.4761787778       -0.0000000004
C                0.9523766790        0.5238183275       -0.0000000001
C                0.9047551130        0.6190675602        0.0000000003
C                0.9523458145        0.6666876935       -0.0000000006
C                0.9047619689        0.7619015285       -0.0000000004
C                0.9523533572        0.8095333090       -0.0000000004
C                0.9047485748        0.9047485738        0.0000000001
C                0.9523790117        0.9523790084        0.0000000007



     Writing config-only to output data dir /home/gregb26/links/scratch/qe_tmp/vacancy_relaxed/series/7x7/nspin2/vac_7x7_relax_nspin2.save/ :
     XML data file
     NEW-OLD atomic charge density approx. for the potential

     negative rho (up, down):  2.916E-06 2.962E-06
     Generating pointlists ...

     total cpu time spent up to now is      258.5 secs

     per-process dynamical memory:   262.1 Mb

     Self-consistent Calculation

     iteration #  1     ecut=   100.00 Ry     beta= 0.30
     Davidson diagonalization with overlap
     ethr =  1.00E-06,  avg # of iterations =  7.5

     negative rho (up, down):  2.085E-06 2.019E-06

     total cpu time spent up to now is      266.6 secs

     total energy              =   -1168.09547591 Ry
     estimated scf accuracy    <       0.00810983 Ry

     total magnetization       =     0.92 Bohr mag/cell
     absolute magnetization    =     1.56 Bohr mag/cell

     iteration #  2     ecut=   100.00 Ry     beta= 0.30
     Davidson diagonalization with overlap
     ethr =  2.09E-06,  avg # of iterations =  7.0

     negative rho (up, down):  1.836E-06 1.781E-06

     total cpu time spent up to now is      270.7 secs

     total energy              =   -1168.09523162 Ry
     estimated scf accuracy    <       0.02192891 Ry

     total magnetization       =     1.64 Bohr mag/cell
     absolute magnetization    =     2.17 Bohr mag/cell

     iteration #  3     ecut=   100.00 Ry     beta= 0.30
     Davidson diagonalization with overlap
     ethr =  2.09E-06,  avg # of iterations =  3.5

     negative rho (up, down):  1.018E-06 1.005E-06

     total cpu time spent up to now is      274.2 secs

     total energy              =   -1168.09677299 Ry
     estimated scf accuracy    <       0.00114886 Ry

     total magnetization       =     1.07 Bohr mag/cell
     absolute magnetization    =     1.68 Bohr mag/cell

     iteration #  4     ecut=   100.00 Ry     beta= 0.30
     Davidson diagonalization with overlap
     ethr =  2.96E-07,  avg # of iterations =  2.0

     negative rho (up, down):  4.768E-07 4.776E-07

     total cpu time spent up to now is      277.6 secs

     total energy              =   -1168.09682112 Ry
     estimated scf accuracy    <       0.00016396 Ry

     total magnetization       =     1.16 Bohr mag/cell
     absolute magnetization    =     1.74 Bohr mag/cell

     iteration #  5     ecut=   100.00 Ry     beta= 0.30
     Davidson diagonalization with overlap
     ethr =  4.23E-08,  avg # of iterations =  4.0

     negative rho (up, down):  2.035E-07 2.071E-07

     total cpu time spent up to now is      281.5 secs

     total energy              =   -1168.09684159 Ry
     estimated scf accuracy    <       0.00003012 Ry

     total magnetization       =     1.16 Bohr mag/cell
     absolute magnetization    =     1.74 Bohr mag/cell

     iteration #  6     ecut=   100.00 Ry     beta= 0.30
     Davidson diagonalization with overlap
     ethr =  7.76E-09,  avg # of iterations =  5.0

     negative rho (up, down):  8.859E-08 9.152E-08

     total cpu time spent up to now is      285.5 secs

     total energy              =   -1168.09684632 Ry
     estimated scf accuracy    <       0.00000734 Ry

     total magnetization       =     1.17 Bohr mag/cell
     absolute magnetization    =     1.75 Bohr mag/cell

     iteration #  7     ecut=   100.00 Ry     beta= 0.30
     Davidson diagonalization with overlap
     ethr =  1.89E-09,  avg # of iterations =  3.0

     negative rho (up, down):  3.380E-08 3.569E-08

     total cpu time spent up to now is      289.2 secs

     total energy              =   -1168.09684749 Ry
     estimated scf accuracy    <       0.00000238 Ry

     total magnetization       =     1.17 Bohr mag/cell
     absolute magnetization    =     1.75 Bohr mag/cell

     iteration #  8     ecut=   100.00 Ry     beta= 0.30
     Davidson diagonalization with overlap
     ethr =  6.12E-10,  avg # of iterations =  3.0

     total cpu time spent up to now is      292.6 secs

     total energy              =   -1168.09684793 Ry
     estimated scf accuracy    <       0.00000068 Ry

     total magnetization       =     1.17 Bohr mag/cell
     absolute magnetization    =     1.74 Bohr mag/cell

     iteration #  9     ecut=   100.00 Ry     beta= 0.30
     Davidson diagonalization with overlap
     ethr =  1.76E-10,  avg # of iterations =  4.0

     total cpu time spent up to now is      296.7 secs

     total energy              =   -1168.09684814 Ry
     estimated scf accuracy    <       0.00000036 Ry

     total magnetization       =     1.17 Bohr mag/cell
     absolute magnetization    =     1.74 Bohr mag/cell

     iteration # 10     ecut=   100.00 Ry     beta= 0.30
     Davidson diagonalization with overlap
     ethr =  9.17E-11,  avg # of iterations =  2.0

     total cpu time spent up to now is      300.0 secs

     total energy              =   -1168.09684825 Ry
     estimated scf accuracy    <       0.00000030 Ry

     total magnetization       =     1.17 Bohr mag/cell
     absolute magnetization    =     1.74 Bohr mag/cell

     iteration # 11     ecut=   100.00 Ry     beta= 0.30
     Davidson diagonalization with overlap
     ethr =  7.72E-11,  avg # of iterations =  3.5

     total cpu time spent up to now is      303.4 secs

     total energy              =   -1168.09684834 Ry
     estimated scf accuracy    <       0.00000022 Ry

     total magnetization       =     1.17 Bohr mag/cell
     absolute magnetization    =     1.74 Bohr mag/cell

     iteration # 12     ecut=   100.00 Ry     beta= 0.30
     Davidson diagonalization with overlap
     ethr =  5.78E-11,  avg # of iterations =  3.5

     total cpu time spent up to now is      307.0 secs

     total energy              =   -1168.09684843 Ry
     estimated scf accuracy    <       0.00000006 Ry

     total magnetization       =     1.17 Bohr mag/cell
     absolute magnetization    =     1.74 Bohr mag/cell

     iteration # 13     ecut=   100.00 Ry     beta= 0.30
     Davidson diagonalization with overlap
     ethr =  1.49E-11,  avg # of iterations =  5.0

     total cpu time spent up to now is      311.7 secs

     total energy              =   -1168.09684848 Ry
     estimated scf accuracy    <       0.00000010 Ry

     total magnetization       =     1.17 Bohr mag/cell
     absolute magnetization    =     1.74 Bohr mag/cell

     iteration # 14     ecut=   100.00 Ry     beta= 0.30
     Davidson diagonalization with overlap
     ethr =  1.49E-11,  avg # of iterations =  4.0

     total cpu time spent up to now is      316.2 secs

     total energy              =   -1168.09684854 Ry
     estimated scf accuracy    <       0.00000002 Ry

     total magnetization       =     1.18 Bohr mag/cell
     absolute magnetization    =     1.74 Bohr mag/cell

     iteration # 15     ecut=   100.00 Ry     beta= 0.30
     Davidson diagonalization with overlap
     ethr =  5.66E-12,  avg # of iterations =  5.0

     total cpu time spent up to now is      320.9 secs

     total energy              =   -1168.09684856 Ry
     estimated scf accuracy    <       0.00000001 Ry

     total magnetization       =     1.18 Bohr mag/cell
     absolute magnetization    =     1.74 Bohr mag/cell

     iteration # 16     ecut=   100.00 Ry     beta= 0.30
     Davidson diagonalization with overlap
     ethr =  2.76E-12,  avg # of iterations =  5.0

     total cpu time spent up to now is      325.6 secs

     total energy              =   -1168.09684858 Ry
     estimated scf accuracy    <          3.1E-09 Ry

     total magnetization       =     1.18 Bohr mag/cell
     absolute magnetization    =     1.75 Bohr mag/cell

     iteration # 17     ecut=   100.00 Ry     beta= 0.30
     Davidson diagonalization with overlap
     ethr =  8.03E-13,  avg # of iterations =  5.0

     total cpu time spent up to now is      330.1 secs

     total energy              =   -1168.09684858 Ry
     estimated scf accuracy    <          1.1E-09 Ry

     total magnetization       =     1.18 Bohr mag/cell
     absolute magnetization    =     1.75 Bohr mag/cell

     iteration # 18     ecut=   100.00 Ry     beta= 0.30
     Davidson diagonalization with overlap
     ethr =  2.96E-13,  avg # of iterations =  5.0

     total cpu time spent up to now is      334.9 secs

     total energy              =   -1168.09684858 Ry
     estimated scf accuracy    <          5.4E-10 Ry

     total magnetization       =     1.18 Bohr mag/cell
     absolute magnetization    =     1.75 Bohr mag/cell

     iteration # 19     ecut=   100.00 Ry     beta= 0.30
     Davidson diagonalization with overlap
     ethr =  1.40E-13,  avg # of iterations =  6.0

     total cpu time spent up to now is      340.1 secs

     total energy              =   -1168.09684859 Ry
     estimated scf accuracy    <          1.2E-10 Ry

     total magnetization       =     1.18 Bohr mag/cell
     absolute magnetization    =     1.75 Bohr mag/cell

     iteration # 20     ecut=   100.00 Ry     beta= 0.30
     Davidson diagonalization with overlap
     ethr =  1.00E-13,  avg # of iterations =  4.0

     Magnetic moment per site  (integrated on atomic sphere of radius R)
     atom   1 (R=0.032)  charge=  1.5260  magn= -0.0013
     atom   2 (R=0.032)  charge=  1.5260  magn=  0.0023
     atom   3 (R=0.032)  charge=  1.5265  magn= -0.0016
     atom   4 (R=0.032)  charge=  1.5261  magn=  0.0025
     atom   5 (R=0.032)  charge=  1.5269  magn= -0.0013
     atom   6 (R=0.032)  charge=  1.5264  magn=  0.0011
     atom   7 (R=0.032)  charge=  1.5265  magn= -0.0015
     atom   8 (R=0.032)  charge=  1.5248  magn=  0.0026
     atom   9 (R=0.032)  charge=  1.5275  magn= -0.0016
     atom  10 (R=0.032)  charge=  1.5267  magn=  0.0049
     atom  11 (R=0.032)  charge=  1.5268  magn= -0.0017
     atom  12 (R=0.032)  charge=  1.5232  magn=  0.0026
     atom  13 (R=0.032)  charge=  1.5251  magn= -0.0015
     atom  14 (R=0.032)  charge=  1.5259  magn=  0.0010
     atom  15 (R=0.032)  charge=  1.5265  magn= -0.0016
     atom  16 (R=0.032)  charge=  1.5261  magn=  0.0025
     atom  17 (R=0.032)  charge=  1.5272  magn= -0.0017
     atom  18 (R=0.032)  charge=  1.5267  magn=  0.0078
     atom  19 (R=0.032)  charge=  1.5279  magn= -0.0023
     atom  20 (R=0.032)  charge=  1.5279  magn=  0.0090
     atom  21 (R=0.032)  charge=  1.5241  magn= -0.0024
     atom  22 (R=0.032)  charge=  1.5141  magn=  0.0037
     atom  23 (R=0.032)  charge=  1.5280  magn= -0.0020
     atom  24 (R=0.032)  charge=  1.5050  magn=  0.0028
     atom  25 (R=0.032)  charge=  1.5194  magn= -0.0030
     atom  26 (R=0.032)  charge=  1.5275  magn=  0.0088
     atom  27 (R=0.032)  charge=  1.5261  magn= -0.0023
     atom  28 (R=0.032)  charge=  1.5269  magn=  0.0076
     atom  29 (R=0.032)  charge=  1.5269  magn= -0.0013
     atom  30 (R=0.032)  charge=  1.5264  magn=  0.0011
     atom  31 (R=0.032)  charge=  1.5279  magn= -0.0023
     atom  32 (R=0.032)  charge=  1.5279  magn=  0.0090
     atom  33 (R=0.032)  charge=  1.5322  magn= -0.0042
     atom  34 (R=0.032)  charge=  1.5406  magn=  0.0268
     atom  35 (R=0.032)  charge=  1.5290  magn= -0.0044
     atom  36 (R=0.032)  charge=  1.4370  magn=  0.0485
     atom  37 (R=0.032)  charge=  1.5136  magn= -0.0081
     atom  38 (R=0.032)  charge=  1.5315  magn=  0.0317
     atom  39 (R=0.032)  charge=  1.5256  magn= -0.0052
     atom  40 (R=0.032)  charge=  1.5278  magn=  0.0096
     atom  41 (R=0.032)  charge=  1.5259  magn= -0.0026
     atom  42 (R=0.032)  charge=  1.5268  magn=  0.0012
     atom  43 (R=0.032)  charge=  1.5265  magn= -0.0015
     atom  44 (R=0.032)  charge=  1.5248  magn=  0.0026
     atom  45 (R=0.032)  charge=  1.5241  magn= -0.0024
     atom  46 (R=0.032)  charge=  1.5141  magn=  0.0037
     atom  47 (R=0.032)  charge=  1.5290  magn= -0.0044
     atom  48 (R=0.032)  charge=  1.4370  magn=  0.0485
     atom  49 (R=0.032)  charge=  1.4635  magn=  0.1954
     atom  50 (R=0.032)  charge=  1.5312  magn= -0.0074
     atom  51 (R=0.032)  charge=  1.5180  magn=  0.0132
     atom  52 (R=0.032)  charge=  1.5237  magn= -0.0018
     atom  53 (R=0.032)  charge=  1.5265  magn=  0.0033
     atom  54 (R=0.032)  charge=  1.5262  magn= -0.0014
     atom  55 (R=0.032)  charge=  1.5267  magn=  0.0034
     atom  56 (R=0.032)  charge=  1.5275  magn= -0.0016
     atom  57 (R=0.032)  charge=  1.5267  magn=  0.0049
     atom  58 (R=0.032)  charge=  1.5280  magn= -0.0020
     atom  59 (R=0.032)  charge=  1.5050  magn=  0.0028
     atom  60 (R=0.032)  charge=  1.5136  magn= -0.0081
     atom  61 (R=0.032)  charge=  1.5315  magn=  0.0317
     atom  62 (R=0.032)  charge=  1.5313  magn= -0.0074
     atom  63 (R=0.032)  charge=  1.5180  magn=  0.0132
     atom  64 (R=0.032)  charge=  1.5289  magn= -0.0050
     atom  65 (R=0.032)  charge=  1.5290  magn=  0.0058
     atom  66 (R=0.032)  charge=  1.5269  magn= -0.0022
     atom  67 (R=0.032)  charge=  1.5278  magn=  0.0014
     atom  68 (R=0.032)  charge=  1.5267  magn= -0.0013
     atom  69 (R=0.032)  charge=  1.5269  magn=  0.0012
     atom  70 (R=0.032)  charge=  1.5268  magn= -0.0017
     atom  71 (R=0.032)  charge=  1.5232  magn=  0.0026
     atom  72 (R=0.032)  charge=  1.5194  magn= -0.0030
     atom  73 (R=0.032)  charge=  1.5275  magn=  0.0088
     atom  74 (R=0.032)  charge=  1.5256  magn= -0.0052
     atom  75 (R=0.032)  charge=  1.5278  magn=  0.0096
     atom  76 (R=0.032)  charge=  1.5237  magn= -0.0018
     atom  77 (R=0.032)  charge=  1.5265  magn=  0.0033
     atom  78 (R=0.032)  charge=  1.5269  magn= -0.0022
     atom  79 (R=0.032)  charge=  1.5278  magn=  0.0014
     atom  80 (R=0.032)  charge=  1.5265  magn= -0.0014
     atom  81 (R=0.032)  charge=  1.5272  magn=  0.0027
     atom  82 (R=0.032)  charge=  1.5263  magn= -0.0012
     atom  83 (R=0.032)  charge=  1.5264  magn=  0.0012
     atom  84 (R=0.032)  charge=  1.5251  magn= -0.0015
     atom  85 (R=0.032)  charge=  1.5259  magn=  0.0010
     atom  86 (R=0.032)  charge=  1.5261  magn= -0.0023
     atom  87 (R=0.032)  charge=  1.5269  magn=  0.0076
     atom  88 (R=0.032)  charge=  1.5259  magn= -0.0026
     atom  89 (R=0.032)  charge=  1.5268  magn=  0.0012
     atom  90 (R=0.032)  charge=  1.5262  magn= -0.0014
     atom  91 (R=0.032)  charge=  1.5267  magn=  0.0034
     atom  92 (R=0.032)  charge=  1.5267  magn= -0.0013
     atom  93 (R=0.032)  charge=  1.5269  magn=  0.0012
     atom  94 (R=0.032)  charge=  1.5263  magn= -0.0012
     atom  95 (R=0.032)  charge=  1.5264  magn=  0.0012
     atom  96 (R=0.032)  charge=  1.5261  magn= -0.0013
     atom  97 (R=0.032)  charge=  1.5254  magn=  0.0032

     total cpu time spent up to now is      344.7 secs

     End of self-consistent calculation

 ------ SPIN UP ------------


          k = 0.0000 0.0000 0.0000 (233409 PWs)   bands (ev):

   -23.8021 -23.3682 -23.3544 -23.3408 -23.3346 -23.3342 -23.1855 -22.4143
   -22.4063 -22.4015 -22.3904 -22.3804 -22.2334 -21.9397 -21.9306 -21.9280
   -21.9142 -21.9112 -21.6220 -20.5909 -20.5795 -20.5381 -20.5309 -20.5249
   -20.5249 -20.5220 -20.5209 -20.5141 -20.5087 -20.4920 -20.0719 -19.6606
   -19.6602 -19.6453 -19.6045 -19.5980 -19.2214 -18.3851 -18.3809 -18.3623
   -18.3194 -18.3189 -18.3111 -18.2843 -18.2777 -18.2754 -18.2688 -18.2608
   -17.6704 -17.2688 -17.2675 -17.2614 -17.1557 -17.1375 -16.8173 -16.3658
   -16.3548 -16.3534 -16.2246 -16.2177 -16.1083 -15.8755 -15.8200 -15.8192
   -15.7521 -15.7395 -15.0558 -14.4553 -14.4394 -14.4354 -14.4282 -14.4124
   -14.4096 -14.3900 -14.3887 -14.3870 -14.3363 -14.3249 -14.2025 -14.1921
   -14.1807 -14.1805 -13.8499 -13.8287 -13.1465 -12.7409 -12.7247 -12.7189
   -12.5945 -12.5799 -12.2794 -12.1986 -12.1461 -12.1405 -12.0154 -12.0148
   -11.8858 -11.8643 -11.7361 -11.6511 -11.6469 -11.6361 -11.6236 -11.6201
   -11.6144 -11.6096 -11.5749 -11.4389 -11.4003 -11.3962 -11.3533 -11.3439
   -11.3337 -11.3293 -11.3287 -11.2476 -11.2452 -11.1920 -11.1690 -10.9567
   -10.9484 -10.6955 -10.6207 -10.6183 -10.6038 -10.3898 -10.3859 -10.2340
   -10.2210 -10.2183 -10.2181 -10.2031 -10.1224 -10.0531 -10.0425 -10.0094
   -10.0064  -9.8429  -9.8407  -9.7598  -9.7487  -9.7353  -9.6937  -9.6814
    -9.6813  -9.6682  -9.6668  -9.6603  -9.5505  -9.3979  -9.3889  -9.3840
    -9.1239  -9.1175  -9.1132  -8.5574  -8.5570  -8.2812  -8.2594  -8.2593
    -8.2116  -8.1508  -8.1472  -8.1406  -8.1320  -8.1104  -8.1052  -8.1026
    -8.1026  -8.0956  -8.0947  -8.0787  -8.0081  -7.7141  -7.4950  -7.4888
    -7.3216  -7.3208  -7.3077  -7.3002  -7.2967  -6.9017  -6.2370  -6.2312
    -6.2043  -6.2036  -6.2003  -6.0077  -5.8132  -5.8108  -5.7929  -5.7923
    -5.7753  -4.8021  -4.5970  -4.1795  -2.8450  -2.7895  -2.7864  -2.7836
    -2.7814  -2.7733  -2.7589  -2.7550  -2.7518  -2.6834  -2.6800  -2.1826
    -1.7833  -1.7689  -1.7499  -1.6973  -1.6935  -1.1686  -0.9766  -0.3721
    -0.3306  -0.3143  -0.3000  -0.2952  -0.2889  -0.2873  -0.2836  -0.2829

 ------ SPIN DOWN ----------


          k = 0.0000 0.0000 0.0000 (233409 PWs)   bands (ev):

   -23.7932 -23.3507 -23.3489 -23.3363 -23.3309 -23.3254 -23.1532 -22.3986
   -22.3936 -22.3878 -22.3815 -22.3720 -22.2194 -21.9241 -21.9226 -21.9121
   -21.9057 -21.8985 -21.5848 -20.5649 -20.5610 -20.5289 -20.5247 -20.5202
   -20.5194 -20.5172 -20.5170 -20.5088 -20.4749 -20.4713 -20.0485 -19.6495
   -19.6429 -19.6376 -19.5873 -19.5813 -19.1895 -18.3631 -18.3624 -18.3549
   -18.3114 -18.3113 -18.3058 -18.2772 -18.2691 -18.2662 -18.2615 -18.2231
   -17.6033 -17.2621 -17.2597 -17.2557 -17.1354 -17.1270 -16.7884 -16.3499
   -16.3478 -16.3456 -16.2069 -16.2060 -16.0979 -15.8684 -15.8129 -15.8124
   -15.7310 -15.6933 -15.0167 -14.4414 -14.4229 -14.4189 -14.4159 -14.4026
   -14.3975 -14.3847 -14.3828 -14.3800 -14.3267 -14.3047 -14.1983 -14.1889
   -14.1771 -14.1752 -13.8106 -13.8089 -13.1013 -12.7291 -12.7082 -12.7070
   -12.5851 -12.5621 -12.2618 -12.1802 -12.1396 -12.1331 -12.0078 -12.0058
   -11.8708 -11.8424 -11.7188 -11.6426 -11.6401 -11.6293 -11.6189 -11.6161
   -11.6059 -11.5962 -11.5683 -11.4206 -11.3847 -11.3829 -11.3336 -11.3317
   -11.3223 -11.3215 -11.3107 -11.2378 -11.2343 -11.1867 -11.1207 -10.9504
   -10.9280 -10.6803 -10.6163 -10.6153 -10.5997 -10.3734 -10.3627 -10.2062
   -10.2022 -10.2006 -10.1973 -10.1902 -10.0984 -10.0311 -10.0291  -9.9962
    -9.9943  -9.8370  -9.8369  -9.7538  -9.7403  -9.7286  -9.6662  -9.6641
    -9.6604  -9.6597  -9.6481  -9.6456  -9.4777  -9.3716  -9.3639  -9.3427
    -9.1150  -9.1099  -9.1086  -8.5482  -8.5338  -8.2734  -8.2514  -8.2510
    -8.2097  -8.1105  -8.1083  -8.0980  -8.0972  -8.0943  -8.0920  -8.0915
    -8.0868  -8.0855  -8.0794  -8.0769  -7.7133  -7.6828  -7.4814  -7.4704
    -7.2939  -7.2928  -7.2910  -7.2884  -7.2718  -6.8531  -6.2080  -6.1934
    -6.1909  -6.1875  -6.1840  -5.9820  -5.7831  -5.7827  -5.7794  -5.7638
    -5.7481  -4.5769  -3.9772  -3.5277  -2.8489  -2.7773  -2.7710  -2.7657
    -2.7606  -2.7597  -2.7476  -2.7438  -2.7406  -2.6238  -2.5883  -2.1563
    -1.7728  -1.7621  -1.7220  -1.6597  -1.6432  -1.1273  -0.9723  -0.3695
    -0.3143  -0.2981  -0.2835  -0.2778  -0.2753  -0.2688  -0.2577  -0.2569

     the Fermi energy is    -4.5748 ev

!    total energy              =   -1168.09684859 Ry
     estimated scf accuracy    <          2.7E-11 Ry
     smearing contrib. (-TS)   =      -0.00180539 Ry
     internal energy E=F+TS    =   -1168.09504320 Ry

     The total energy is F=E-TS. E is the sum of the following terms:
     one-electron contribution =  -13177.19856771 Ry
     hartree contribution      =    6624.45465985 Ry
     xc contribution           =    -415.43446054 Ry
     ewald contribution        =    5800.08332521 Ry

     total magnetization       =     1.18 Bohr mag/cell
     absolute magnetization    =     1.75 Bohr mag/cell

     convergence has been achieved in  20 iterations

     Forces acting on atoms (cartesian axes, Ry/au):

     atom    1 type  1   force =    -0.00042229   -0.00000004   -0.00000000
     atom    2 type  1   force =     0.00066814    0.00000000    0.00000000
     atom    3 type  1   force =    -0.00007431   -0.00019684   -0.00000000
     atom    4 type  1   force =     0.00004583   -0.00024697    0.00000002
     atom    5 type  1   force =    -0.00005796    0.00023264   -0.00000000
     atom    6 type  1   force =     0.00015339   -0.00039698   -0.00000000
     atom    7 type  1   force =     0.00041977   -0.00015297   -0.00000000
     atom    8 type  1   force =     0.00284280   -0.00163233   -0.00000002
     atom    9 type  1   force =    -0.00163418    0.00065352   -0.00000000
     atom   10 type  1   force =     0.00057902   -0.00155583   -0.00000001
     atom   11 type  1   force =     0.00133566    0.00136508    0.00000001
     atom   12 type  1   force =    -0.00175958   -0.00543707    0.00000000
     atom   13 type  1   force =     0.00095615   -0.00101387   -0.00000000
     atom   14 type  1   force =    -0.00029386    0.00022856    0.00000000
     atom   15 type  1   force =    -0.00007435    0.00019681   -0.00000001
     atom   16 type  1   force =     0.00004581    0.00024707    0.00000002
     atom   17 type  1   force =    -0.00051265   -0.00000005    0.00000003
     atom   18 type  1   force =     0.00041532    0.00000011   -0.00000000
     atom   19 type  1   force =    -0.00117714    0.00070554   -0.00000002
     atom   20 type  1   force =    -0.00232083    0.00103231   -0.00000001
     atom   21 type  1   force =     0.00462569   -0.00157663   -0.00000001
     atom   22 type  1   force =    -0.00459970   -0.00519599    0.00000002
     atom   23 type  1   force =     0.01010522   -0.00878405   -0.00000000
     atom   24 type  1   force =     0.00025335   -0.00712550   -0.00000000
     atom   25 type  1   force =     0.00005080   -0.01257919   -0.00000000
     atom   26 type  1   force =    -0.00140998    0.00244757   -0.00000000
     atom   27 type  1   force =    -0.00051634   -0.00071109    0.00000001
     atom   28 type  1   force =     0.00057506    0.00012971    0.00000000
     atom   29 type  1   force =    -0.00005792   -0.00023271   -0.00000000
     atom   30 type  1   force =     0.00015333    0.00039686   -0.00000000
     atom   31 type  1   force =    -0.00117677   -0.00070560   -0.00000000
     atom   32 type  1   force =    -0.00232109   -0.00103244   -0.00000001
     atom   33 type  1   force =     0.00128866   -0.00000025   -0.00000001
     atom   34 type  1   force =    -0.01711690   -0.00000025    0.00000001
     atom   35 type  1   force =     0.00156122    0.00625742    0.00000002
     atom   36 type  2   force =    -0.01110493   -0.00891390    0.00000002
     atom   37 type  1   force =     0.00166381    0.00677420   -0.00000000
     atom   38 type  1   force =     0.00180044    0.00494146   -0.00000000
     atom   39 type  1   force =    -0.00531275   -0.01024734   -0.00000000
     atom   40 type  1   force =     0.00081292    0.00168470   -0.00000001
     atom   41 type  1   force =    -0.00000037   -0.00022303   -0.00000000
     atom   42 type  1   force =    -0.00032414    0.00027381    0.00000000
     atom   43 type  1   force =     0.00041980    0.00015325   -0.00000000
     atom   44 type  1   force =     0.00284343    0.00163226    0.00000000
     atom   45 type  1   force =     0.00462661    0.00157784   -0.00000002
     atom   46 type  1   force =    -0.00459650    0.00519695    0.00000000
     atom   47 type  1   force =     0.00156006   -0.00625520    0.00000001
     atom   48 type  2   force =    -0.01109725    0.00891575   -0.00000001
     atom   49 type  2   force =     0.00808496   -0.00000532   -0.00000000
     atom   50 type  1   force =     0.00985770    0.00339378   -0.00000000
     atom   51 type  1   force =     0.00390159    0.00443129    0.00000000
     atom   52 type  1   force =    -0.00416226   -0.00475902   -0.00000001
     atom   53 type  1   force =    -0.00112357   -0.00098970   -0.00000000
     atom   54 type  1   force =    -0.00017053   -0.00046652   -0.00000000
     atom   55 type  1   force =     0.00026392    0.00001431   -0.00000000
     atom   56 type  1   force =    -0.00163428   -0.00065339   -0.00000001
     atom   57 type  1   force =     0.00057921    0.00155600   -0.00000001
     atom   58 type  1   force =     0.01010456    0.00878566    0.00000001
     atom   59 type  1   force =     0.00025453    0.00712672   -0.00000000
     atom   60 type  1   force =     0.00166410   -0.00677307    0.00000001
     atom   61 type  1   force =     0.00180143   -0.00494346    0.00000000
     atom   62 type  1   force =     0.00985823   -0.00339187   -0.00000001
     atom   63 type  1   force =     0.00390224   -0.00443378   -0.00000001
     atom   64 type  1   force =    -0.00533879    0.00000122    0.00000000
     atom   65 type  1   force =     0.00046143   -0.00000007    0.00000001
     atom   66 type  1   force =     0.00073767    0.00072728   -0.00000000
     atom   67 type  1   force =     0.00007860    0.00003808   -0.00000000
     atom   68 type  1   force =    -0.00017663   -0.00010992   -0.00000000
     atom   69 type  1   force =     0.00019729    0.00039562   -0.00000000
     atom   70 type  1   force =     0.00133556   -0.00136530   -0.00000001
     atom   71 type  1   force =    -0.00175945    0.00543741   -0.00000000
     atom   72 type  1   force =     0.00005111    0.01257872    0.00000001
     atom   73 type  1   force =    -0.00141009   -0.00244730    0.00000000
     atom   74 type  1   force =    -0.00531176    0.01024517   -0.00000000
     atom   75 type  1   force =     0.00081245   -0.00168441    0.00000000
     atom   76 type  1   force =    -0.00416057    0.00475830    0.00000001
     atom   77 type  1   force =    -0.00112360    0.00098923    0.00000001
     atom   78 type  1   force =     0.00073792   -0.00072711    0.00000000
     atom   79 type  1   force =     0.00007848   -0.00003811    0.00000000
     atom   80 type  1   force =     0.00040869    0.00000001    0.00000001
     atom   81 type  1   force =    -0.00004285   -0.00000001    0.00000000
     atom   82 type  1   force =    -0.00010313   -0.00050722    0.00000000
     atom   83 type  1   force =    -0.00020263    0.00015838    0.00000000
     atom   84 type  1   force =     0.00095615    0.00101384   -0.00000001
     atom   85 type  1   force =    -0.00029390   -0.00022845    0.00000000
     atom   86 type  1   force =    -0.00051631    0.00071088    0.00000001
     atom   87 type  1   force =     0.00057503   -0.00012955   -0.00000000
     atom   88 type  1   force =    -0.00000005    0.00022265   -0.00000000
     atom   89 type  1   force =    -0.00032432   -0.00027384   -0.00000000
     atom   90 type  1   force =    -0.00017032    0.00046665    0.00000001
     atom   91 type  1   force =     0.00026385   -0.00001439   -0.00000001
     atom   92 type  1   force =    -0.00017658    0.00010991   -0.00000002
     atom   93 type  1   force =     0.00019723   -0.00039561    0.00000000
     atom   94 type  1   force =    -0.00010313    0.00050722    0.00000001
     atom   95 type  1   force =    -0.00020270   -0.00015825    0.00000001
     atom   96 type  1   force =     0.00029747   -0.00000005   -0.00000000
     atom   97 type  1   force =    -0.00079448    0.00000006    0.00000000

     Total force =     0.052421     Total SCF correction =     0.000005
     Energy error            =      8.5E-03 Ry
     Gradient error          =      1.7E-02 Ry/Bohr

     number of scf cycles    =   3
     number of bfgs steps    =   2

     energy             old  =   -1168.0883344555 Ry
     energy             new  =   -1168.0968485854 Ry

     CASE: energy            _new < energy            _old

     new trust radius        =       0.0133563949 bohr
     new conv_thr            =            1.0E-10 Ry


ATOMIC_POSITIONS (crystal)
C                0.0476180767        0.0476180745        0.0000000003
C                0.0952550965        0.0952550982        0.0000000001
C                0.0476128537        0.1904796684        0.0000000002
C                0.0952544262        0.2380710361        0.0000000009
C                0.0476164427        0.3333357482       -0.0000000000
C                0.0952457925        0.3809450314       -0.0000000005
C                0.0476588360        0.4761898854       -0.0000000003
C                0.0953555745        0.5238455563       -0.0000000005
C                0.0475883558        0.6190787677       -0.0000000007
C                0.0950833992        0.6667351165        0.0000000001
C                0.0476103608        0.7618935563        0.0000000001
C                0.0954377852        0.8092482980       -0.0000000002
C                0.0476973136        0.9047052456        0.0000000001
C                0.0952403798        0.9523833120       -0.0000000003
C                0.1904796662        0.0476128548       -0.0000000000
C                0.2380710319        0.0952544297        0.0000000003
C                0.1904789560        0.1904789582        0.0000000012
C                0.2380856767        0.2380856841        0.0000000006
C                0.1904535317        0.3333529566       -0.0000000003
C                0.2379423007        0.3809360531       -0.0000000003
C                0.1908207139        0.4761631544       -0.0000000002
C                0.2384883581        0.5237528185        0.0000000005
C                0.1908831356        0.6188661727        0.0000000002
C                0.2392063453        0.6654656997        0.0000000001
C                0.1911880942        0.7612265767       -0.0000000003
C                0.2379976575        0.8096149542        0.0000000000
C                0.1904823839        0.9047417404       -0.0000000002
C                0.2380828315        0.9524147557        0.0000000002
C                0.3333357465        0.0476164435       -0.0000000001
C                0.3809450281        0.0952457927       -0.0000000002
C                0.3333529562        0.1904535342        0.0000000003
C                0.3809360442        0.2379423043       -0.0000000006
C                0.3332369363        0.3332369186       -0.0000000000
C                0.3802134471        0.3802134859        0.0000000005
C                0.3348459705        0.4752583224        0.0000000005
C1               0.3805161079        0.5222612406        0.0000000013
C                0.3362826100        0.6165756034       -0.0000000003
C                0.3808692024        0.6670225835       -0.0000000004
C                0.3334424690        0.7616052420       -0.0000000005
C                0.3809380339        0.8096152761       -0.0000000009
C                0.3333556905        0.9047248039       -0.0000000001
C                0.3809445505        0.9523825709       -0.0000000000
C                0.4761898789        0.0476588454       -0.0000000002
C                0.5238455643        0.0953555912       -0.0000000003
C                0.4761631342        0.1908207930       -0.0000000002
C                0.5237528159        0.2384885471        0.0000000001
C                0.4752582097        0.3348463738        0.0000000007
C1               0.5222613195        0.3805167321        0.0000000004
C1               0.5258616824        0.5258609546       -0.0000000007
C                0.4759314016        0.6184536398        0.0000000001
C                0.5239923865        0.6664917160        0.0000000006
C                0.4762032885        0.7616492444       -0.0000000004
C                0.5238551343        0.8094322980        0.0000000003
C                0.4761919014        0.9047408414       -0.0000000000
C                0.5238216685        0.9523826086       -0.0000000004
C                0.6190787640        0.0475883571       -0.0000000001
C                0.6667351201        0.0950833962       -0.0000000005
C                0.6188661422        0.1908831728       -0.0000000005
C                0.6654656851        0.2392063987       -0.0000000001
C                0.6165756250        0.3362827278        0.0000000003
C                0.6670227576        0.3808691378       -0.0000000005
C                0.6184539371        0.4759313734       -0.0000000007
C                0.6664918738        0.5239923517       -0.0000000002
C                0.6189799302        0.6189799516        0.0000000005
C                0.6667576495        0.6667576435        0.0000000008
C                0.6190883301        0.7618880045        0.0000000005
C                0.6666866203        0.8095292186        0.0000000003
C                0.6190674767        0.9047492868       -0.0000000003
C                0.6666804838        0.9523592744       -0.0000000006
C                0.7618935609        0.0476103570        0.0000000005
C                0.8092482916        0.0954377945       -0.0000000001
C                0.7612265804        0.1911881063       -0.0000000001
C                0.8096149571        0.2379976594        0.0000000005
C                0.7616053049        0.3334424311        0.0000000009
C                0.8096152755        0.3809380383        0.0000000006
C                0.7616493040        0.4762032941       -0.0000000004
C                0.8094323157        0.5238551245       -0.0000000006
C                0.7618880070        0.6190883325       -0.0000000000
C                0.8095292205        0.6666866168        0.0000000002
C                0.7619120052        0.7619120037        0.0000000003
C                0.8095228326        0.8095228285        0.0000000000
C                0.7619149552        0.9047441004       -0.0000000002
C                0.8095255019        0.9523533238        0.0000000002
C                0.9047052456        0.0476973147        0.0000000000
C                0.9523833120        0.0952403809       -0.0000000002
C                0.9047417464        0.1904823812       -0.0000000002
C                0.9524147541        0.2380828355       -0.0000000004
C                0.9047248092        0.3333556910        0.0000000000
C                0.9523825691        0.3809445520        0.0000000000
C                0.9047408435        0.4761919065       -0.0000000002
C                0.9523826109        0.5238216655       -0.0000000003
C                0.9047492890        0.6190674762       -0.0000000002
C                0.9523592783        0.6666804809       -0.0000000006
C                0.9047441032        0.7619149529       -0.0000000002
C                0.9523533255        0.8095254992       -0.0000000002
C                0.9047530616        0.9047530580       -0.0000000000
C                0.9523675124        0.9523675128        0.0000000009



     Writing config-only to output data dir /home/gregb26/links/scratch/qe_tmp/vacancy_relaxed/series/7x7/nspin2/vac_7x7_relax_nspin2.save/ :
     XML data file
     NEW-OLD atomic charge density approx. for the potential

     negative rho (up, down):  1.302E-06 1.314E-06
     Generating pointlists ...

     total cpu time spent up to now is      347.1 secs

     per-process dynamical memory:   262.1 Mb

     Self-consistent Calculation

     iteration #  1     ecut=   100.00 Ry     beta= 0.30
     Davidson diagonalization with overlap
     ethr =  1.00E-06,  avg # of iterations =  5.5

     negative rho (up, down):  9.022E-07 8.692E-07

     total cpu time spent up to now is      354.0 secs

     total energy              =   -1168.09796668 Ry
     estimated scf accuracy    <       0.00106905 Ry

     total magnetization       =     1.33 Bohr mag/cell
     absolute magnetization    =     1.88 Bohr mag/cell

     iteration #  2     ecut=   100.00 Ry     beta= 0.30
     Davidson diagonalization with overlap
     ethr =  2.76E-07,  avg # of iterations =  3.5

     negative rho (up, down):  7.362E-07 7.103E-07

     total cpu time spent up to now is      357.6 secs

     total energy              =   -1168.09793058 Ry
     estimated scf accuracy    <       0.00096263 Ry

     total magnetization       =     1.17 Bohr mag/cell
     absolute magnetization    =     1.76 Bohr mag/cell

     iteration #  3     ecut=   100.00 Ry     beta= 0.30
     Davidson diagonalization with overlap
     ethr =  2.48E-07,  avg # of iterations =  2.5

     negative rho (up, down):  3.603E-07 3.497E-07

     total cpu time spent up to now is      361.0 secs

     total energy              =   -1168.09807501 Ry
     estimated scf accuracy    <       0.00087206 Ry

     total magnetization       =     1.39 Bohr mag/cell
     absolute magnetization    =     1.94 Bohr mag/cell

     iteration #  4     ecut=   100.00 Ry     beta= 0.30
     Davidson diagonalization with overlap
     ethr =  2.25E-07,  avg # of iterations =  2.0

     negative rho (up, down):  1.555E-07 1.531E-07

     total cpu time spent up to now is      364.4 secs

     total energy              =   -1168.09811818 Ry
     estimated scf accuracy    <       0.00016207 Ry

     total magnetization       =     1.34 Bohr mag/cell
     absolute magnetization    =     1.91 Bohr mag/cell

     iteration #  5     ecut=   100.00 Ry     beta= 0.30
     Davidson diagonalization with overlap
     ethr =  4.18E-08,  avg # of iterations =  3.0

     negative rho (up, down):  2.953E-08 3.041E-08

     total cpu time spent up to now is      367.8 secs

     total energy              =   -1168.09814180 Ry
     estimated scf accuracy    <       0.00005861 Ry

     total magnetization       =     1.33 Bohr mag/cell
     absolute magnetization    =     1.91 Bohr mag/cell

     iteration #  6     ecut=   100.00 Ry     beta= 0.30
     Davidson diagonalization with overlap
     ethr =  1.51E-08,  avg # of iterations =  3.0

     total cpu time spent up to now is      371.3 secs

     total energy              =   -1168.09815814 Ry
     estimated scf accuracy    <       0.00003173 Ry

     total magnetization       =     1.34 Bohr mag/cell
     absolute magnetization    =     1.93 Bohr mag/cell

     iteration #  7     ecut=   100.00 Ry     beta= 0.30
     Davidson diagonalization with overlap
     ethr =  8.18E-09,  avg # of iterations =  3.0

     negative rho (up, down):  1.160E-08 1.120E-08

     total cpu time spent up to now is      374.8 secs

     total energy              =   -1168.09817055 Ry
     estimated scf accuracy    <       0.00003193 Ry

     total magnetization       =     1.35 Bohr mag/cell
     absolute magnetization    =     1.95 Bohr mag/cell

     iteration #  8     ecut=   100.00 Ry     beta= 0.30
     Davidson diagonalization with overlap
     ethr =  8.18E-09,  avg # of iterations =  3.5

     negative rho (up, down):  3.763E-08 3.462E-08

     total cpu time spent up to now is      378.4 secs

     total energy              =   -1168.09817629 Ry
     estimated scf accuracy    <       0.00001705 Ry

     total magnetization       =     1.36 Bohr mag/cell
     absolute magnetization    =     1.97 Bohr mag/cell

     iteration #  9     ecut=   100.00 Ry     beta= 0.30
     Davidson diagonalization with overlap
     ethr =  4.40E-09,  avg # of iterations =  5.5

     negative rho (up, down):  2.735E-08 2.516E-08

     total cpu time spent up to now is      383.2 secs

     total energy              =   -1168.09819584 Ry
     estimated scf accuracy    <       0.00000316 Ry

     total magnetization       =     1.38 Bohr mag/cell
     absolute magnetization    =     2.01 Bohr mag/cell

     iteration # 10     ecut=   100.00 Ry     beta= 0.30
     Davidson diagonalization with overlap
     ethr =  8.13E-10,  avg # of iterations =  4.5

     negative rho (up, down):  1.338E-08 1.231E-08

     total cpu time spent up to now is      387.9 secs

     total energy              =   -1168.09819928 Ry
     estimated scf accuracy    <       0.00000073 Ry

     total magnetization       =     1.38 Bohr mag/cell
     absolute magnetization    =     2.03 Bohr mag/cell

     iteration # 11     ecut=   100.00 Ry     beta= 0.30
     Davidson diagonalization with overlap
     ethr =  1.87E-10,  avg # of iterations =  5.0

     total cpu time spent up to now is      392.5 secs

     total energy              =   -1168.09820013 Ry
     estimated scf accuracy    <       0.00000034 Ry

     total magnetization       =     1.39 Bohr mag/cell
     absolute magnetization    =     2.04 Bohr mag/cell

     iteration # 12     ecut=   100.00 Ry     beta= 0.30
     Davidson diagonalization with overlap
     ethr =  8.75E-11,  avg # of iterations =  4.0

     total cpu time spent up to now is      396.7 secs

     total energy              =   -1168.09820039 Ry
     estimated scf accuracy    <       0.00000003 Ry

     total magnetization       =     1.39 Bohr mag/cell
     absolute magnetization    =     2.05 Bohr mag/cell

     iteration # 13     ecut=   100.00 Ry     beta= 0.30
     Davidson diagonalization with overlap
     ethr =  8.99E-12,  avg # of iterations =  5.5

     total cpu time spent up to now is      402.1 secs

     total energy              =   -1168.09820044 Ry
     estimated scf accuracy    <       0.00000002 Ry

     total magnetization       =     1.39 Bohr mag/cell
     absolute magnetization    =     2.05 Bohr mag/cell

     iteration # 14     ecut=   100.00 Ry     beta= 0.30
     Davidson diagonalization with overlap
     ethr =  4.91E-12,  avg # of iterations =  3.5

     total cpu time spent up to now is      406.0 secs

     total energy              =   -1168.09820043 Ry
     estimated scf accuracy    <          7.9E-09 Ry

     total magnetization       =     1.39 Bohr mag/cell
     absolute magnetization    =     2.05 Bohr mag/cell

     iteration # 15     ecut=   100.00 Ry     beta= 0.30
     Davidson diagonalization with overlap
     ethr =  2.03E-12,  avg # of iterations =  7.0

     total cpu time spent up to now is      412.1 secs

     total energy              =   -1168.09820049 Ry
     estimated scf accuracy    <          2.5E-09 Ry

     total magnetization       =     1.39 Bohr mag/cell
     absolute magnetization    =     2.05 Bohr mag/cell

     iteration # 16     ecut=   100.00 Ry     beta= 0.30
     Davidson diagonalization with overlap
     ethr =  6.51E-13,  avg # of iterations =  4.0

     total cpu time spent up to now is      416.8 secs

     total energy              =   -1168.09820049 Ry
     estimated scf accuracy    <          1.4E-09 Ry

     total magnetization       =     1.39 Bohr mag/cell
     absolute magnetization    =     2.05 Bohr mag/cell

     iteration # 17     ecut=   100.00 Ry     beta= 0.30
     Davidson diagonalization with overlap
     ethr =  3.65E-13,  avg # of iterations =  5.0

     total cpu time spent up to now is      421.8 secs

     total energy              =   -1168.09820049 Ry
     estimated scf accuracy    <          4.6E-10 Ry

     total magnetization       =     1.39 Bohr mag/cell
     absolute magnetization    =     2.05 Bohr mag/cell

     iteration # 18     ecut=   100.00 Ry     beta= 0.30
     Davidson diagonalization with overlap
     ethr =  1.19E-13,  avg # of iterations =  5.5

     total cpu time spent up to now is      427.6 secs

     total energy              =   -1168.09820049 Ry
     estimated scf accuracy    <          1.5E-10 Ry

     total magnetization       =     1.39 Bohr mag/cell
     absolute magnetization    =     2.05 Bohr mag/cell

     iteration # 19     ecut=   100.00 Ry     beta= 0.30
     Davidson diagonalization with overlap
     ethr =  1.00E-13,  avg # of iterations =  4.0

     Magnetic moment per site  (integrated on atomic sphere of radius R)
     atom   1 (R=0.032)  charge=  1.5259  magn= -0.0015
     atom   2 (R=0.032)  charge=  1.5260  magn=  0.0026
     atom   3 (R=0.032)  charge=  1.5266  magn= -0.0019
     atom   4 (R=0.032)  charge=  1.5261  magn=  0.0030
     atom   5 (R=0.032)  charge=  1.5268  magn= -0.0016
     atom   6 (R=0.032)  charge=  1.5267  magn=  0.0012
     atom   7 (R=0.032)  charge=  1.5259  magn= -0.0017
     atom   8 (R=0.032)  charge=  1.5242  magn=  0.0030
     atom   9 (R=0.032)  charge=  1.5275  magn= -0.0019
     atom  10 (R=0.032)  charge=  1.5234  magn=  0.0057
     atom  11 (R=0.032)  charge=  1.5270  magn= -0.0020
     atom  12 (R=0.032)  charge=  1.5212  magn=  0.0030
     atom  13 (R=0.032)  charge=  1.5239  magn= -0.0017
     atom  14 (R=0.032)  charge=  1.5260  magn=  0.0012
     atom  15 (R=0.032)  charge=  1.5266  magn= -0.0019
     atom  16 (R=0.032)  charge=  1.5261  magn=  0.0030
     atom  17 (R=0.032)  charge=  1.5272  magn= -0.0020
     atom  18 (R=0.032)  charge=  1.5265  magn=  0.0092
     atom  19 (R=0.032)  charge=  1.5286  magn= -0.0027
     atom  20 (R=0.032)  charge=  1.5275  magn=  0.0106
     atom  21 (R=0.032)  charge=  1.5253  magn= -0.0028
     atom  22 (R=0.032)  charge=  1.5174  magn=  0.0046
     atom  23 (R=0.032)  charge=  1.5259  magn= -0.0025
     atom  24 (R=0.032)  charge=  1.5106  magn=  0.0033
     atom  25 (R=0.032)  charge=  1.5188  magn= -0.0035
     atom  26 (R=0.032)  charge=  1.5264  magn=  0.0100
     atom  27 (R=0.032)  charge=  1.5261  magn= -0.0026
     atom  28 (R=0.032)  charge=  1.5266  magn=  0.0087
     atom  29 (R=0.032)  charge=  1.5268  magn= -0.0016
     atom  30 (R=0.032)  charge=  1.5267  magn=  0.0012
     atom  31 (R=0.032)  charge=  1.5286  magn= -0.0027
     atom  32 (R=0.032)  charge=  1.5275  magn=  0.0106
     atom  33 (R=0.032)  charge=  1.5350  magn= -0.0051
     atom  34 (R=0.032)  charge=  1.5389  magn=  0.0314
     atom  35 (R=0.032)  charge=  1.5313  magn= -0.0048
     atom  36 (R=0.032)  charge=  1.4338  magn=  0.0579
     atom  37 (R=0.032)  charge=  1.5129  magn= -0.0094
     atom  38 (R=0.032)  charge=  1.5332  magn=  0.0359
     atom  39 (R=0.032)  charge=  1.5259  magn= -0.0061
     atom  40 (R=0.032)  charge=  1.5264  magn=  0.0111
     atom  41 (R=0.032)  charge=  1.5262  magn= -0.0030
     atom  42 (R=0.032)  charge=  1.5268  magn=  0.0014
     atom  43 (R=0.032)  charge=  1.5259  magn= -0.0017
     atom  44 (R=0.032)  charge=  1.5242  magn=  0.0030
     atom  45 (R=0.032)  charge=  1.5253  magn= -0.0028
     atom  46 (R=0.032)  charge=  1.5174  magn=  0.0046
     atom  47 (R=0.032)  charge=  1.5312  magn= -0.0048
     atom  48 (R=0.032)  charge=  1.4337  magn=  0.0578
     atom  49 (R=0.032)  charge=  1.4644  magn=  0.2331
     atom  50 (R=0.032)  charge=  1.5319  magn= -0.0084
     atom  51 (R=0.032)  charge=  1.5227  magn=  0.0157
     atom  52 (R=0.032)  charge=  1.5249  magn= -0.0019
     atom  53 (R=0.032)  charge=  1.5258  magn=  0.0039
     atom  54 (R=0.032)  charge=  1.5257  magn= -0.0016
     atom  55 (R=0.032)  charge=  1.5265  magn=  0.0039
     atom  56 (R=0.032)  charge=  1.5275  magn= -0.0019
     atom  57 (R=0.032)  charge=  1.5234  magn=  0.0057
     atom  58 (R=0.032)  charge=  1.5259  magn= -0.0025
     atom  59 (R=0.032)  charge=  1.5106  magn=  0.0033
     atom  60 (R=0.032)  charge=  1.5129  magn= -0.0094
     atom  61 (R=0.032)  charge=  1.5332  magn=  0.0359
     atom  62 (R=0.032)  charge=  1.5319  magn= -0.0084
     atom  63 (R=0.032)  charge=  1.5227  magn=  0.0157
     atom  64 (R=0.032)  charge=  1.5277  magn= -0.0060
     atom  65 (R=0.032)  charge=  1.5276  magn=  0.0067
     atom  66 (R=0.032)  charge=  1.5270  magn= -0.0026
     atom  67 (R=0.032)  charge=  1.5280  magn=  0.0016
     atom  68 (R=0.032)  charge=  1.5267  magn= -0.0015
     atom  69 (R=0.032)  charge=  1.5271  magn=  0.0014
     atom  70 (R=0.032)  charge=  1.5270  magn= -0.0020
     atom  71 (R=0.032)  charge=  1.5212  magn=  0.0030
     atom  72 (R=0.032)  charge=  1.5188  magn= -0.0035
     atom  73 (R=0.032)  charge=  1.5264  magn=  0.0100
     atom  74 (R=0.032)  charge=  1.5259  magn= -0.0061
     atom  75 (R=0.032)  charge=  1.5264  magn=  0.0111
     atom  76 (R=0.032)  charge=  1.5249  magn= -0.0019
     atom  77 (R=0.032)  charge=  1.5258  magn=  0.0039
     atom  78 (R=0.032)  charge=  1.5270  magn= -0.0026
     atom  79 (R=0.032)  charge=  1.5280  magn=  0.0016
     atom  80 (R=0.032)  charge=  1.5266  magn= -0.0016
     atom  81 (R=0.032)  charge=  1.5274  magn=  0.0031
     atom  82 (R=0.032)  charge=  1.5263  magn= -0.0014
     atom  83 (R=0.032)  charge=  1.5264  magn=  0.0014
     atom  84 (R=0.032)  charge=  1.5239  magn= -0.0017
     atom  85 (R=0.032)  charge=  1.5260  magn=  0.0012
     atom  86 (R=0.032)  charge=  1.5261  magn= -0.0026
     atom  87 (R=0.032)  charge=  1.5266  magn=  0.0087
     atom  88 (R=0.032)  charge=  1.5262  magn= -0.0030
     atom  89 (R=0.032)  charge=  1.5268  magn=  0.0014
     atom  90 (R=0.032)  charge=  1.5257  magn= -0.0016
     atom  91 (R=0.032)  charge=  1.5265  magn=  0.0039
     atom  92 (R=0.032)  charge=  1.5267  magn= -0.0015
     atom  93 (R=0.032)  charge=  1.5271  magn=  0.0014
     atom  94 (R=0.032)  charge=  1.5263  magn= -0.0014
     atom  95 (R=0.032)  charge=  1.5264  magn=  0.0014
     atom  96 (R=0.032)  charge=  1.5261  magn= -0.0015
     atom  97 (R=0.032)  charge=  1.5247  magn=  0.0037

     total cpu time spent up to now is      432.2 secs

     End of self-consistent calculation

 ------ SPIN UP ------------


          k = 0.0000 0.0000 0.0000 (233409 PWs)   bands (ev):

   -23.8009 -23.3673 -23.3508 -23.3389 -23.3356 -23.3353 -23.1833 -22.4111
   -22.4047 -22.4023 -22.3897 -22.3805 -22.2274 -21.9348 -21.9311 -21.9246
   -21.9196 -21.9079 -21.6001 -20.5811 -20.5799 -20.5413 -20.5359 -20.5260
   -20.5241 -20.5225 -20.5190 -20.5137 -20.4924 -20.4714 -20.0659 -19.6660
   -19.6543 -19.6426 -19.5990 -19.5928 -19.2002 -18.3852 -18.3795 -18.3592
   -18.3254 -18.3172 -18.3077 -18.2826 -18.2785 -18.2746 -18.2634 -18.2443
   -17.6644 -17.2661 -17.2611 -17.2568 -17.1557 -17.1318 -16.8118 -16.3549
   -16.3488 -16.3467 -16.2241 -16.2142 -16.1072 -15.8716 -15.8201 -15.8197
   -15.7465 -15.7341 -15.0551 -14.4485 -14.4408 -14.4319 -14.4096 -14.4001
   -14.3983 -14.3947 -14.3885 -14.3884 -14.3355 -14.3251 -14.2033 -14.1944
   -14.1758 -14.1746 -13.8458 -13.8199 -13.1436 -12.7333 -12.7220 -12.7079
   -12.5867 -12.5834 -12.2871 -12.1848 -12.1464 -12.1392 -12.0127 -12.0110
   -11.8857 -11.8597 -11.7194 -11.6496 -11.6380 -11.6299 -11.6267 -11.6249
   -11.6076 -11.6050 -11.5749 -11.4432 -11.3932 -11.3890 -11.3548 -11.3424
   -11.3329 -11.3306 -11.3294 -11.2395 -11.2307 -11.1902 -11.1672 -10.9588
   -10.9508 -10.6846 -10.6199 -10.6167 -10.6028 -10.3852 -10.3848 -10.2332
   -10.2222 -10.2189 -10.2185 -10.2027 -10.1068 -10.0476 -10.0321 -10.0034
   -10.0030  -9.8429  -9.8412  -9.7553  -9.7419  -9.7329  -9.6871  -9.6784
    -9.6781  -9.6777  -9.6743  -9.6666  -9.5522  -9.3815  -9.3720  -9.3634
    -9.1174  -9.1167  -9.1104  -8.5581  -8.5526  -8.2755  -8.2634  -8.2547
    -8.2023  -8.1414  -8.1407  -8.1297  -8.1250  -8.1146  -8.1057  -8.1028
    -8.0995  -8.0973  -8.0934  -8.0894  -7.9839  -7.7105  -7.4935  -7.4856
    -7.3231  -7.3209  -7.3087  -7.2963  -7.2949  -6.8915  -6.2337  -6.2218
    -6.2080  -6.2039  -6.2018  -6.0082  -5.8172  -5.8154  -5.7926  -5.7916
    -5.7701  -4.8005  -4.6012  -4.1234  -2.8348  -2.7896  -2.7843  -2.7835
    -2.7752  -2.7688  -2.7620  -2.7509  -2.7491  -2.6874  -2.6767  -2.1875
    -1.7833  -1.7671  -1.7481  -1.6963  -1.6876  -1.1733  -0.9768  -0.3504
    -0.3317  -0.3134  -0.3032  -0.2952  -0.2910  -0.2897  -0.2818  -0.2793

 ------ SPIN DOWN ----------


          k = 0.0000 0.0000 0.0000 (233409 PWs)   bands (ev):

   -23.7908 -23.3466 -23.3437 -23.3346 -23.3316 -23.3254 -23.1466 -22.3957
   -22.3922 -22.3826 -22.3773 -22.3732 -22.2118 -21.9247 -21.9164 -21.9118
   -21.9006 -21.8941 -21.5563 -20.5587 -20.5531 -20.5308 -20.5285 -20.5210
   -20.5184 -20.5174 -20.5124 -20.5091 -20.4507 -20.4467 -20.0380 -19.6465
   -19.6415 -19.6340 -19.5800 -19.5696 -19.1625 -18.3654 -18.3548 -18.3505
   -18.3182 -18.3096 -18.3017 -18.2745 -18.2712 -18.2637 -18.2490 -18.1939
   -17.5877 -17.2585 -17.2514 -17.2500 -17.1321 -17.1196 -16.7771 -16.3406
   -16.3381 -16.3359 -16.2017 -16.2012 -16.0948 -15.8633 -15.8126 -15.8108
   -15.7218 -15.6788 -15.0084 -14.4319 -14.4171 -14.4124 -14.3978 -14.3929
   -14.3896 -14.3891 -14.3784 -14.3775 -14.3243 -14.2994 -14.1981 -14.1904
   -14.1701 -14.1692 -13.7982 -13.7966 -13.0910 -12.7195 -12.7028 -12.6940
   -12.5758 -12.5623 -12.2663 -12.1655 -12.1382 -12.1294 -12.0048 -11.9996
   -11.8686 -11.8355 -11.6998 -11.6406 -11.6316 -11.6225 -11.6214 -11.6179
   -11.5962 -11.5918 -11.5635 -11.4224 -11.3768 -11.3711 -11.3295 -11.3248
   -11.3242 -11.3220 -11.3106 -11.2274 -11.2185 -11.1832 -11.1128 -10.9512
   -10.9263 -10.6668 -10.6149 -10.6132 -10.5968 -10.3658 -10.3571 -10.2038
   -10.2007 -10.1958 -10.1940 -10.1909 -10.0821 -10.0209 -10.0197  -9.9920
    -9.9843  -9.8367  -9.8361  -9.7486  -9.7291  -9.7247  -9.6697  -9.6627
    -9.6572  -9.6513  -9.6501  -9.6475  -9.4673  -9.3494  -9.3422  -9.3166
    -9.1114  -9.1082  -9.1003  -8.5412  -8.5307  -8.2693  -8.2509  -8.2454
    -8.1994  -8.1081  -8.1028  -8.0968  -8.0962  -8.0945  -8.0879  -8.0872
    -8.0841  -8.0826  -8.0703  -8.0544  -7.6736  -7.6356  -7.4769  -7.4627
    -7.2941  -7.2888  -7.2871  -7.2860  -7.2598  -6.8355  -6.2029  -6.1982
    -6.1899  -6.1838  -6.1658  -5.9787  -5.7822  -5.7794  -5.7778  -5.7579
    -5.7351  -4.5378  -3.8765  -3.3099  -2.8386  -2.7757  -2.7726  -2.7675
    -2.7567  -2.7537  -2.7434  -2.7349  -2.7337  -2.6091  -2.5722  -2.1568
    -1.7721  -1.7598  -1.7157  -1.6478  -1.6318  -1.1237  -0.9718  -0.3456
    -0.3120  -0.2965  -0.2850  -0.2791  -0.2701  -0.2642  -0.2546  -0.2543

     the Fermi energy is    -4.5580 ev

!    total energy              =   -1168.09820049 Ry
     estimated scf accuracy    <          3.1E-11 Ry
     smearing contrib. (-TS)   =      -0.00162740 Ry
     internal energy E=F+TS    =   -1168.09657309 Ry

     The total energy is F=E-TS. E is the sum of the following terms:
     one-electron contribution =  -13177.42517093 Ry
     hartree contribution      =    6624.64806544 Ry
     xc contribution           =    -415.45474761 Ry
     ewald contribution        =    5800.13528001 Ry

     total magnetization       =     1.39 Bohr mag/cell
     absolute magnetization    =     2.05 Bohr mag/cell

     convergence has been achieved in  19 iterations

     Forces acting on atoms (cartesian axes, Ry/au):

     atom    1 type  1   force =     0.00029149    0.00000002   -0.00000001
     atom    2 type  1   force =    -0.00075269   -0.00000004   -0.00000001
     atom    3 type  1   force =     0.00029243   -0.00004375    0.00000000
     atom    4 type  1   force =    -0.00006167    0.00040553   -0.00000000
     atom    5 type  1   force =    -0.00003442   -0.00007675   -0.00000000
     atom    6 type  1   force =    -0.00076200    0.00112573   -0.00000000
     atom    7 type  1   force =     0.00183198   -0.00118945   -0.00000001
     atom    8 type  1   force =     0.00067994   -0.00085116   -0.00000000
     atom    9 type  1   force =     0.00196556   -0.00165698    0.00000001
     atom   10 type  1   force =     0.00415802   -0.00482820   -0.00000001
     atom   11 type  1   force =    -0.00098323   -0.00225283   -0.00000001
     atom   12 type  1   force =     0.00251254   -0.00546463   -0.00000001
     atom   13 type  1   force =    -0.00096874   -0.00317997   -0.00000000
     atom   14 type  1   force =    -0.00002604   -0.00021135    0.00000000
     atom   15 type  1   force =     0.00029250    0.00004386    0.00000000
     atom   16 type  1   force =    -0.00006169   -0.00040561    0.00000001
     atom   17 type  1   force =     0.00062179    0.00000004    0.00000000
     atom   18 type  1   force =    -0.00131979   -0.00000009    0.00000000
     atom   19 type  1   force =     0.00040322    0.00034855    0.00000000
     atom   20 type  1   force =    -0.00146520    0.00234535    0.00000000
     atom   21 type  1   force =    -0.00343239   -0.00139300    0.00000000
     atom   22 type  1   force =     0.00079508    0.00479097    0.00000000
     atom   23 type  1   force =    -0.00288170   -0.00432708    0.00000002
     atom   24 type  1   force =    -0.00075464   -0.00224084   -0.00000000
     atom   25 type  1   force =     0.00018781   -0.00017553   -0.00000001
     atom   26 type  1   force =    -0.00178667   -0.00509526   -0.00000001
     atom   27 type  1   force =    -0.00061133    0.00010857   -0.00000000
     atom   28 type  1   force =    -0.00035238   -0.00020684   -0.00000000
     atom   29 type  1   force =    -0.00003448    0.00007679    0.00000001
     atom   30 type  1   force =    -0.00076187   -0.00112560    0.00000000
     atom   31 type  1   force =     0.00040295   -0.00034857   -0.00000001
     atom   32 type  1   force =    -0.00146496   -0.00234545    0.00000001
     atom   33 type  1   force =    -0.00470577    0.00000004    0.00000001
     atom   34 type  1   force =    -0.00226554    0.00000048   -0.00000000
     atom   35 type  1   force =    -0.00057415   -0.00291137    0.00000001
     atom   36 type  2   force =    -0.00850766   -0.00728971    0.00000001
     atom   37 type  1   force =    -0.00142884   -0.01061529    0.00000001
     atom   38 type  1   force =    -0.00023007   -0.00083057    0.00000000
     atom   39 type  1   force =     0.00082148    0.00272723    0.00000001
     atom   40 type  1   force =    -0.00212908   -0.00369259   -0.00000000
     atom   41 type  1   force =    -0.00012822   -0.00002712   -0.00000001
     atom   42 type  1   force =     0.00036449   -0.00047873    0.00000002
     atom   43 type  1   force =     0.00183234    0.00118949   -0.00000000
     atom   44 type  1   force =     0.00068064    0.00085201   -0.00000000
     atom   45 type  1   force =    -0.00343097    0.00139365    0.00000000
     atom   46 type  1   force =     0.00079641   -0.00478994   -0.00000000
     atom   47 type  1   force =    -0.00056980    0.00291639    0.00000000
     atom   48 type  2   force =    -0.00849777    0.00729322   -0.00000000
     atom   49 type  2   force =     0.01337318   -0.00000626   -0.00000000
     atom   50 type  1   force =     0.00562688   -0.00527164    0.00000002
     atom   51 type  1   force =     0.00348081    0.00009549   -0.00000001
     atom   52 type  1   force =     0.00407993    0.00395704    0.00000002
     atom   53 type  1   force =    -0.00177426   -0.00028183    0.00000000
     atom   54 type  1   force =    -0.00081234   -0.00036612    0.00000001
     atom   55 type  1   force =     0.00000925   -0.00006403    0.00000000
     atom   56 type  1   force =     0.00196597    0.00165693   -0.00000001
     atom   57 type  1   force =     0.00415791    0.00482862    0.00000000
     atom   58 type  1   force =    -0.00287997    0.00432752   -0.00000001
     atom   59 type  1   force =    -0.00075517    0.00224106   -0.00000000
     atom   60 type  1   force =    -0.00142625    0.01061672    0.00000000
     atom   61 type  1   force =    -0.00022876    0.00082877   -0.00000001
     atom   62 type  1   force =     0.00563050    0.00526902   -0.00000000
     atom   63 type  1   force =     0.00348251   -0.00009570   -0.00000000
     atom   64 type  1   force =     0.00236181   -0.00000116   -0.00000002
     atom   65 type  1   force =    -0.00335483    0.00000033   -0.00000001
     atom   66 type  1   force =    -0.00000118   -0.00006346   -0.00000000
     atom   67 type  1   force =     0.00037864    0.00012887    0.00000000
     atom   68 type  1   force =     0.00033360   -0.00004292   -0.00000000
     atom   69 type  1   force =    -0.00063355   -0.00087385   -0.00000001
     atom   70 type  1   force =    -0.00098306    0.00225332   -0.00000002
     atom   71 type  1   force =     0.00251246    0.00546445   -0.00000001
     atom   72 type  1   force =     0.00018805    0.00017653    0.00000001
     atom   73 type  1   force =    -0.00178657    0.00509367    0.00000000
     atom   74 type  1   force =     0.00082157   -0.00272725    0.00000001
     atom   75 type  1   force =    -0.00212770    0.00369150    0.00000000
     atom   76 type  1   force =     0.00408012   -0.00395770    0.00000000
     atom   77 type  1   force =    -0.00177300    0.00028164    0.00000001
     atom   78 type  1   force =    -0.00000149    0.00006318   -0.00000000
     atom   79 type  1   force =     0.00037879   -0.00012882   -0.00000000
     atom   80 type  1   force =     0.00004270    0.00000000    0.00000001
     atom   81 type  1   force =    -0.00019079   -0.00000005   -0.00000001
     atom   82 type  1   force =     0.00015485    0.00053380   -0.00000000
     atom   83 type  1   force =     0.00022949   -0.00071825   -0.00000001
     atom   84 type  1   force =    -0.00096872    0.00318024    0.00000000
     atom   85 type  1   force =    -0.00002605    0.00021119   -0.00000000
     atom   86 type  1   force =    -0.00061149   -0.00010836   -0.00000001
     atom   87 type  1   force =    -0.00035222    0.00020655   -0.00000000
     atom   88 type  1   force =    -0.00012847    0.00002741    0.00000001
     atom   89 type  1   force =     0.00036475    0.00047867    0.00000000
     atom   90 type  1   force =    -0.00081231    0.00036594    0.00000001
     atom   91 type  1   force =     0.00000931    0.00006412    0.00000000
     atom   92 type  1   force =     0.00033351    0.00004287    0.00000000
     atom   93 type  1   force =    -0.00063349    0.00087386    0.00000000
     atom   94 type  1   force =     0.00015478   -0.00053368   -0.00000001
     atom   95 type  1   force =     0.00022959    0.00071809   -0.00000000
     atom   96 type  1   force =    -0.00070864    0.00000007    0.00000001
     atom   97 type  1   force =     0.00064246   -0.00000005   -0.00000001

     Total force =     0.037847     Total SCF correction =     0.000004
     Energy error            =      1.4E-03 Ry
     Gradient error          =      1.3E-02 Ry/Bohr

     number of scf cycles    =   4
     number of bfgs steps    =   3

     energy             old  =   -1168.0968485854 Ry
     energy             new  =   -1168.0982004933 Ry

     CASE: energy            _new < energy            _old

     new trust radius        =       0.0222650833 bohr
     new conv_thr            =            1.0E-10 Ry


ATOMIC_POSITIONS (crystal)
C                0.0476207655        0.0476207637       -0.0000000001
C                0.0952475956        0.0952475951        0.0000000000
C                0.0476222571        0.1904801266        0.0000000004
C                0.0952455989        0.2380786205        0.0000000013
C                0.0476148651        0.3333341705       -0.0000000002
C                0.0952053046        0.3809610789       -0.0000000005
C                0.0477387241        0.4761922042       -0.0000000006
C                0.0954636238        0.5238277276       -0.0000000010
C                0.0476482128        0.6190595363       -0.0000000005
C                0.0953462321        0.6666376818       -0.0000000004
C                0.0476530967        0.7618368989        0.0000000001
C                0.0957580505        0.8089939851       -0.0000000004
C                0.0478114125        0.9045664432       -0.0000000000
C                0.0952426932        0.9523758700       -0.0000000003
C                0.1904801223        0.0476222623       -0.0000000000
C                0.2380786167        0.0952456009        0.0000000009
C                0.1904850366        0.1904850397        0.0000000019
C                0.2380675310        0.2380675361        0.0000000007
C                0.1904219196        0.3333660244       -0.0000000005
C                0.2378129476        0.3809733761       -0.0000000004
C                0.1908906533        0.4760880873       -0.0000000005
C                0.2385126575        0.5237163246        0.0000000011
C                0.1912154767        0.6186171806        0.0000000010
C                0.2395834963        0.6651650711       -0.0000000001
C                0.1914554921        0.7609362249       -0.0000000005
C                0.2380942474        0.8094297177       -0.0000000002
C                0.1904722032        0.9047266652       -0.0000000001
C                0.2380861975        0.9524067032        0.0000000002
C                0.3333341675        0.0476148654        0.0000000001
C                0.3809610747        0.0952053093       -0.0000000002
C                0.3333660236        0.1904219188        0.0000000002
C                0.3809733747        0.2378129485       -0.0000000006
C                0.3331026174        0.3331025930        0.0000000002
C                0.3800348785        0.3800349466        0.0000000006
C                0.3347248041        0.4751716579        0.0000000012
C1               0.3806393907        0.5216650023        0.0000000021
C                0.3364797000        0.6163195780       -0.0000000000
C                0.3809133389        0.6669706258       -0.0000000004
C                0.3334573161        0.7615409209       -0.0000000003
C                0.3809933365        0.8094789652       -0.0000000013
C                0.3333540155        0.9047224417       -0.0000000007
C                0.3809589777        0.9523738842        0.0000000006
C                0.4761921989        0.0477387470       -0.0000000002
C                0.5238277275        0.0954636889       -0.0000000003
C                0.4760880636        0.1908908140       -0.0000000005
C                0.5237163150        0.2385129767        0.0000000001
C                0.4751714344        0.3347255067        0.0000000009
C1               0.5216651722        0.3806404531        0.0000000003
C1               0.5262560622        0.5262547627       -0.0000000009
C                0.4761930568        0.6186826010        0.0000000009
C                0.5239894010        0.6666340543        0.0000000003
C                0.4761990693        0.7617116972        0.0000000001
C                0.5238374134        0.8093564521        0.0000000004
C                0.4761977622        0.9047008979        0.0000000003
C                0.5238258986        0.9523848692       -0.0000000004
C                0.6190595388        0.0476482217       -0.0000000007
C                0.6666376686        0.0953462454       -0.0000000008
C                0.6186171357        0.1912155840       -0.0000000008
C                0.6651650297        0.2395835843       -0.0000000004
C                0.6163195961        0.3364799382        0.0000000005
C                0.6669709411        0.3809132129       -0.0000000007
C                0.6186830809        0.4761930154       -0.0000000010
C                0.6666343089        0.5239893627       -0.0000000004
C                0.6189804978        0.6189804811        0.0000000001
C                0.6667041692        0.6667041817        0.0000000006
C                0.6190883522        0.7619043378        0.0000000005
C                0.6666922087        0.8095419610        0.0000000005
C                0.6190752624        0.9047505187       -0.0000000005
C                0.6666932051        0.9523262725       -0.0000000009
C                0.7618368940        0.0476531076       -0.0000000006
C                0.8089939782        0.0957580599       -0.0000000004
C                0.7609362100        0.1914555373        0.0000000003
C                0.8094297694        0.2380942029        0.0000000006
C                0.7615410364        0.3334572492        0.0000000014
C                0.8094790181        0.3809933312        0.0000000008
C                0.7617118157        0.4761990595       -0.0000000001
C                0.8093565084        0.5238374134       -0.0000000003
C                0.7619043434        0.6190883451       -0.0000000000
C                0.8095419636        0.6666922080        0.0000000003
C                0.7619166170        0.7619166159        0.0000000007
C                0.8095195332        0.8095195257       -0.0000000003
C                0.7619091078        0.9047525024       -0.0000000002
C                0.8095485456        0.9523332565        0.0000000000
C                0.9045664353        0.0478114223        0.0000000001
C                0.9523758727        0.0952426906       -0.0000000002
C                0.9047266658        0.1904722008       -0.0000000005
C                0.9524067108        0.2380861973       -0.0000000006
C                0.9047224421        0.3333540176        0.0000000002
C                0.9523738877        0.3809589802        0.0000000001
C                0.9047009069        0.4761977657        0.0000000002
C                0.9523848700        0.5238258978       -0.0000000004
C                0.9047505215        0.6190752589       -0.0000000005
C                0.9523262766        0.6666932033       -0.0000000006
C                0.9047525002        0.7619091078       -0.0000000003
C                0.9523332625        0.8095485411       -0.0000000001
C                0.9047421438        0.9047421430        0.0000000002
C                0.9523730710        0.9523730706        0.0000000007



     Writing config-only to output data dir /home/gregb26/links/scratch/qe_tmp/vacancy_relaxed/series/7x7/nspin2/vac_7x7_relax_nspin2.save/ :
     XML data file
     NEW-OLD atomic charge density approx. for the potential

     negative rho (up, down):  1.440E-06 1.464E-06
     Generating pointlists ...

     total cpu time spent up to now is      434.6 secs

     per-process dynamical memory:   262.1 Mb

     Self-consistent Calculation

     iteration #  1     ecut=   100.00 Ry     beta= 0.30
     Davidson diagonalization with overlap
     ethr =  1.00E-06,  avg # of iterations =  6.0

     negative rho (up, down):  1.153E-06 9.154E-07

     total cpu time spent up to now is      441.6 secs

     total energy              =   -1168.09914819 Ry
     estimated scf accuracy    <       0.00130899 Ry

     total magnetization       =     1.59 Bohr mag/cell
     absolute magnetization    =     2.23 Bohr mag/cell

     iteration #  2     ecut=   100.00 Ry     beta= 0.30
     Davidson diagonalization with overlap
     ethr =  3.37E-07,  avg # of iterations =  5.0

     negative rho (up, down):  9.996E-07 7.934E-07

     total cpu time spent up to now is      445.6 secs

     total energy              =   -1168.09911769 Ry
     estimated scf accuracy    <       0.00284421 Ry

     total magnetization       =     1.29 Bohr mag/cell
     absolute magnetization    =     1.98 Bohr mag/cell

     iteration #  3     ecut=   100.00 Ry     beta= 0.30
     Davidson diagonalization with overlap
     ethr =  3.37E-07,  avg # of iterations =  3.0

     negative rho (up, down):  5.113E-07 4.073E-07

     total cpu time spent up to now is      449.1 secs

     total energy              =   -1168.09944488 Ry
     estimated scf accuracy    <       0.00037143 Ry

     total magnetization       =     1.56 Bohr mag/cell
     absolute magnetization    =     2.21 Bohr mag/cell

     iteration #  4     ecut=   100.00 Ry     beta= 0.30
     Davidson diagonalization with overlap
     ethr =  9.57E-08,  avg # of iterations =  2.0

     negative rho (up, down):  1.804E-07 1.445E-07

     total cpu time spent up to now is      452.4 secs

     total energy              =   -1168.09947555 Ry
     estimated scf accuracy    <       0.00017456 Ry

     total magnetization       =     1.55 Bohr mag/cell
     absolute magnetization    =     2.22 Bohr mag/cell

     iteration #  5     ecut=   100.00 Ry     beta= 0.30
     Davidson diagonalization with overlap
     ethr =  4.50E-08,  avg # of iterations =  2.0

     negative rho (up, down):  2.517E-08 2.016E-08

     total cpu time spent up to now is      455.8 secs

     total energy              =   -1168.09949902 Ry
     estimated scf accuracy    <       0.00007731 Ry

     total magnetization       =     1.55 Bohr mag/cell
     absolute magnetization    =     2.23 Bohr mag/cell

     iteration #  6     ecut=   100.00 Ry     beta= 0.30
     Davidson diagonalization with overlap
     ethr =  1.99E-08,  avg # of iterations =  3.5

     total cpu time spent up to now is      459.4 secs

     total energy              =   -1168.09951646 Ry
     estimated scf accuracy    <       0.00002481 Ry

     total magnetization       =     1.55 Bohr mag/cell
     absolute magnetization    =     2.24 Bohr mag/cell

     iteration #  7     ecut=   100.00 Ry     beta= 0.30
     Davidson diagonalization with overlap
     ethr =  6.40E-09,  avg # of iterations =  3.0

     negative rho (up, down):  4.281E-08 3.069E-08

     total cpu time spent up to now is      462.9 secs

     total energy              =   -1168.09952831 Ry
     estimated scf accuracy    <       0.00001989 Ry

     total magnetization       =     1.56 Bohr mag/cell
     absolute magnetization    =     2.25 Bohr mag/cell

     iteration #  8     ecut=   100.00 Ry     beta= 0.30
     Davidson diagonalization with overlap
     ethr =  5.13E-09,  avg # of iterations =  4.0

     negative rho (up, down):  3.782E-08 2.717E-08

     total cpu time spent up to now is      466.8 secs

     total energy              =   -1168.09953768 Ry
     estimated scf accuracy    <       0.00001154 Ry

     total magnetization       =     1.57 Bohr mag/cell
     absolute magnetization    =     2.28 Bohr mag/cell

     iteration #  9     ecut=   100.00 Ry     beta= 0.30
     Davidson diagonalization with overlap
     ethr =  2.97E-09,  avg # of iterations =  5.0

     negative rho (up, down):  2.228E-08 1.587E-08

     total cpu time spent up to now is      471.2 secs

     total energy              =   -1168.09954595 Ry
     estimated scf accuracy    <       0.00000217 Ry

     total magnetization       =     1.58 Bohr mag/cell
     absolute magnetization    =     2.30 Bohr mag/cell

     iteration # 10     ecut=   100.00 Ry     beta= 0.30
     Davidson diagonalization with overlap
     ethr =  5.60E-10,  avg # of iterations =  4.5

     negative rho (up, down):  1.331E-08 9.345E-09

     total cpu time spent up to now is      475.5 secs

     total energy              =   -1168.09954733 Ry
     estimated scf accuracy    <       0.00000071 Ry

     total magnetization       =     1.58 Bohr mag/cell
     absolute magnetization    =     2.31 Bohr mag/cell

     iteration # 11     ecut=   100.00 Ry     beta= 0.30
     Davidson diagonalization with overlap
     ethr =  1.82E-10,  avg # of iterations =  5.0

     total cpu time spent up to now is      480.2 secs

     total energy              =   -1168.09954803 Ry
     estimated scf accuracy    <       0.00000018 Ry

     total magnetization       =     1.58 Bohr mag/cell
     absolute magnetization    =     2.32 Bohr mag/cell

     iteration # 12     ecut=   100.00 Ry     beta= 0.30
     Davidson diagonalization with overlap
     ethr =  4.76E-11,  avg # of iterations =  5.0

     total cpu time spent up to now is      485.1 secs

     total energy              =   -1168.09954827 Ry
     estimated scf accuracy    <       0.00000003 Ry

     total magnetization       =     1.58 Bohr mag/cell
     absolute magnetization    =     2.33 Bohr mag/cell

     iteration # 13     ecut=   100.00 Ry     beta= 0.30
     Davidson diagonalization with overlap
     ethr =  8.40E-12,  avg # of iterations =  5.5

     total cpu time spent up to now is      490.0 secs

     total energy              =   -1168.09954832 Ry
     estimated scf accuracy    <       0.00000001 Ry

     total magnetization       =     1.58 Bohr mag/cell
     absolute magnetization    =     2.33 Bohr mag/cell

     iteration # 14     ecut=   100.00 Ry     beta= 0.30
     Davidson diagonalization with overlap
     ethr =  2.71E-12,  avg # of iterations =  4.0

     total cpu time spent up to now is      494.6 secs

     total energy              =   -1168.09954833 Ry
     estimated scf accuracy    <          3.6E-09 Ry

     total magnetization       =     1.58 Bohr mag/cell
     absolute magnetization    =     2.33 Bohr mag/cell

     iteration # 15     ecut=   100.00 Ry     beta= 0.30
     Davidson diagonalization with overlap
     ethr =  9.22E-13,  avg # of iterations =  6.0

     total cpu time spent up to now is      500.3 secs

     total energy              =   -1168.09954834 Ry
     estimated scf accuracy    <          1.3E-09 Ry

     total magnetization       =     1.59 Bohr mag/cell
     absolute magnetization    =     2.33 Bohr mag/cell

     iteration # 16     ecut=   100.00 Ry     beta= 0.30
     Davidson diagonalization with overlap
     ethr =  3.44E-13,  avg # of iterations =  5.5

     total cpu time spent up to now is      505.8 secs

     total energy              =   -1168.09954835 Ry
     estimated scf accuracy    <          5.7E-10 Ry

     total magnetization       =     1.59 Bohr mag/cell
     absolute magnetization    =     2.34 Bohr mag/cell

     iteration # 17     ecut=   100.00 Ry     beta= 0.30
     Davidson diagonalization with overlap
     ethr =  1.47E-13,  avg # of iterations =  5.5

     total cpu time spent up to now is      510.9 secs

     total energy              =   -1168.09954835 Ry
     estimated scf accuracy    <          1.7E-10 Ry

     total magnetization       =     1.58 Bohr mag/cell
     absolute magnetization    =     2.34 Bohr mag/cell

     iteration # 18     ecut=   100.00 Ry     beta= 0.30
     Davidson diagonalization with overlap
     ethr =  1.00E-13,  avg # of iterations =  5.5

     Magnetic moment per site  (integrated on atomic sphere of radius R)
     atom   1 (R=0.032)  charge=  1.5259  magn= -0.0016
     atom   2 (R=0.032)  charge=  1.5259  magn=  0.0027
     atom   3 (R=0.032)  charge=  1.5266  magn= -0.0021
     atom   4 (R=0.032)  charge=  1.5261  magn=  0.0034
     atom   5 (R=0.032)  charge=  1.5270  magn= -0.0018
     atom   6 (R=0.032)  charge=  1.5269  magn=  0.0014
     atom   7 (R=0.032)  charge=  1.5255  magn= -0.0019
     atom   8 (R=0.032)  charge=  1.5245  magn=  0.0033
     atom   9 (R=0.032)  charge=  1.5261  magn= -0.0022
     atom  10 (R=0.032)  charge=  1.5218  magn=  0.0064
     atom  11 (R=0.032)  charge=  1.5257  magn= -0.0022
     atom  12 (R=0.032)  charge=  1.5202  magn=  0.0034
     atom  13 (R=0.032)  charge=  1.5222  magn= -0.0019
     atom  14 (R=0.032)  charge=  1.5259  magn=  0.0013
     atom  15 (R=0.032)  charge=  1.5266  magn= -0.0021
     atom  16 (R=0.032)  charge=  1.5261  magn=  0.0034
     atom  17 (R=0.032)  charge=  1.5274  magn= -0.0022
     atom  18 (R=0.032)  charge=  1.5263  magn=  0.0105
     atom  19 (R=0.032)  charge=  1.5289  magn= -0.0031
     atom  20 (R=0.032)  charge=  1.5286  magn=  0.0121
     atom  21 (R=0.032)  charge=  1.5264  magn= -0.0031
     atom  22 (R=0.032)  charge=  1.5199  magn=  0.0054
     atom  23 (R=0.032)  charge=  1.5264  magn= -0.0028
     atom  24 (R=0.032)  charge=  1.5119  magn=  0.0038
     atom  25 (R=0.032)  charge=  1.5193  magn= -0.0039
     atom  26 (R=0.032)  charge=  1.5261  magn=  0.0111
     atom  27 (R=0.032)  charge=  1.5250  magn= -0.0030
     atom  28 (R=0.032)  charge=  1.5263  magn=  0.0096
     atom  29 (R=0.032)  charge=  1.5270  magn= -0.0018
     atom  30 (R=0.032)  charge=  1.5269  magn=  0.0014
     atom  31 (R=0.032)  charge=  1.5289  magn= -0.0031
     atom  32 (R=0.032)  charge=  1.5286  magn=  0.0121
     atom  33 (R=0.032)  charge=  1.5358  magn= -0.0060
     atom  34 (R=0.032)  charge=  1.5387  magn=  0.0358
     atom  35 (R=0.032)  charge=  1.5343  magn= -0.0054
     atom  36 (R=0.032)  charge=  1.4333  magn=  0.0659
     atom  37 (R=0.032)  charge=  1.5116  magn= -0.0106
     atom  38 (R=0.032)  charge=  1.5311  magn=  0.0407
     atom  39 (R=0.032)  charge=  1.5269  magn= -0.0070
     atom  40 (R=0.032)  charge=  1.5260  magn=  0.0125
     atom  41 (R=0.032)  charge=  1.5255  magn= -0.0034
     atom  42 (R=0.032)  charge=  1.5268  magn=  0.0016
     atom  43 (R=0.032)  charge=  1.5255  magn= -0.0019
     atom  44 (R=0.032)  charge=  1.5245  magn=  0.0033
     atom  45 (R=0.032)  charge=  1.5264  magn= -0.0031
     atom  46 (R=0.032)  charge=  1.5199  magn=  0.0054
     atom  47 (R=0.032)  charge=  1.5343  magn= -0.0054
     atom  48 (R=0.032)  charge=  1.4332  magn=  0.0658
     atom  49 (R=0.032)  charge=  1.4709  magn=  0.2665
     atom  50 (R=0.032)  charge=  1.5345  magn= -0.0093
     atom  51 (R=0.032)  charge=  1.5257  magn=  0.0182
     atom  52 (R=0.032)  charge=  1.5268  magn= -0.0021
     atom  53 (R=0.032)  charge=  1.5264  magn=  0.0044
     atom  54 (R=0.032)  charge=  1.5254  magn= -0.0018
     atom  55 (R=0.032)  charge=  1.5257  magn=  0.0043
     atom  56 (R=0.032)  charge=  1.5261  magn= -0.0022
     atom  57 (R=0.032)  charge=  1.5218  magn=  0.0064
     atom  58 (R=0.032)  charge=  1.5264  magn= -0.0028
     atom  59 (R=0.032)  charge=  1.5119  magn=  0.0037
     atom  60 (R=0.032)  charge=  1.5116  magn= -0.0106
     atom  61 (R=0.032)  charge=  1.5311  magn=  0.0407
     atom  62 (R=0.032)  charge=  1.5345  magn= -0.0093
     atom  63 (R=0.032)  charge=  1.5257  magn=  0.0182
     atom  64 (R=0.032)  charge=  1.5286  magn= -0.0070
     atom  65 (R=0.032)  charge=  1.5274  magn=  0.0075
     atom  66 (R=0.032)  charge=  1.5265  magn= -0.0029
     atom  67 (R=0.032)  charge=  1.5280  magn=  0.0018
     atom  68 (R=0.032)  charge=  1.5269  magn= -0.0017
     atom  69 (R=0.032)  charge=  1.5267  magn=  0.0016
     atom  70 (R=0.032)  charge=  1.5257  magn= -0.0022
     atom  71 (R=0.032)  charge=  1.5202  magn=  0.0034
     atom  72 (R=0.032)  charge=  1.5193  magn= -0.0039
     atom  73 (R=0.032)  charge=  1.5261  magn=  0.0111
     atom  74 (R=0.032)  charge=  1.5269  magn= -0.0070
     atom  75 (R=0.032)  charge=  1.5260  magn=  0.0125
     atom  76 (R=0.032)  charge=  1.5268  magn= -0.0021
     atom  77 (R=0.032)  charge=  1.5264  magn=  0.0044
     atom  78 (R=0.032)  charge=  1.5265  magn= -0.0029
     atom  79 (R=0.032)  charge=  1.5280  magn=  0.0018
     atom  80 (R=0.032)  charge=  1.5267  magn= -0.0018
     atom  81 (R=0.032)  charge=  1.5274  magn=  0.0034
     atom  82 (R=0.032)  charge=  1.5263  magn= -0.0015
     atom  83 (R=0.032)  charge=  1.5261  magn=  0.0015
     atom  84 (R=0.032)  charge=  1.5222  magn= -0.0019
     atom  85 (R=0.032)  charge=  1.5259  magn=  0.0013
     atom  86 (R=0.032)  charge=  1.5250  magn= -0.0030
     atom  87 (R=0.032)  charge=  1.5263  magn=  0.0096
     atom  88 (R=0.032)  charge=  1.5255  magn= -0.0034
     atom  89 (R=0.032)  charge=  1.5268  magn=  0.0016
     atom  90 (R=0.032)  charge=  1.5254  magn= -0.0018
     atom  91 (R=0.032)  charge=  1.5257  magn=  0.0043
     atom  92 (R=0.032)  charge=  1.5269  magn= -0.0017
     atom  93 (R=0.032)  charge=  1.5267  magn=  0.0016
     atom  94 (R=0.032)  charge=  1.5263  magn= -0.0015
     atom  95 (R=0.032)  charge=  1.5261  magn=  0.0015
     atom  96 (R=0.032)  charge=  1.5263  magn= -0.0016
     atom  97 (R=0.032)  charge=  1.5230  magn=  0.0040

     total cpu time spent up to now is      516.1 secs

     End of self-consistent calculation

 ------ SPIN UP ------------


          k = 0.0000 0.0000 0.0000 (233409 PWs)   bands (ev):

   -23.7999 -23.3714 -23.3478 -23.3377 -23.3351 -23.3330 -23.1796 -22.4104
   -22.4040 -22.4000 -22.3862 -22.3793 -22.2236 -21.9360 -21.9307 -21.9237
   -21.9205 -21.9017 -21.5864 -20.5822 -20.5806 -20.5428 -20.5354 -20.5274
   -20.5215 -20.5200 -20.5196 -20.5110 -20.4855 -20.4583 -20.0590 -19.6663
   -19.6504 -19.6375 -19.5952 -19.5886 -19.1944 -18.3835 -18.3763 -18.3568
   -18.3263 -18.3172 -18.3058 -18.2812 -18.2778 -18.2733 -18.2608 -18.2310
   -17.6603 -17.2646 -17.2598 -17.2548 -17.1543 -17.1220 -16.8056 -16.3507
   -16.3454 -16.3403 -16.2269 -16.2108 -16.1044 -15.8647 -15.8197 -15.8174
   -15.7436 -15.7309 -15.0501 -14.4448 -14.4398 -14.4276 -14.4099 -14.3965
   -14.3952 -14.3917 -14.3871 -14.3836 -14.3347 -14.3214 -14.2030 -14.1932
   -14.1726 -14.1696 -13.8418 -13.8100 -13.1348 -12.7304 -12.7186 -12.7048
   -12.5831 -12.5768 -12.2903 -12.1779 -12.1420 -12.1360 -12.0100 -12.0085
   -11.8857 -11.8472 -11.7124 -11.6508 -11.6370 -11.6315 -11.6271 -11.6224
   -11.6052 -11.5990 -11.5744 -11.4419 -11.3888 -11.3820 -11.3601 -11.3413
   -11.3332 -11.3309 -11.3265 -11.2369 -11.2257 -11.1895 -11.1647 -10.9588
   -10.9449 -10.6789 -10.6195 -10.6157 -10.5997 -10.3853 -10.3800 -10.2326
   -10.2218 -10.2186 -10.2160 -10.2039 -10.0998 -10.0448 -10.0245  -9.9975
    -9.9964  -9.8427  -9.8387  -9.7531  -9.7399  -9.7280  -9.6855  -9.6802
    -9.6791  -9.6766  -9.6723  -9.6677  -9.5378  -9.3726  -9.3682  -9.3581
    -9.1163  -9.1107  -9.1101  -8.5527  -8.5520  -8.2686  -8.2586  -8.2566
    -8.2057  -8.1447  -8.1433  -8.1266  -8.1197  -8.1149  -8.1037  -8.1013
    -8.0997  -8.0969  -8.0916  -8.0888  -7.9333  -7.7060  -7.4933  -7.4825
    -7.3270  -7.3201  -7.3039  -7.2949  -7.2918  -6.8895  -6.2344  -6.2188
    -6.2059  -6.2036  -6.1992  -6.0084  -5.8168  -5.8145  -5.7950  -5.7912
    -5.7665  -4.7969  -4.6059  -4.0336  -2.8266  -2.7917  -2.7858  -2.7857
    -2.7720  -2.7689  -2.7620  -2.7502  -2.7474  -2.6868  -2.6693  -2.1821
    -1.7806  -1.7644  -1.7495  -1.6984  -1.6809  -1.1704  -0.9769  -0.3442
    -0.3335  -0.3122  -0.3036  -0.2958  -0.2931  -0.2899  -0.2816  -0.2802

 ------ SPIN DOWN ----------


          k = 0.0000 0.0000 0.0000 (233409 PWs)   bands (ev):

   -23.7885 -23.3486 -23.3397 -23.3331 -23.3278 -23.3239 -23.1386 -22.3940
   -22.3891 -22.3781 -22.3769 -22.3666 -22.2061 -21.9243 -21.9164 -21.9117
   -21.8937 -21.8861 -21.5364 -20.5585 -20.5502 -20.5291 -20.5273 -20.5191
   -20.5168 -20.5141 -20.5122 -20.5057 -20.4349 -20.4348 -20.0279 -19.6442
   -19.6357 -19.6287 -19.5738 -19.5609 -19.1512 -18.3634 -18.3515 -18.3455
   -18.3188 -18.3086 -18.2991 -18.2708 -18.2697 -18.2625 -18.2425 -18.1692
   -17.5744 -17.2559 -17.2484 -17.2472 -17.1277 -17.1083 -16.7656 -16.3332
   -16.3331 -16.3292 -16.2020 -16.1959 -16.0901 -15.8549 -15.8091 -15.8090
   -15.7159 -15.6672 -14.9972 -14.4260 -14.4134 -14.4064 -14.3973 -14.3907
   -14.3862 -14.3845 -14.3771 -14.3696 -14.3212 -14.2891 -14.1968 -14.1887
   -14.1647 -14.1636 -13.7853 -13.7851 -13.0764 -12.7147 -12.6972 -12.6896
   -12.5706 -12.5521 -12.2668 -12.1572 -12.1324 -12.1241 -12.0015 -11.9956
   -11.8665 -11.8201 -11.6909 -11.6396 -11.6301 -11.6215 -11.6205 -11.6164
   -11.5918 -11.5867 -11.5583 -11.4185 -11.3701 -11.3618 -11.3265 -11.3265
   -11.3231 -11.3185 -11.3091 -11.2226 -11.2116 -11.1812 -11.1041 -10.9502
   -10.9168 -10.6592 -10.6134 -10.6115 -10.5921 -10.3579 -10.3547 -10.2031
   -10.1975 -10.1931 -10.1918 -10.1851 -10.0732 -10.0150 -10.0109  -9.9840
    -9.9762  -9.8348  -9.8340  -9.7452  -9.7233  -9.7183  -9.6672  -9.6623
    -9.6562  -9.6502  -9.6447  -9.6412  -9.4470  -9.3427  -9.3335  -9.2990
    -9.1108  -9.0999  -9.0979  -8.5395  -8.5214  -8.2612  -8.2460  -8.2437
    -8.2025  -8.1086  -8.1032  -8.0939  -8.0938  -8.0928  -8.0862  -8.0834
    -8.0829  -8.0808  -8.0577  -8.0412  -7.6648  -7.5543  -7.4723  -7.4428
    -7.2949  -7.2865  -7.2847  -7.2803  -7.2467  -6.8270  -6.2015  -6.1975
    -6.1902  -6.1777  -6.1526  -5.9756  -5.7816  -5.7798  -5.7779  -5.7475
    -5.7178  -4.4984  -3.7506  -3.1138  -2.8286  -2.7753  -2.7698  -2.7697
    -2.7568  -2.7507  -2.7435  -2.7323  -2.7265  -2.5943  -2.5580  -2.1471
    -1.7687  -1.7559  -1.7134  -1.6360  -1.6244  -1.1137  -0.9713  -0.3367
    -0.3137  -0.2949  -0.2815  -0.2774  -0.2742  -0.2606  -0.2506  -0.2494

     the Fermi energy is    -4.5433 ev

!    total energy              =   -1168.09954835 Ry
     estimated scf accuracy    <          4.7E-11 Ry
     smearing contrib. (-TS)   =      -0.00112824 Ry
     internal energy E=F+TS    =   -1168.09842011 Ry

     The total energy is F=E-TS. E is the sum of the following terms:
     one-electron contribution =  -13177.68243247 Ry
     hartree contribution      =    6624.85214639 Ry
     xc contribution           =    -415.48167976 Ry
     ewald contribution        =    5800.21354572 Ry

     total magnetization       =     1.58 Bohr mag/cell
     absolute magnetization    =     2.34 Bohr mag/cell

     convergence has been achieved in  18 iterations

     Forces acting on atoms (cartesian axes, Ry/au):

     atom    1 type  1   force =    -0.00044041    0.00000000    0.00000000
     atom    2 type  1   force =    -0.00027832   -0.00000002    0.00000000
     atom    3 type  1   force =    -0.00016857    0.00012933   -0.00000000
     atom    4 type  1   force =     0.00016880    0.00021729   -0.00000000
     atom    5 type  1   force =    -0.00030385    0.00060830    0.00000000
     atom    6 type  1   force =    -0.00002214    0.00031723    0.00000000
     atom    7 type  1   force =     0.00013110    0.00050655   -0.00000001
     atom    8 type  1   force =    -0.00113728    0.00010752    0.00000000
     atom    9 type  1   force =     0.00376601   -0.00165946   -0.00000000
     atom   10 type  1   force =     0.00050315   -0.00256840    0.00000000
     atom   11 type  1   force =     0.00094758   -0.00442722   -0.00000000
     atom   12 type  1   force =     0.00038201   -0.00025850    0.00000001
     atom   13 type  1   force =    -0.00081021   -0.00232220    0.00000000
     atom   14 type  1   force =    -0.00044595   -0.00104667    0.00000001
     atom   15 type  1   force =    -0.00016858   -0.00012930    0.00000002
     atom   16 type  1   force =     0.00016882   -0.00021731   -0.00000001
     atom   17 type  1   force =    -0.00029588    0.00000001   -0.00000001
     atom   18 type  1   force =     0.00022880    0.00000002   -0.00000000
     atom   19 type  1   force =    -0.00138401    0.00089966    0.00000000
     atom   20 type  1   force =    -0.00175832   -0.00035854   -0.00000000
     atom   21 type  1   force =    -0.00282539    0.00183736    0.00000000
     atom   22 type  1   force =    -0.00258579    0.00197866    0.00000000
     atom   23 type  1   force =    -0.00305797    0.00142158   -0.00000001
     atom   24 type  1   force =    -0.00197852   -0.00053253    0.00000000
     atom   25 type  1   force =    -0.00002366    0.00090307   -0.00000000
     atom   26 type  1   force =     0.00058787   -0.00146540   -0.00000001
     atom   27 type  1   force =    -0.00164922   -0.00224216   -0.00000001
     atom   28 type  1   force =    -0.00082384   -0.00051681    0.00000001
     atom   29 type  1   force =    -0.00030383   -0.00060833    0.00000001
     atom   30 type  1   force =    -0.00002218   -0.00031720    0.00000001
     atom   31 type  1   force =    -0.00138396   -0.00089983   -0.00000001
     atom   32 type  1   force =    -0.00175800    0.00035892    0.00000001
     atom   33 type  1   force =    -0.00266667   -0.00000011   -0.00000000
     atom   34 type  1   force =     0.00026543    0.00000126    0.00000000
     atom   35 type  1   force =    -0.00475537   -0.00255976    0.00000001
     atom   36 type  2   force =    -0.00258506   -0.01004756   -0.00000001
     atom   37 type  1   force =    -0.00296880   -0.01442931   -0.00000000
     atom   38 type  1   force =     0.00024278   -0.00675505   -0.00000001
     atom   39 type  1   force =     0.00056173    0.00153537   -0.00000001
     atom   40 type  1   force =     0.00049924    0.00008639    0.00000000
     atom   41 type  1   force =    -0.00121592   -0.00198679    0.00000001
     atom   42 type  1   force =    -0.00032880   -0.00045617   -0.00000001
     atom   43 type  1   force =     0.00013182   -0.00050629    0.00000000
     atom   44 type  1   force =    -0.00113647   -0.00010688    0.00000000
     atom   45 type  1   force =    -0.00282382   -0.00183666    0.00000000
     atom   46 type  1   force =    -0.00258276   -0.00197594    0.00000001
     atom   47 type  1   force =    -0.00474599    0.00256519    0.00000000
     atom   48 type  2   force =    -0.00257477    0.01005363   -0.00000000
     atom   49 type  2   force =     0.00970384   -0.00000507    0.00000001
     atom   50 type  1   force =     0.00394008   -0.00191685   -0.00000003
     atom   51 type  1   force =     0.00613347   -0.00016969    0.00000003
     atom   52 type  1   force =     0.00364475    0.00294794    0.00000001
     atom   53 type  1   force =     0.00258652    0.00152644    0.00000000
     atom   54 type  1   force =     0.00027565   -0.00030349   -0.00000001
     atom   55 type  1   force =     0.00020248    0.00069770    0.00000000
     atom   56 type  1   force =     0.00376638    0.00165993   -0.00000000
     atom   57 type  1   force =     0.00050365    0.00256889    0.00000000
     atom   58 type  1   force =    -0.00305689   -0.00142116    0.00000001
     atom   59 type  1   force =    -0.00197787    0.00053322   -0.00000001
     atom   60 type  1   force =    -0.00296536    0.01443013   -0.00000001
     atom   61 type  1   force =     0.00024558    0.00675261    0.00000000
     atom   62 type  1   force =     0.00394617    0.00190927    0.00000000
     atom   63 type  1   force =     0.00613616    0.00016825   -0.00000001
     atom   64 type  1   force =     0.00411327   -0.00000072    0.00000003
     atom   65 type  1   force =     0.00088035   -0.00000014   -0.00000000
     atom   66 type  1   force =    -0.00151772   -0.00092327    0.00000001
     atom   67 type  1   force =    -0.00045956   -0.00004247    0.00000001
     atom   68 type  1   force =     0.00004451    0.00022294   -0.00000000
     atom   69 type  1   force =     0.00133006    0.00124930    0.00000001
     atom   70 type  1   force =     0.00094751    0.00442767   -0.00000000
     atom   71 type  1   force =     0.00038208    0.00025892    0.00000000
     atom   72 type  1   force =    -0.00002360   -0.00090265   -0.00000001
     atom   73 type  1   force =     0.00058805    0.00146486   -0.00000000
     atom   74 type  1   force =     0.00056205   -0.00153619   -0.00000002
     atom   75 type  1   force =     0.00050003   -0.00008683   -0.00000001
     atom   76 type  1   force =     0.00364576   -0.00294863    0.00000001
     atom   77 type  1   force =     0.00258690   -0.00152668    0.00000001
     atom   78 type  1   force =    -0.00151749    0.00092346   -0.00000001
     atom   79 type  1   force =    -0.00045963    0.00004247   -0.00000001
     atom   80 type  1   force =     0.00000178   -0.00000000   -0.00000001
     atom   81 type  1   force =     0.00014391    0.00000001   -0.00000001
     atom   82 type  1   force =     0.00008849    0.00004344   -0.00000001
     atom   83 type  1   force =     0.00035677    0.00164313    0.00000000
     atom   84 type  1   force =    -0.00081019    0.00232230    0.00000000
     atom   85 type  1   force =    -0.00044596    0.00104651    0.00000001
     atom   86 type  1   force =    -0.00164914    0.00224145    0.00000001
     atom   87 type  1   force =    -0.00082381    0.00051674    0.00000000
     atom   88 type  1   force =    -0.00121546    0.00198620    0.00000000
     atom   89 type  1   force =    -0.00032865    0.00045615    0.00000000
     atom   90 type  1   force =     0.00027609    0.00030305    0.00000001
     atom   91 type  1   force =     0.00020241   -0.00069769    0.00000000
     atom   92 type  1   force =     0.00004451   -0.00022285   -0.00000002
     atom   93 type  1   force =     0.00132998   -0.00124927   -0.00000001
     atom   94 type  1   force =     0.00008849   -0.00004339   -0.00000000
     atom   95 type  1   force =     0.00035673   -0.00164296    0.00000000
     atom   96 type  1   force =     0.00073001    0.00000002    0.00000002
     atom   97 type  1   force =     0.00039204    0.00000006   -0.00000000

     Total force =     0.036769     Total SCF correction =     0.000005
     Energy error            =      1.3E-03 Ry
     Gradient error          =      1.4E-02 Ry/Bohr

     number of scf cycles    =   5
     number of bfgs steps    =   4

     energy             old  =   -1168.0982004933 Ry
     energy             new  =   -1168.0995483490 Ry

     CASE: energy            _new < energy            _old

     new trust radius        =       0.0244915916 bohr
     new conv_thr            =            1.0E-10 Ry


ATOMIC_POSITIONS (crystal)
C                0.0476158765        0.0476158746       -0.0000000003
C                0.0952428066        0.0952428040        0.0000000000
C                0.0476249482        0.1904792816        0.0000000004
C                0.0952401225        0.2380876453        0.0000000017
C                0.0475963800        0.3333428327       -0.0000000002
C                0.0951774145        0.3809745906       -0.0000000005
C                0.0477848444        0.4762077395       -0.0000000010
C                0.0955488679        0.5238045258       -0.0000000014
C                0.0477488751        0.6190561479       -0.0000000005
C                0.0955853534        0.6665207295       -0.0000000008
C                0.0477744136        0.7617398864       -0.0000000000
C                0.0960168709        0.8087715047       -0.0000000003
C                0.0479355796        0.9044144384       -0.0000000001
C                0.0952576171        0.9523451624       -0.0000000001
C                0.1904792753        0.0476249561        0.0000000002
C                0.2380876414        0.0952401242        0.0000000013
C                0.1904829477        0.1904829510        0.0000000024
C                0.2380612714        0.2380612774        0.0000000008
C                0.1903548804        0.3333746425       -0.0000000007
C                0.2377016683        0.3809652578       -0.0000000006
C                0.1909079753        0.4760581088       -0.0000000007
C                0.2385218523        0.5236140042        0.0000000018
C                0.1914850236        0.6184242566        0.0000000011
C                0.2399424130        0.6648447792       -0.0000000002
C                0.1917292238        0.7606375436       -0.0000000008
C                0.2381719740        0.8092973919       -0.0000000006
C                0.1904940998        0.9046481870       -0.0000000003
C                0.2380907092        0.9523847601        0.0000000005
C                0.3333428303        0.0475963795        0.0000000003
C                0.3809745850        0.0951774212       -0.0000000000
C                0.3333746474        0.1903548760       -0.0000000001
C                0.3809652572        0.2377016767       -0.0000000007
C                0.3329717461        0.3329717086        0.0000000001
C                0.3798501240        0.3798502597        0.0000000010
C                0.3345687895        0.4750297757        0.0000000019
C1               0.3809010477        0.5209480483        0.0000000028
C                0.3368190969        0.6158790409        0.0000000001
C                0.3810764979        0.6668147349       -0.0000000006
C                0.3334902633        0.7614463668       -0.0000000003
C                0.3810215600        0.8094125735       -0.0000000016
C                0.3333792185        0.9046667808       -0.0000000009
C                0.3809697311        0.9523556330        0.0000000008
C                0.4762077362        0.0477848920       -0.0000000003
C                0.5238045201        0.0955489896       -0.0000000002
C                0.4760580821        0.1909082365       -0.0000000008
C                0.5236139735        0.2385223759        0.0000000003
C                0.4750294634        0.3345699247        0.0000000011
C1               0.5209482873        0.3809026959        0.0000000000
C1               0.5266898927        0.5266879390       -0.0000000008
C                0.4764442528        0.6189545332        0.0000000006
C                0.5240353913        0.6668331829        0.0000000008
C                0.4762013111        0.7617863514        0.0000000005
C                0.5238285619        0.8093525129        0.0000000005
C                0.4762147490        0.9046666159        0.0000000002
C                0.5238180642        0.9524044045       -0.0000000004
C                0.6190561475        0.0477489031       -0.0000000012
C                0.6665207012        0.0955853949       -0.0000000011
C                0.6184241909        0.1914852077       -0.0000000009
C                0.6648447096        0.2399425619       -0.0000000008
C                0.6158790763        0.3368194805        0.0000000005
C                0.6668152484        0.3810763029       -0.0000000009
C                0.6189553593        0.4764441284       -0.0000000012
C                0.6668335864        0.5240353380       -0.0000000009
C                0.6190058035        0.6190057522        0.0000000003
C                0.6666842231        0.6666842405        0.0000000005
C                0.6190880721        0.7618877761        0.0000000008
C                0.6666923404        0.8095447049        0.0000000008
C                0.6190764736        0.9047544860       -0.0000000007
C                0.6666898560        0.9523489821       -0.0000000011
C                0.7617398672        0.0477744398       -0.0000000013
C                0.8087714874        0.0960168932       -0.0000000006
C                0.7606375140        0.1917292974        0.0000000004
C                0.8092974852        0.2381718926        0.0000000007
C                0.7614465598        0.3334901509        0.0000000013
C                0.8094126747        0.3810215487        0.0000000008
C                0.7617865489        0.4762012909        0.0000000003
C                0.8093526070        0.5238285641        0.0000000002
C                0.7618877826        0.6190880676       -0.0000000001
C                0.8095447069        0.6666923398        0.0000000002
C                0.7619214842        0.7619214832        0.0000000009
C                0.8095191017        0.8095190924       -0.0000000007
C                0.7619095224        0.9047543567       -0.0000000004
C                0.8095324151        0.9523569566       -0.0000000001
C                0.9044144238        0.0479355969        0.0000000001
C                0.9523451689        0.0952576095       -0.0000000001
C                0.9046482011        0.1904940827       -0.0000000005
C                0.9523847740        0.2380907064       -0.0000000007
C                0.9046667996        0.3333792137        0.0000000005
C                0.9523556413        0.3809697349        0.0000000002
C                0.9046666435        0.4762147494        0.0000000007
C                0.9524044036        0.5238180632       -0.0000000005
C                0.9047544878        0.6190764701       -0.0000000012
C                0.9523489846        0.6666898543       -0.0000000007
C                0.9047543503        0.7619095250       -0.0000000004
C                0.9523569600        0.8095324132        0.0000000001
C                0.9047447340        0.9047447351        0.0000000006
C                0.9523777999        0.9523778024        0.0000000006



     Writing config-only to output data dir /home/gregb26/links/scratch/qe_tmp/vacancy_relaxed/series/7x7/nspin2/vac_7x7_relax_nspin2.save/ :
     XML data file
     NEW-OLD atomic charge density approx. for the potential

     negative rho (up, down):  1.605E-06 1.702E-06
     Generating pointlists ...

     total cpu time spent up to now is      518.4 secs

     per-process dynamical memory:   262.1 Mb

     Self-consistent Calculation

     iteration #  1     ecut=   100.00 Ry     beta= 0.30
     Davidson diagonalization with overlap
     ethr =  1.00E-06,  avg # of iterations =  6.0

     negative rho (up, down):  2.132E-06 1.955E-06

     total cpu time spent up to now is      525.2 secs

     total energy              =   -1168.10066062 Ry
     estimated scf accuracy    <       0.00087723 Ry

     total magnetization       =     1.75 Bohr mag/cell
     absolute magnetization    =     2.48 Bohr mag/cell

     iteration #  2     ecut=   100.00 Ry     beta= 0.30
     Davidson diagonalization with overlap
     ethr =  2.26E-07,  avg # of iterations =  4.5

     negative rho (up, down):  1.767E-06 1.625E-06

     total cpu time spent up to now is      529.0 secs

     total energy              =   -1168.10071003 Ry
     estimated scf accuracy    <       0.00082821 Ry

     total magnetization       =     1.58 Bohr mag/cell
     absolute magnetization    =     2.34 Bohr mag/cell

     iteration #  3     ecut=   100.00 Ry     beta= 0.30
     Davidson diagonalization with overlap
     ethr =  2.13E-07,  avg # of iterations =  2.5

     negative rho (up, down):  9.804E-07 9.109E-07

     total cpu time spent up to now is      532.3 secs

     total energy              =   -1168.10085533 Ry
     estimated scf accuracy    <       0.00028583 Ry

     total magnetization       =     1.74 Bohr mag/cell
     absolute magnetization    =     2.48 Bohr mag/cell

     iteration #  4     ecut=   100.00 Ry     beta= 0.30
     Davidson diagonalization with overlap
     ethr =  7.37E-08,  avg # of iterations =  2.0

     negative rho (up, down):  3.075E-07 2.926E-07

     total cpu time spent up to now is      535.7 secs

     total energy              =   -1168.10088759 Ry
     estimated scf accuracy    <       0.00010486 Ry

     total magnetization       =     1.73 Bohr mag/cell
     absolute magnetization    =     2.48 Bohr mag/cell

     iteration #  5     ecut=   100.00 Ry     beta= 0.30
     Davidson diagonalization with overlap
     ethr =  2.70E-08,  avg # of iterations =  3.5

     negative rho (up, down):  3.549E-08 3.631E-08

     total cpu time spent up to now is      539.2 secs

     total energy              =   -1168.10091081 Ry
     estimated scf accuracy    <       0.00004149 Ry

     total magnetization       =     1.73 Bohr mag/cell
     absolute magnetization    =     2.49 Bohr mag/cell

     iteration #  6     ecut=   100.00 Ry     beta= 0.30
     Davidson diagonalization with overlap
     ethr =  1.07E-08,  avg # of iterations =  3.5

     negative rho (up, down):  3.128E-08 2.733E-08

     total cpu time spent up to now is      542.8 secs

     total energy              =   -1168.10092537 Ry
     estimated scf accuracy    <       0.00001462 Ry

     total magnetization       =     1.73 Bohr mag/cell
     absolute magnetization    =     2.51 Bohr mag/cell

     iteration #  7     ecut=   100.00 Ry     beta= 0.30
     Davidson diagonalization with overlap
     ethr =  3.77E-09,  avg # of iterations =  3.5

     negative rho (up, down):  8.322E-08 7.079E-08

     total cpu time spent up to now is      546.5 secs

     total energy              =   -1168.10093432 Ry
     estimated scf accuracy    <       0.00000966 Ry

     total magnetization       =     1.74 Bohr mag/cell
     absolute magnetization    =     2.52 Bohr mag/cell

     iteration #  8     ecut=   100.00 Ry     beta= 0.30
     Davidson diagonalization with overlap
     ethr =  2.49E-09,  avg # of iterations =  4.5

     negative rho (up, down):  5.135E-08 4.369E-08

     total cpu time spent up to now is      550.6 secs

     total energy              =   -1168.10094165 Ry
     estimated scf accuracy    <       0.00000396 Ry

     total magnetization       =     1.75 Bohr mag/cell
     absolute magnetization    =     2.55 Bohr mag/cell

     iteration #  9     ecut=   100.00 Ry     beta= 0.30
     Davidson diagonalization with overlap
     ethr =  1.02E-09,  avg # of iterations =  4.5

     negative rho (up, down):  3.357E-08 2.860E-08

     total cpu time spent up to now is      555.1 secs

     total energy              =   -1168.10094452 Ry
     estimated scf accuracy    <       0.00000075 Ry

     total magnetization       =     1.75 Bohr mag/cell
     absolute magnetization    =     2.56 Bohr mag/cell

     iteration # 10     ecut=   100.00 Ry     beta= 0.30
     Davidson diagonalization with overlap
     ethr =  1.94E-10,  avg # of iterations =  4.5

     negative rho (up, down):  1.668E-08 1.424E-08

     total cpu time spent up to now is      559.4 secs

     total energy              =   -1168.10094507 Ry
     estimated scf accuracy    <       0.00000030 Ry

     total magnetization       =     1.75 Bohr mag/cell
     absolute magnetization    =     2.57 Bohr mag/cell

     iteration # 11     ecut=   100.00 Ry     beta= 0.30
     Davidson diagonalization with overlap
     ethr =  7.73E-11,  avg # of iterations =  5.0

     total cpu time spent up to now is      564.1 secs

     total energy              =   -1168.10094549 Ry
     estimated scf accuracy    <       0.00000009 Ry

     total magnetization       =     1.76 Bohr mag/cell
     absolute magnetization    =     2.57 Bohr mag/cell

     iteration # 12     ecut=   100.00 Ry     beta= 0.30
     Davidson diagonalization with overlap
     ethr =  2.27E-11,  avg # of iterations =  4.5

     total cpu time spent up to now is      568.8 secs

     total energy              =   -1168.10094556 Ry
     estimated scf accuracy    <       0.00000002 Ry

     total magnetization       =     1.76 Bohr mag/cell
     absolute magnetization    =     2.58 Bohr mag/cell

     iteration # 13     ecut=   100.00 Ry     beta= 0.30
     Davidson diagonalization with overlap
     ethr =  4.53E-12,  avg # of iterations =  5.5

     total cpu time spent up to now is      574.2 secs

     total energy              =   -1168.10094559 Ry
     estimated scf accuracy    <          6.0E-09 Ry

     total magnetization       =     1.76 Bohr mag/cell
     absolute magnetization    =     2.58 Bohr mag/cell

     iteration # 14     ecut=   100.00 Ry     beta= 0.30
     Davidson diagonalization with overlap
     ethr =  1.55E-12,  avg # of iterations =  4.5

     total cpu time spent up to now is      578.8 secs

     total energy              =   -1168.10094560 Ry
     estimated scf accuracy    <          2.4E-09 Ry

     total magnetization       =     1.76 Bohr mag/cell
     absolute magnetization    =     2.58 Bohr mag/cell

     iteration # 15     ecut=   100.00 Ry     beta= 0.30
     Davidson diagonalization with overlap
     ethr =  6.08E-13,  avg # of iterations =  6.0

     total cpu time spent up to now is      584.8 secs

     total energy              =   -1168.10094561 Ry
     estimated scf accuracy    <          6.3E-10 Ry

     total magnetization       =     1.76 Bohr mag/cell
     absolute magnetization    =     2.58 Bohr mag/cell

     iteration # 16     ecut=   100.00 Ry     beta= 0.30
     Davidson diagonalization with overlap
     ethr =  1.63E-13,  avg # of iterations =  5.0

     total cpu time spent up to now is      590.2 secs

     total energy              =   -1168.10094561 Ry
     estimated scf accuracy    <          2.4E-10 Ry

     total magnetization       =     1.76 Bohr mag/cell
     absolute magnetization    =     2.58 Bohr mag/cell

     iteration # 17     ecut=   100.00 Ry     beta= 0.30
     Davidson diagonalization with overlap
     ethr =  1.00E-13,  avg # of iterations =  5.5

     Magnetic moment per site  (integrated on atomic sphere of radius R)
     atom   1 (R=0.032)  charge=  1.5255  magn= -0.0018
     atom   2 (R=0.032)  charge=  1.5258  magn=  0.0029
     atom   3 (R=0.032)  charge=  1.5264  magn= -0.0023
     atom   4 (R=0.032)  charge=  1.5260  magn=  0.0038
     atom   5 (R=0.032)  charge=  1.5270  magn= -0.0020
     atom   6 (R=0.032)  charge=  1.5271  magn=  0.0016
     atom   7 (R=0.032)  charge=  1.5253  magn= -0.0021
     atom   8 (R=0.032)  charge=  1.5250  magn=  0.0037
     atom   9 (R=0.032)  charge=  1.5252  magn= -0.0024
     atom  10 (R=0.032)  charge=  1.5215  magn=  0.0070
     atom  11 (R=0.032)  charge=  1.5248  magn= -0.0024
     atom  12 (R=0.032)  charge=  1.5196  magn=  0.0038
     atom  13 (R=0.032)  charge=  1.5208  magn= -0.0021
     atom  14 (R=0.032)  charge=  1.5256  magn=  0.0014
     atom  15 (R=0.032)  charge=  1.5264  magn= -0.0023
     atom  16 (R=0.032)  charge=  1.5260  magn=  0.0038
     atom  17 (R=0.032)  charge=  1.5274  magn= -0.0025
     atom  18 (R=0.032)  charge=  1.5261  magn=  0.0117
     atom  19 (R=0.032)  charge=  1.5297  magn= -0.0035
     atom  20 (R=0.032)  charge=  1.5292  magn=  0.0135
     atom  21 (R=0.032)  charge=  1.5275  magn= -0.0034
     atom  22 (R=0.032)  charge=  1.5221  magn=  0.0061
     atom  23 (R=0.032)  charge=  1.5268  magn= -0.0032
     atom  24 (R=0.032)  charge=  1.5122  magn=  0.0041
     atom  25 (R=0.032)  charge=  1.5193  magn= -0.0043
     atom  26 (R=0.032)  charge=  1.5261  magn=  0.0121
     atom  27 (R=0.032)  charge=  1.5244  magn= -0.0032
     atom  28 (R=0.032)  charge=  1.5256  magn=  0.0105
     atom  29 (R=0.032)  charge=  1.5270  magn= -0.0020
     atom  30 (R=0.032)  charge=  1.5271  magn=  0.0016
     atom  31 (R=0.032)  charge=  1.5297  magn= -0.0035
     atom  32 (R=0.032)  charge=  1.5292  magn=  0.0135
     atom  33 (R=0.032)  charge=  1.5367  magn= -0.0068
     atom  34 (R=0.032)  charge=  1.5393  magn=  0.0398
     atom  35 (R=0.032)  charge=  1.5370  magn= -0.0059
     atom  36 (R=0.032)  charge=  1.4323  magn=  0.0723
     atom  37 (R=0.032)  charge=  1.5094  magn= -0.0116
     atom  38 (R=0.032)  charge=  1.5289  magn=  0.0452
     atom  39 (R=0.032)  charge=  1.5268  magn= -0.0078
     atom  40 (R=0.032)  charge=  1.5258  magn=  0.0138
     atom  41 (R=0.032)  charge=  1.5252  magn= -0.0037
     atom  42 (R=0.032)  charge=  1.5266  magn=  0.0017
     atom  43 (R=0.032)  charge=  1.5253  magn= -0.0021
     atom  44 (R=0.032)  charge=  1.5250  magn=  0.0037
     atom  45 (R=0.032)  charge=  1.5275  magn= -0.0034
     atom  46 (R=0.032)  charge=  1.5221  magn=  0.0061
     atom  47 (R=0.032)  charge=  1.5370  magn= -0.0059
     atom  48 (R=0.032)  charge=  1.4323  magn=  0.0722
     atom  49 (R=0.032)  charge=  1.4773  magn=  0.2947
     atom  50 (R=0.032)  charge=  1.5374  magn= -0.0100
     atom  51 (R=0.032)  charge=  1.5286  magn=  0.0203
     atom  52 (R=0.032)  charge=  1.5285  magn= -0.0022
     atom  53 (R=0.032)  charge=  1.5272  magn=  0.0048
     atom  54 (R=0.032)  charge=  1.5254  magn= -0.0020
     atom  55 (R=0.032)  charge=  1.5253  magn=  0.0047
     atom  56 (R=0.032)  charge=  1.5252  magn= -0.0024
     atom  57 (R=0.032)  charge=  1.5215  magn=  0.0070
     atom  58 (R=0.032)  charge=  1.5268  magn= -0.0032
     atom  59 (R=0.032)  charge=  1.5122  magn=  0.0041
     atom  60 (R=0.032)  charge=  1.5094  magn= -0.0116
     atom  61 (R=0.032)  charge=  1.5289  magn=  0.0452
     atom  62 (R=0.032)  charge=  1.5375  magn= -0.0100
     atom  63 (R=0.032)  charge=  1.5286  magn=  0.0203
     atom  64 (R=0.032)  charge=  1.5297  magn= -0.0077
     atom  65 (R=0.032)  charge=  1.5279  magn=  0.0081
     atom  66 (R=0.032)  charge=  1.5264  magn= -0.0032
     atom  67 (R=0.032)  charge=  1.5278  magn=  0.0019
     atom  68 (R=0.032)  charge=  1.5267  magn= -0.0019
     atom  69 (R=0.032)  charge=  1.5261  magn=  0.0017
     atom  70 (R=0.032)  charge=  1.5248  magn= -0.0024
     atom  71 (R=0.032)  charge=  1.5196  magn=  0.0038
     atom  72 (R=0.032)  charge=  1.5193  magn= -0.0043
     atom  73 (R=0.032)  charge=  1.5261  magn=  0.0121
     atom  74 (R=0.032)  charge=  1.5268  magn= -0.0078
     atom  75 (R=0.032)  charge=  1.5258  magn=  0.0138
     atom  76 (R=0.032)  charge=  1.5285  magn= -0.0022
     atom  77 (R=0.032)  charge=  1.5272  magn=  0.0048
     atom  78 (R=0.032)  charge=  1.5264  magn= -0.0032
     atom  79 (R=0.032)  charge=  1.5278  magn=  0.0019
     atom  80 (R=0.032)  charge=  1.5267  magn= -0.0020
     atom  81 (R=0.032)  charge=  1.5274  magn=  0.0037
     atom  82 (R=0.032)  charge=  1.5262  magn= -0.0016
     atom  83 (R=0.032)  charge=  1.5253  magn=  0.0016
     atom  84 (R=0.032)  charge=  1.5208  magn= -0.0021
     atom  85 (R=0.032)  charge=  1.5256  magn=  0.0014
     atom  86 (R=0.032)  charge=  1.5244  magn= -0.0032
     atom  87 (R=0.032)  charge=  1.5256  magn=  0.0105
     atom  88 (R=0.032)  charge=  1.5252  magn= -0.0037
     atom  89 (R=0.032)  charge=  1.5266  magn=  0.0017
     atom  90 (R=0.032)  charge=  1.5254  magn= -0.0020
     atom  91 (R=0.032)  charge=  1.5253  magn=  0.0047
     atom  92 (R=0.032)  charge=  1.5267  magn= -0.0019
     atom  93 (R=0.032)  charge=  1.5261  magn=  0.0017
     atom  94 (R=0.032)  charge=  1.5262  magn= -0.0016
     atom  95 (R=0.032)  charge=  1.5253  magn=  0.0016
     atom  96 (R=0.032)  charge=  1.5259  magn= -0.0018
     atom  97 (R=0.032)  charge=  1.5214  magn=  0.0043

     total cpu time spent up to now is      595.1 secs

     End of self-consistent calculation

 ------ SPIN UP ------------


          k = 0.0000 0.0000 0.0000 (233409 PWs)   bands (ev):

   -23.7991 -23.3774 -23.3442 -23.3363 -23.3353 -23.3296 -23.1751 -22.4100
   -22.4036 -22.3987 -22.3868 -22.3734 -22.2202 -21.9368 -21.9328 -21.9222
   -21.9195 -21.8952 -21.5768 -20.5823 -20.5792 -20.5425 -20.5358 -20.5292
   -20.5218 -20.5188 -20.5166 -20.5081 -20.4812 -20.4473 -20.0545 -19.6657
   -19.6480 -19.6307 -19.5939 -19.5850 -19.1891 -18.3823 -18.3739 -18.3532
   -18.3279 -18.3167 -18.3028 -18.2816 -18.2795 -18.2715 -18.2571 -18.2191
   -17.6570 -17.2633 -17.2586 -17.2543 -17.1526 -17.1133 -16.8000 -16.3480
   -16.3424 -16.3361 -16.2271 -16.2075 -16.1026 -15.8598 -15.8189 -15.8155
   -15.7414 -15.7263 -15.0463 -14.4424 -14.4387 -14.4239 -14.4105 -14.3939
   -14.3905 -14.3904 -14.3862 -14.3799 -14.3331 -14.3164 -14.2032 -14.1922
   -14.1694 -14.1641 -13.8400 -13.8007 -13.1278 -12.7265 -12.7161 -12.6994
   -12.5818 -12.5726 -12.2921 -12.1729 -12.1392 -12.1331 -12.0095 -12.0045
   -11.8857 -11.8395 -11.7042 -11.6527 -11.6367 -11.6312 -11.6267 -11.6200
   -11.6011 -11.5940 -11.5721 -11.4390 -11.3835 -11.3776 -11.3664 -11.3394
   -11.3328 -11.3317 -11.3237 -11.2343 -11.2215 -11.1891 -11.1617 -10.9601
   -10.9406 -10.6743 -10.6207 -10.6128 -10.5951 -10.3818 -10.3755 -10.2329
   -10.2220 -10.2186 -10.2134 -10.2041 -10.0929 -10.0426 -10.0193  -9.9932
    -9.9912  -9.8423  -9.8392  -9.7491  -9.7379  -9.7229  -9.6854  -9.6824
    -9.6809  -9.6756  -9.6684  -9.6672  -9.5282  -9.3663  -9.3629  -9.3530
    -9.1146  -9.1085  -9.1071  -8.5515  -8.5473  -8.2679  -8.2550  -8.2548
    -8.2063  -8.1467  -8.1449  -8.1248  -8.1164  -8.1139  -8.1033  -8.1010
    -8.0989  -8.0951  -8.0918  -8.0866  -7.8964  -7.7037  -7.4910  -7.4811
    -7.3296  -7.3200  -7.3032  -7.2936  -7.2861  -6.8874  -6.2343  -6.2195
    -6.2073  -6.1980  -6.1969  -6.0078  -5.8181  -5.8149  -5.7960  -5.7911
    -5.7612  -4.7958  -4.6193  -3.9441  -2.8241  -2.7949  -2.7877  -2.7869
    -2.7703  -2.7674  -2.7628  -2.7480  -2.7432  -2.6856  -2.6633  -2.1787
    -1.7809  -1.7636  -1.7512  -1.6972  -1.6737  -1.1680  -0.9770  -0.3419
    -0.3357  -0.3120  -0.3027  -0.2978  -0.2931  -0.2902  -0.2807  -0.2796

 ------ SPIN DOWN ----------


          k = 0.0000 0.0000 0.0000 (233409 PWs)   bands (ev):

   -23.7866 -23.3525 -23.3366 -23.3314 -23.3235 -23.3218 -23.1305 -22.3931
   -22.3868 -22.3774 -22.3744 -22.3584 -22.2011 -21.9238 -21.9175 -21.9100
   -21.8881 -21.8779 -21.5214 -20.5566 -20.5480 -20.5268 -20.5250 -20.5203
   -20.5161 -20.5110 -20.5098 -20.5023 -20.4260 -20.4214 -20.0206 -19.6411
   -19.6317 -19.6219 -19.5685 -19.5552 -19.1413 -18.3602 -18.3487 -18.3408
   -18.3199 -18.3076 -18.2953 -18.2705 -18.2691 -18.2601 -18.2358 -18.1484
   -17.5632 -17.2537 -17.2459 -17.2457 -17.1235 -17.0986 -16.7553 -16.3287
   -16.3284 -16.3240 -16.2001 -16.1910 -16.0866 -15.8487 -15.8068 -15.8062
   -15.7110 -15.6550 -14.9882 -14.4216 -14.4110 -14.4021 -14.3972 -14.3878
   -14.3829 -14.3789 -14.3758 -14.3640 -14.3177 -14.2791 -14.1961 -14.1870
   -14.1607 -14.1567 -13.7768 -13.7735 -13.0649 -12.7091 -12.6928 -12.6831
   -12.5679 -12.5445 -12.2665 -12.1512 -12.1283 -12.1192 -12.0007 -11.9903
   -11.8648 -11.8103 -11.6811 -11.6396 -11.6292 -11.6203 -11.6191 -11.6132
   -11.5859 -11.5838 -11.5517 -11.4132 -11.3629 -11.3555 -11.3292 -11.3247
   -11.3219 -11.3149 -11.3066 -11.2182 -11.2060 -11.1797 -11.0957 -10.9508
   -10.9092 -10.6531 -10.6141 -10.6082 -10.5854 -10.3514 -10.3487 -10.2033
   -10.1951 -10.1926 -10.1882 -10.1780 -10.0651 -10.0101 -10.0046  -9.9779
    -9.9702  -9.8341  -9.8336  -9.7405  -9.7176  -9.7120  -9.6645  -9.6621
    -9.6566  -9.6489  -9.6390  -9.6342  -9.4330  -9.3349  -9.3253  -9.2851
    -9.1085  -9.0962  -9.0937  -8.5367  -8.5139  -8.2596  -8.2432  -8.2382
    -8.2023  -8.1090  -8.1031  -8.0933  -8.0921  -8.0915  -8.0836  -8.0809
    -8.0795  -8.0779  -8.0464  -8.0304  -7.6587  -7.5168  -7.4699  -7.4063
    -7.2941  -7.2846  -7.2817  -7.2754  -7.2365  -6.8191  -6.1998  -6.1982
    -6.1900  -6.1719  -6.1418  -5.9721  -5.7793  -5.7790  -5.7770  -5.7391
    -5.7045  -4.4654  -3.6338  -2.9529  -2.8238  -2.7756  -2.7723  -2.7692
    -2.7561  -2.7482  -2.7428  -2.7273  -2.7194  -2.5817  -2.5442  -2.1400
    -1.7681  -1.7538  -1.7115  -1.6247  -1.6152  -1.1047  -0.9707  -0.3315
    -0.3151  -0.2935  -0.2767  -0.2756  -0.2752  -0.2581  -0.2472  -0.2457

     the Fermi energy is    -4.5394 ev

!    total energy              =   -1168.10094561 Ry
     estimated scf accuracy    <          7.1E-11 Ry
     smearing contrib. (-TS)   =      -0.00034088 Ry
     internal energy E=F+TS    =   -1168.10060474 Ry

     The total energy is F=E-TS. E is the sum of the following terms:
     one-electron contribution =  -13177.88327596 Ry
     hartree contribution      =    6625.01686112 Ry
     xc contribution           =    -415.50428491 Ry
     ewald contribution        =    5800.27009501 Ry

     total magnetization       =     1.76 Bohr mag/cell
     absolute magnetization    =     2.58 Bohr mag/cell

     convergence has been achieved in  17 iterations

     Forces acting on atoms (cartesian axes, Ry/au):

     atom    1 type  1   force =    -0.00095609   -0.00000012   -0.00000001
     atom    2 type  1   force =    -0.00037460    0.00000004    0.00000000
     atom    3 type  1   force =    -0.00051430    0.00055410    0.00000002
     atom    4 type  1   force =    -0.00004498    0.00030766   -0.00000000
     atom    5 type  1   force =    -0.00042013    0.00088625   -0.00000001
     atom    6 type  1   force =    -0.00027357    0.00063498   -0.00000000
     atom    7 type  1   force =    -0.00096929    0.00102320   -0.00000000
     atom    8 type  1   force =    -0.00222335    0.00162113    0.00000000
     atom    9 type  1   force =     0.00295031   -0.00161230   -0.00000003
     atom   10 type  1   force =    -0.00076789   -0.00070647    0.00000001
     atom   11 type  1   force =     0.00092904   -0.00428528    0.00000001
     atom   12 type  1   force =    -0.00035062    0.00206242   -0.00000001
     atom   13 type  1   force =    -0.00062551   -0.00040014   -0.00000001
     atom   14 type  1   force =    -0.00082188   -0.00172018    0.00000002
     atom   15 type  1   force =    -0.00051430   -0.00055417    0.00000002
     atom   16 type  1   force =    -0.00004502   -0.00030767   -0.00000000
     atom   17 type  1   force =    -0.00025067    0.00000003   -0.00000000
     atom   18 type  1   force =    -0.00010631   -0.00000002    0.00000001
     atom   19 type  1   force =    -0.00177549    0.00039530   -0.00000000
     atom   20 type  1   force =    -0.00143312   -0.00112305   -0.00000000
     atom   21 type  1   force =    -0.00412337    0.00242367   -0.00000002
     atom   22 type  1   force =    -0.00316354    0.00138493   -0.00000003
     atom   23 type  1   force =    -0.00434703    0.00409788    0.00000001
     atom   24 type  1   force =    -0.00181921   -0.00035281    0.00000001
     atom   25 type  1   force =    -0.00015971    0.00257352   -0.00000001
     atom   26 type  1   force =     0.00110939   -0.00110683    0.00000002
     atom   27 type  1   force =    -0.00105582   -0.00218886    0.00000003
     atom   28 type  1   force =    -0.00136489   -0.00118018   -0.00000000
     atom   29 type  1   force =    -0.00042018   -0.00088635    0.00000002
     atom   30 type  1   force =    -0.00027345   -0.00063505   -0.00000000
     atom   31 type  1   force =    -0.00177530   -0.00039540   -0.00000000
     atom   32 type  1   force =    -0.00143267    0.00112348    0.00000001
     atom   33 type  1   force =    -0.00230059   -0.00000002   -0.00000001
     atom   34 type  1   force =     0.00216980    0.00000148   -0.00000001
     atom   35 type  1   force =    -0.00695849   -0.00290319    0.00000000
     atom   36 type  2   force =     0.00184531   -0.01242643    0.00000000
     atom   37 type  1   force =    -0.00337386   -0.01542991   -0.00000002
     atom   38 type  1   force =    -0.00020187   -0.00900952    0.00000000
     atom   39 type  1   force =     0.00080039    0.00040654    0.00000001
     atom   40 type  1   force =     0.00063146    0.00068998   -0.00000001
     atom   41 type  1   force =    -0.00101731   -0.00125825   -0.00000000
     atom   42 type  1   force =    -0.00085701   -0.00080695    0.00000002
     atom   43 type  1   force =    -0.00096857   -0.00102289    0.00000001
     atom   44 type  1   force =    -0.00222226   -0.00162032   -0.00000001
     atom   45 type  1   force =    -0.00412100   -0.00242275    0.00000001
     atom   46 type  1   force =    -0.00315945   -0.00138026   -0.00000001
     atom   47 type  1   force =    -0.00694645    0.00290731   -0.00000000
     atom   48 type  2   force =     0.00185233    0.01243403    0.00000000
     atom   49 type  2   force =     0.00524344   -0.00000196   -0.00000002
     atom   50 type  1   force =     0.00299392   -0.00045041   -0.00000001
     atom   51 type  1   force =     0.00686391   -0.00045578    0.00000002
     atom   52 type  1   force =     0.00474914    0.00304989    0.00000001
     atom   53 type  1   force =     0.00437977    0.00193543    0.00000001
     atom   54 type  1   force =     0.00157607    0.00076667    0.00000000
     atom   55 type  1   force =     0.00023195    0.00055693   -0.00000000
     atom   56 type  1   force =     0.00295083    0.00161291   -0.00000000
     atom   57 type  1   force =    -0.00076729    0.00070708    0.00000000
     atom   58 type  1   force =    -0.00434577   -0.00409690   -0.00000002
     atom   59 type  1   force =    -0.00181756    0.00035402   -0.00000001
     atom   60 type  1   force =    -0.00336991    0.01542990   -0.00000002
     atom   61 type  1   force =    -0.00019837    0.00900626    0.00000004
     atom   62 type  1   force =     0.00300052    0.00043949   -0.00000001
     atom   63 type  1   force =     0.00686785    0.00045382    0.00000002
     atom   64 type  1   force =     0.00671220   -0.00000063   -0.00000003
     atom   65 type  1   force =     0.00270859   -0.00000021    0.00000000
     atom   66 type  1   force =    -0.00083795   -0.00059762   -0.00000002
     atom   67 type  1   force =    -0.00092712   -0.00011102   -0.00000000
     atom   68 type  1   force =     0.00041627    0.00066963    0.00000000
     atom   69 type  1   force =     0.00218922    0.00214109   -0.00000001
     atom   70 type  1   force =     0.00092905    0.00428582    0.00000002
     atom   71 type  1   force =    -0.00035049   -0.00206185    0.00000000
     atom   72 type  1   force =    -0.00015975   -0.00257312   -0.00000001
     atom   73 type  1   force =     0.00110967    0.00110641   -0.00000003
     atom   74 type  1   force =     0.00080133   -0.00040832   -0.00000002
     atom   75 type  1   force =     0.00063233   -0.00069065    0.00000002
     atom   76 type  1   force =     0.00475079   -0.00305121    0.00000000
     atom   77 type  1   force =     0.00438040   -0.00193576   -0.00000002
     atom   78 type  1   force =    -0.00083764    0.00059768    0.00000001
     atom   79 type  1   force =    -0.00092716    0.00011107    0.00000001
     atom   80 type  1   force =    -0.00016064    0.00000000   -0.00000001
     atom   81 type  1   force =     0.00023916    0.00000001    0.00000001
     atom   82 type  1   force =     0.00043768    0.00051065   -0.00000001
     atom   83 type  1   force =     0.00105019    0.00296592   -0.00000001
     atom   84 type  1   force =    -0.00062556    0.00040035   -0.00000001
     atom   85 type  1   force =    -0.00082188    0.00171988    0.00000001
     atom   86 type  1   force =    -0.00105566    0.00218805    0.00000001
     atom   87 type  1   force =    -0.00136482    0.00117988    0.00000002
     atom   88 type  1   force =    -0.00101669    0.00125760   -0.00000001
     atom   89 type  1   force =    -0.00085668    0.00080673    0.00000001
     atom   90 type  1   force =     0.00157651   -0.00076698   -0.00000000
     atom   91 type  1   force =     0.00023187   -0.00055686    0.00000000
     atom   92 type  1   force =     0.00041620   -0.00066953    0.00000001
     atom   93 type  1   force =     0.00218903   -0.00214090   -0.00000000
     atom   94 type  1   force =     0.00043766   -0.00051058    0.00000002
     atom   95 type  1   force =     0.00105012   -0.00296562    0.00000002
     atom   96 type  1   force =     0.00090190    0.00000009    0.00000001
     atom   97 type  1   force =     0.00066449    0.00000007   -0.00000001

     Total force =     0.042068     Total SCF correction =     0.000008
     Energy error            =      1.4E-03 Ry
     Gradient error          =      1.5E-02 Ry/Bohr

     number of scf cycles    =   6
     number of bfgs steps    =   5

     energy             old  =   -1168.0995483490 Ry
     energy             new  =   -1168.1009456116 Ry

     CASE: energy            _new < energy            _old

     new trust radius        =       0.0367373874 bohr
     new conv_thr            =            1.0E-10 Ry


ATOMIC_POSITIONS (crystal)
C                0.0475983005        0.0475982896       -0.0000000013
C                0.0952307503        0.0952307479        0.0000000001
C                0.0476087223        0.1904866047        0.0000000014
C                0.0952207242        0.2381028011        0.0000000024
C                0.0475554741        0.3333634850       -0.0000000008
C                0.0951049098        0.3810068516       -0.0000000006
C                0.0478352882        0.4762254093       -0.0000000015
C                0.0956216086        0.5237980208       -0.0000000020
C                0.0479029774        0.6190293643       -0.0000000015
C                0.0959264116        0.6663583994       -0.0000000011
C                0.0479656740        0.7615789657        0.0000000005
C                0.0963871305        0.8084452402       -0.0000000009
C                0.0480867754        0.9042228036       -0.0000000007
C                0.0952970906        0.9522644744        0.0000000006
C                0.1904865986        0.0476087323        0.0000000009
C                0.2381027960        0.0952207240        0.0000000024
C                0.1904832559        0.1904832613        0.0000000036
C                0.2380380090        0.2380380129        0.0000000012
C                0.1902585466        0.3333671246       -0.0000000012
C                0.2375283975        0.3809457977       -0.0000000009
C                0.1908939973        0.4759768772       -0.0000000022
C                0.2385040176        0.5234550864        0.0000000016
C                0.1918433935        0.6181362856        0.0000000024
C                0.2405104158        0.6643262840       -0.0000000002
C                0.1921224369        0.7602058272       -0.0000000016
C                0.2383129409        0.8090702187       -0.0000000002
C                0.1905347847        0.9045379276        0.0000000011
C                0.2381110581        0.9523139692        0.0000000005
C                0.3333634841        0.0475554679        0.0000000011
C                0.3810068506        0.0951049206       -0.0000000001
C                0.3333671380        0.1902585413       -0.0000000004
C                0.3809458015        0.2375284213       -0.0000000007
C                0.3327631010        0.3327630498       -0.0000000000
C                0.3795606632        0.3795609235        0.0000000011
C                0.3343198332        0.4747557385        0.0000000030
C1               0.3815001014        0.5197006341        0.0000000041
C                0.3374430355        0.6150809411       -0.0000000002
C                0.3813812579        0.6665102587       -0.0000000004
C                0.3335923153        0.7612471376        0.0000000003
C                0.3810645947        0.8092987273       -0.0000000025
C                0.3333953465        0.9046116944       -0.0000000017
C                0.3809926365        0.9523019933        0.0000000025
C                0.4762254076        0.0478353781       -0.0000000001
C                0.5237980038        0.0956218408       -0.0000000006
C                0.4759768540        0.1908944545       -0.0000000010
C                0.5234549764        0.2385049689       -0.0000000004
C                0.4747553605        0.3343217051        0.0000000013
C1               0.5197008847        0.3815027281       -0.0000000001
C1               0.5273406065        0.5273377351       -0.0000000020
C                0.4768422435        0.6193967499        0.0000000014
C                0.5241441425        0.6671838162        0.0000000011
C                0.4762164387        0.7619627039        0.0000000015
C                0.5238322711        0.8093812540        0.0000000009
C                0.4762286732        0.9046718414        0.0000000007
C                0.5238132743        0.9524291738       -0.0000000004
C                0.6190293600        0.0479030447       -0.0000000021
C                0.6663583407        0.0959265067       -0.0000000015
C                0.6181361697        0.1918437356       -0.0000000021
C                0.6643261670        0.2405107022       -0.0000000015
C                0.6150810397        0.3374436515        0.0000000004
C                0.6665111488        0.3813809286        0.0000000003
C                0.6193982664        0.4768418876       -0.0000000021
C                0.6671845108        0.5241440738       -0.0000000004
C                0.6191004031        0.6191002924       -0.0000000017
C                0.6666749424        0.6666749681        0.0000000004
C                0.6190895434        0.7618925873        0.0000000000
C                0.6666859268        0.8095401089        0.0000000009
C                0.6190721693        0.9047853393       -0.0000000009
C                0.6666742342        0.9524237603       -0.0000000021
C                0.7615789200        0.0479657331       -0.0000000021
C                0.8084452038        0.0963871779       -0.0000000009
C                0.7602057681        0.1921225600        0.0000000005
C                0.8090703874        0.2383127964       -0.0000000004
C                0.7612475055        0.3335921076        0.0000000013
C                0.8092989273        0.3810645652        0.0000000020
C                0.7619630698        0.4762163889        0.0000000007
C                0.8093814246        0.5238322817       -0.0000000004
C                0.7618926022        0.6190895370        0.0000000005
C                0.8095401091        0.6666859295        0.0000000008
C                0.7619264700        0.7619264700        0.0000000014
C                0.8095192576        0.8095192443       -0.0000000006
C                0.7618976351        0.9047858049       -0.0000000009
C                0.8094816588        0.9524502088       -0.0000000009
C                0.9042227711        0.0480868088       -0.0000000002
C                0.9522644926        0.0952970696        0.0000000002
C                0.9045379656        0.1905347440       -0.0000000005
C                0.9523140045        0.2381110423       -0.0000000002
C                0.9046117444        0.3333953333        0.0000000001
C                0.9523020219        0.3809926386        0.0000000008
C                0.9046718936        0.4762286734        0.0000000011
C                0.9524291674        0.5238132761       -0.0000000007
C                0.9047853375        0.6190721641       -0.0000000014
C                0.9524237521        0.6666742365       -0.0000000008
C                0.9047857892        0.7618976428        0.0000000005
C                0.9524502049        0.8094816639        0.0000000008
C                0.9047489113        0.9047489215        0.0000000012
C                0.9523925241        0.9523925314        0.0000000002



     Writing config-only to output data dir /home/gregb26/links/scratch/qe_tmp/vacancy_relaxed/series/7x7/nspin2/vac_7x7_relax_nspin2.save/ :
     XML data file
     NEW-OLD atomic charge density approx. for the potential

     negative rho (up, down):  2.815E-06 2.892E-06
     Generating pointlists ...

     total cpu time spent up to now is      597.4 secs

     per-process dynamical memory:   262.1 Mb

     Self-consistent Calculation

     iteration #  1     ecut=   100.00 Ry     beta= 0.30
     Davidson diagonalization with overlap
     ethr =  1.00E-06,  avg # of iterations =  6.5

     negative rho (up, down):  2.355E-06 1.864E-06

     total cpu time spent up to now is      605.3 secs

     total energy              =   -1168.10269799 Ry
     estimated scf accuracy    <       0.00137230 Ry

     total magnetization       =     1.91 Bohr mag/cell
     absolute magnetization    =     2.72 Bohr mag/cell

     iteration #  2     ecut=   100.00 Ry     beta= 0.30
     Davidson diagonalization with overlap
     ethr =  3.54E-07,  avg # of iterations =  3.0

     negative rho (up, down):  1.555E-06 1.235E-06

     total cpu time spent up to now is      608.8 secs

     total energy              =   -1168.10283643 Ry
     estimated scf accuracy    <       0.00039544 Ry

     total magnetization       =     1.87 Bohr mag/cell
     absolute magnetization    =     2.69 Bohr mag/cell

     iteration #  3     ecut=   100.00 Ry     beta= 0.30
     Davidson diagonalization with overlap
     ethr =  1.02E-07,  avg # of iterations =  3.0

     negative rho (up, down):  7.047E-07 5.629E-07

     total cpu time spent up to now is      612.3 secs

     total energy              =   -1168.10291562 Ry
     estimated scf accuracy    <       0.00022137 Ry

     total magnetization       =     1.92 Bohr mag/cell
     absolute magnetization    =     2.75 Bohr mag/cell

     iteration #  4     ecut=   100.00 Ry     beta= 0.30
     Davidson diagonalization with overlap
     ethr =  5.71E-08,  avg # of iterations =  3.0

     negative rho (up, down):  1.946E-07 1.568E-07

     total cpu time spent up to now is      615.7 secs

     total energy              =   -1168.10296933 Ry
     estimated scf accuracy    <       0.00004985 Ry

     total magnetization       =     1.92 Bohr mag/cell
     absolute magnetization    =     2.76 Bohr mag/cell

     iteration #  5     ecut=   100.00 Ry     beta= 0.30
     Davidson diagonalization with overlap
     ethr =  1.28E-08,  avg # of iterations =  4.0

     negative rho (up, down):  3.051E-08 2.474E-08

     total cpu time spent up to now is      619.7 secs

     total energy              =   -1168.10299807 Ry
     estimated scf accuracy    <       0.00001895 Ry

     total magnetization       =     1.93 Bohr mag/cell
     absolute magnetization    =     2.79 Bohr mag/cell

     iteration #  6     ecut=   100.00 Ry     beta= 0.30
     Davidson diagonalization with overlap
     ethr =  4.88E-09,  avg # of iterations =  4.0

     total cpu time spent up to now is      623.5 secs

     total energy              =   -1168.10301308 Ry
     estimated scf accuracy    <       0.00000754 Ry

     total magnetization       =     1.94 Bohr mag/cell
     absolute magnetization    =     2.80 Bohr mag/cell

     iteration #  7     ecut=   100.00 Ry     beta= 0.30
     Davidson diagonalization with overlap
     ethr =  1.94E-09,  avg # of iterations =  4.5

     negative rho (up, down):  3.243E-08 2.256E-08

     total cpu time spent up to now is      627.6 secs

     total energy              =   -1168.10302204 Ry
     estimated scf accuracy    <       0.00000332 Ry

     total magnetization       =     1.94 Bohr mag/cell
     absolute magnetization    =     2.82 Bohr mag/cell

     iteration #  8     ecut=   100.00 Ry     beta= 0.30
     Davidson diagonalization with overlap
     ethr =  8.56E-10,  avg # of iterations =  5.0

     negative rho (up, down):  2.372E-08 1.640E-08

     total cpu time spent up to now is      632.5 secs

     total energy              =   -1168.10302725 Ry
     estimated scf accuracy    <       0.00000081 Ry

     total magnetization       =     1.95 Bohr mag/cell
     absolute magnetization    =     2.84 Bohr mag/cell

     iteration #  9     ecut=   100.00 Ry     beta= 0.30
     Davidson diagonalization with overlap
     ethr =  2.08E-10,  avg # of iterations =  4.5

     negative rho (up, down):  1.292E-08 8.796E-09

     total cpu time spent up to now is      637.1 secs

     total energy              =   -1168.10302846 Ry
     estimated scf accuracy    <       0.00000035 Ry

     total magnetization       =     1.95 Bohr mag/cell
     absolute magnetization    =     2.85 Bohr mag/cell

     iteration # 10     ecut=   100.00 Ry     beta= 0.30
     Davidson diagonalization with overlap
     ethr =  9.10E-11,  avg # of iterations =  4.5

     total cpu time spent up to now is      641.6 secs

     total energy              =   -1168.10302892 Ry
     estimated scf accuracy    <       0.00000018 Ry

     total magnetization       =     1.95 Bohr mag/cell
     absolute magnetization    =     2.86 Bohr mag/cell

     iteration # 11     ecut=   100.00 Ry     beta= 0.30
     Davidson diagonalization with overlap
     ethr =  4.53E-11,  avg # of iterations =  5.5

     total cpu time spent up to now is      646.7 secs

     total energy              =   -1168.10302920 Ry
     estimated scf accuracy    <       0.00000003 Ry

     total magnetization       =     1.95 Bohr mag/cell
     absolute magnetization    =     2.87 Bohr mag/cell

     iteration # 12     ecut=   100.00 Ry     beta= 0.30
     Davidson diagonalization with overlap
     ethr =  8.94E-12,  avg # of iterations =  5.5

     total cpu time spent up to now is      652.0 secs

     total energy              =   -1168.10302927 Ry
     estimated scf accuracy    <       0.00000001 Ry

     total magnetization       =     1.95 Bohr mag/cell
     absolute magnetization    =     2.87 Bohr mag/cell

     iteration # 13     ecut=   100.00 Ry     beta= 0.30
     Davidson diagonalization with overlap
     ethr =  3.66E-12,  avg # of iterations =  5.5

     total cpu time spent up to now is      657.1 secs

     total energy              =   -1168.10302930 Ry
     estimated scf accuracy    <          6.3E-09 Ry

     total magnetization       =     1.95 Bohr mag/cell
     absolute magnetization    =     2.87 Bohr mag/cell

     iteration # 14     ecut=   100.00 Ry     beta= 0.30
     Davidson diagonalization with overlap
     ethr =  1.61E-12,  avg # of iterations =  5.0

     total cpu time spent up to now is      662.5 secs

     total energy              =   -1168.10302931 Ry
     estimated scf accuracy    <          1.9E-09 Ry

     total magnetization       =     1.95 Bohr mag/cell
     absolute magnetization    =     2.88 Bohr mag/cell

     iteration # 15     ecut=   100.00 Ry     beta= 0.30
     Davidson diagonalization with overlap
     ethr =  4.96E-13,  avg # of iterations =  5.5

     total cpu time spent up to now is      668.5 secs

     total energy              =   -1168.10302932 Ry
     estimated scf accuracy    <          6.2E-10 Ry

     total magnetization       =     1.95 Bohr mag/cell
     absolute magnetization    =     2.88 Bohr mag/cell

     iteration # 16     ecut=   100.00 Ry     beta= 0.30
     Davidson diagonalization with overlap
     ethr =  1.59E-13,  avg # of iterations =  5.0

     total cpu time spent up to now is      673.6 secs

     total energy              =   -1168.10302932 Ry
     estimated scf accuracy    <          2.0E-10 Ry

     total magnetization       =     1.95 Bohr mag/cell
     absolute magnetization    =     2.88 Bohr mag/cell

     iteration # 17     ecut=   100.00 Ry     beta= 0.30
     Davidson diagonalization with overlap
     ethr =  1.00E-13,  avg # of iterations =  5.0

     Magnetic moment per site  (integrated on atomic sphere of radius R)
     atom   1 (R=0.032)  charge=  1.5246  magn= -0.0020
     atom   2 (R=0.032)  charge=  1.5254  magn=  0.0031
     atom   3 (R=0.032)  charge=  1.5259  magn= -0.0026
     atom   4 (R=0.032)  charge=  1.5258  magn=  0.0044
     atom   5 (R=0.032)  charge=  1.5271  magn= -0.0022
     atom   6 (R=0.032)  charge=  1.5275  magn=  0.0018
     atom   7 (R=0.032)  charge=  1.5252  magn= -0.0023
     atom   8 (R=0.032)  charge=  1.5258  magn=  0.0041
     atom   9 (R=0.032)  charge=  1.5244  magn= -0.0027
     atom  10 (R=0.032)  charge=  1.5214  magn=  0.0079
     atom  11 (R=0.032)  charge=  1.5239  magn= -0.0027
     atom  12 (R=0.032)  charge=  1.5184  magn=  0.0043
     atom  13 (R=0.032)  charge=  1.5191  magn= -0.0024
     atom  14 (R=0.032)  charge=  1.5251  magn=  0.0015
     atom  15 (R=0.032)  charge=  1.5259  magn= -0.0026
     atom  16 (R=0.032)  charge=  1.5258  magn=  0.0044
     atom  17 (R=0.032)  charge=  1.5275  magn= -0.0028
     atom  18 (R=0.032)  charge=  1.5261  magn=  0.0135
     atom  19 (R=0.032)  charge=  1.5306  magn= -0.0040
     atom  20 (R=0.032)  charge=  1.5305  magn=  0.0155
     atom  21 (R=0.032)  charge=  1.5292  magn= -0.0039
     atom  22 (R=0.032)  charge=  1.5250  magn=  0.0068
     atom  23 (R=0.032)  charge=  1.5276  magn= -0.0035
     atom  24 (R=0.032)  charge=  1.5115  magn=  0.0046
     atom  25 (R=0.032)  charge=  1.5191  magn= -0.0048
     atom  26 (R=0.032)  charge=  1.5257  magn=  0.0134
     atom  27 (R=0.032)  charge=  1.5236  magn= -0.0036
     atom  28 (R=0.032)  charge=  1.5249  magn=  0.0117
     atom  29 (R=0.032)  charge=  1.5271  magn= -0.0022
     atom  30 (R=0.032)  charge=  1.5275  magn=  0.0018
     atom  31 (R=0.032)  charge=  1.5306  magn= -0.0040
     atom  32 (R=0.032)  charge=  1.5305  magn=  0.0155
     atom  33 (R=0.032)  charge=  1.5380  magn= -0.0078
     atom  34 (R=0.032)  charge=  1.5406  magn=  0.0452
     atom  35 (R=0.032)  charge=  1.5398  magn= -0.0066
     atom  36 (R=0.032)  charge=  1.4300  magn=  0.0791
     atom  37 (R=0.032)  charge=  1.5047  magn= -0.0129
     atom  38 (R=0.032)  charge=  1.5256  magn=  0.0510
     atom  39 (R=0.032)  charge=  1.5263  magn= -0.0087
     atom  40 (R=0.032)  charge=  1.5253  magn=  0.0156
     atom  41 (R=0.032)  charge=  1.5248  magn= -0.0041
     atom  42 (R=0.032)  charge=  1.5264  magn=  0.0020
     atom  43 (R=0.032)  charge=  1.5252  magn= -0.0023
     atom  44 (R=0.032)  charge=  1.5258  magn=  0.0041
     atom  45 (R=0.032)  charge=  1.5292  magn= -0.0039
     atom  46 (R=0.032)  charge=  1.5250  magn=  0.0068
     atom  47 (R=0.032)  charge=  1.5398  magn= -0.0066
     atom  48 (R=0.032)  charge=  1.4300  magn=  0.0789
     atom  49 (R=0.032)  charge=  1.4846  magn=  0.3226
     atom  50 (R=0.032)  charge=  1.5421  magn= -0.0109
     atom  51 (R=0.032)  charge=  1.5321  magn=  0.0225
     atom  52 (R=0.032)  charge=  1.5310  magn= -0.0024
     atom  53 (R=0.032)  charge=  1.5285  magn=  0.0053
     atom  54 (R=0.032)  charge=  1.5256  magn= -0.0022
     atom  55 (R=0.032)  charge=  1.5251  magn=  0.0053
     atom  56 (R=0.032)  charge=  1.5244  magn= -0.0027
     atom  57 (R=0.032)  charge=  1.5214  magn=  0.0079
     atom  58 (R=0.032)  charge=  1.5276  magn= -0.0035
     atom  59 (R=0.032)  charge=  1.5115  magn=  0.0045
     atom  60 (R=0.032)  charge=  1.5047  magn= -0.0129
     atom  61 (R=0.032)  charge=  1.5256  magn=  0.0510
     atom  62 (R=0.032)  charge=  1.5422  magn= -0.0109
     atom  63 (R=0.032)  charge=  1.5322  magn=  0.0225
     atom  64 (R=0.032)  charge=  1.5316  magn= -0.0085
     atom  65 (R=0.032)  charge=  1.5291  magn=  0.0090
     atom  66 (R=0.032)  charge=  1.5265  magn= -0.0036
     atom  67 (R=0.032)  charge=  1.5276  magn=  0.0021
     atom  68 (R=0.032)  charge=  1.5263  magn= -0.0021
     atom  69 (R=0.032)  charge=  1.5254  magn=  0.0020
     atom  70 (R=0.032)  charge=  1.5239  magn= -0.0027
     atom  71 (R=0.032)  charge=  1.5184  magn=  0.0043
     atom  72 (R=0.032)  charge=  1.5191  magn= -0.0048
     atom  73 (R=0.032)  charge=  1.5257  magn=  0.0134
     atom  74 (R=0.032)  charge=  1.5263  magn= -0.0087
     atom  75 (R=0.032)  charge=  1.5253  magn=  0.0156
     atom  76 (R=0.032)  charge=  1.5310  magn= -0.0024
     atom  77 (R=0.032)  charge=  1.5285  magn=  0.0053
     atom  78 (R=0.032)  charge=  1.5265  magn= -0.0036
     atom  79 (R=0.032)  charge=  1.5276  magn=  0.0021
     atom  80 (R=0.032)  charge=  1.5266  magn= -0.0022
     atom  81 (R=0.032)  charge=  1.5270  magn=  0.0041
     atom  82 (R=0.032)  charge=  1.5258  magn= -0.0018
     atom  83 (R=0.032)  charge=  1.5242  magn=  0.0018
     atom  84 (R=0.032)  charge=  1.5191  magn= -0.0024
     atom  85 (R=0.032)  charge=  1.5251  magn=  0.0015
     atom  86 (R=0.032)  charge=  1.5236  magn= -0.0036
     atom  87 (R=0.032)  charge=  1.5249  magn=  0.0117
     atom  88 (R=0.032)  charge=  1.5248  magn= -0.0041
     atom  89 (R=0.032)  charge=  1.5264  magn=  0.0020
     atom  90 (R=0.032)  charge=  1.5257  magn= -0.0022
     atom  91 (R=0.032)  charge=  1.5251  magn=  0.0053
     atom  92 (R=0.032)  charge=  1.5263  magn= -0.0021
     atom  93 (R=0.032)  charge=  1.5254  magn=  0.0020
     atom  94 (R=0.032)  charge=  1.5258  magn= -0.0018
     atom  95 (R=0.032)  charge=  1.5242  magn=  0.0018
     atom  96 (R=0.032)  charge=  1.5250  magn= -0.0020
     atom  97 (R=0.032)  charge=  1.5194  magn=  0.0048

     total cpu time spent up to now is      678.6 secs

     End of self-consistent calculation

 ------ SPIN UP ------------


          k = 0.0000 0.0000 0.0000 (233409 PWs)   bands (ev):

   -23.7987 -23.3890 -23.3402 -23.3346 -23.3326 -23.3252 -23.1717 -22.4121
   -22.4037 -22.3982 -22.3896 -22.3634 -22.2152 -21.9399 -21.9358 -21.9200
   -21.9184 -21.8856 -21.5687 -20.5830 -20.5782 -20.5416 -20.5385 -20.5313
   -20.5234 -20.5146 -20.5132 -20.5036 -20.4805 -20.4330 -20.0505 -19.6649
   -19.6467 -19.6234 -19.5923 -19.5806 -19.1855 -18.3805 -18.3723 -18.3513
   -18.3281 -18.3163 -18.2988 -18.2839 -18.2821 -18.2682 -18.2527 -18.2062
   -17.6533 -17.2619 -17.2574 -17.2545 -17.1519 -17.1022 -16.7956 -16.3450
   -16.3390 -16.3296 -16.2303 -16.2046 -16.1017 -15.8551 -15.8184 -15.8120
   -15.7389 -15.7224 -15.0453 -14.4391 -14.4386 -14.4195 -14.4129 -14.3931
   -14.3885 -14.3884 -14.3827 -14.3751 -14.3303 -14.3091 -14.2023 -14.1900
   -14.1667 -14.1573 -13.8423 -13.7908 -13.1228 -12.7226 -12.7139 -12.6927
   -12.5815 -12.5674 -12.2944 -12.1685 -12.1357 -12.1301 -12.0090 -11.9990
   -11.8861 -11.8319 -11.6945 -11.6564 -11.6365 -11.6301 -11.6245 -11.6165
   -11.5963 -11.5906 -11.5709 -11.4349 -11.3770 -11.3759 -11.3729 -11.3361
   -11.3333 -11.3304 -11.3206 -11.2316 -11.2155 -11.1897 -11.1601 -10.9635
   -10.9352 -10.6672 -10.6227 -10.6080 -10.5900 -10.3770 -10.3718 -10.2351
   -10.2234 -10.2197 -10.2134 -10.1997 -10.0859 -10.0395 -10.0127  -9.9894
    -9.9849  -9.8416  -9.8388  -9.7445  -9.7363  -9.7161  -9.6878  -9.6849
    -9.6836  -9.6746  -9.6663  -9.6622  -9.5210  -9.3617  -9.3546  -9.3490
    -9.1128  -9.1050  -9.1037  -8.5520  -8.5396  -8.2645  -8.2527  -8.2504
    -8.2085  -8.1507  -8.1475  -8.1266  -8.1145  -8.1119  -8.1041  -8.1020
    -8.0955  -8.0935  -8.0906  -8.0818  -7.8832  -7.7023  -7.4887  -7.4786
    -7.3327  -7.3196  -7.3019  -7.2942  -7.2797  -6.8870  -6.2357  -6.2227
    -6.2095  -6.1938  -6.1911  -6.0073  -5.8190  -5.8159  -5.7978  -5.7904
    -5.7569  -4.8021  -4.6743  -3.8222  -2.8244  -2.7995  -2.7900  -2.7885
    -2.7698  -2.7648  -2.7642  -2.7450  -2.7363  -2.6893  -2.6579  -2.1761
    -1.7805  -1.7626  -1.7531  -1.7004  -1.6671  -1.1681  -0.9771  -0.3420
    -0.3397  -0.3143  -0.3041  -0.3002  -0.2938  -0.2915  -0.2778  -0.2739

 ------ SPIN DOWN ----------


          k = 0.0000 0.0000 0.0000 (233409 PWs)   bands (ev):

   -23.7846 -23.3605 -23.3348 -23.3271 -23.3184 -23.3168 -23.1229 -22.3930
   -22.3850 -22.3782 -22.3721 -22.3472 -22.1942 -21.9254 -21.9182 -21.9066
   -21.8843 -21.8662 -21.5072 -20.5553 -20.5458 -20.5267 -20.5225 -20.5197
   -20.5155 -20.5069 -20.5052 -20.4971 -20.4207 -20.4042 -20.0137 -19.6370
   -19.6289 -19.6146 -19.5616 -19.5492 -19.1326 -18.3566 -18.3468 -18.3367
   -18.3191 -18.3067 -18.2894 -18.2723 -18.2698 -18.2541 -18.2297 -18.1263
   -17.5503 -17.2513 -17.2450 -17.2430 -17.1199 -17.0861 -16.7456 -16.3238
   -16.3222 -16.3168 -16.2010 -16.1862 -16.0837 -15.8426 -15.8039 -15.8018
   -15.7060 -15.6430 -14.9819 -14.4159 -14.4090 -14.3991 -14.3983 -14.3862
   -14.3787 -14.3749 -14.3714 -14.3571 -14.3125 -14.2671 -14.1940 -14.1837
   -14.1575 -14.1476 -13.7718 -13.7610 -13.0554 -12.7031 -12.6883 -12.6754
   -12.5658 -12.5355 -12.2666 -12.1460 -12.1233 -12.1140 -11.9999 -11.9835
   -11.8624 -11.8002 -11.6695 -11.6417 -11.6273 -11.6175 -11.6166 -11.6089
   -11.5821 -11.5789 -11.5472 -11.4066 -11.3529 -11.3487 -11.3343 -11.3238
   -11.3184 -11.3109 -11.3012 -11.2140 -11.1984 -11.1787 -11.0869 -10.9534
   -10.9000 -10.6446 -10.6156 -10.6029 -10.5784 -10.3459 -10.3415 -10.2048
   -10.1928 -10.1913 -10.1853 -10.1679 -10.0561 -10.0033  -9.9968  -9.9709
    -9.9648  -9.8334  -9.8319  -9.7352  -9.7117  -9.7039  -9.6634  -9.6618
    -9.6563  -9.6457  -9.6342  -9.6238  -9.4214  -9.3241  -9.3180  -9.2706
    -9.1058  -9.0909  -9.0890  -8.5357  -8.5034  -8.2546  -8.2399  -8.2321
    -8.2038  -8.1087  -8.1052  -8.0928  -8.0902  -8.0892  -8.0801  -8.0784
    -8.0742  -8.0722  -8.0310  -8.0212  -7.6523  -7.5102  -7.4662  -7.3770
    -7.2928  -7.2837  -7.2778  -7.2691  -7.2246  -6.8115  -6.1993  -6.1977
    -6.1906  -6.1645  -6.1303  -5.9678  -5.7781  -5.7781  -5.7759  -5.7278
    -5.6882  -4.4318  -3.4897  -2.8279  -2.8202  -2.7766  -2.7739  -2.7675
    -2.7534  -2.7436  -2.7424  -2.7212  -2.7110  -2.5683  -2.5325  -2.1328
    -1.7661  -1.7504  -1.7087  -1.6128  -1.6093  -1.0969  -0.9700  -0.3280
    -0.3177  -0.2931  -0.2779  -0.2729  -0.2663  -0.2543  -0.2425  -0.2405

     the Fermi energy is    -4.5768 ev

!    total energy              =   -1168.10302932 Ry
     estimated scf accuracy    <          6.2E-11 Ry
     smearing contrib. (-TS)   =       0.00127180 Ry
     internal energy E=F+TS    =   -1168.10430112 Ry

     The total energy is F=E-TS. E is the sum of the following terms:
     one-electron contribution =  -13178.05772008 Ry
     hartree contribution      =    6625.16542302 Ry
     xc contribution           =    -415.52478315 Ry
     ewald contribution        =    5800.31277909 Ry

     total magnetization       =     1.95 Bohr mag/cell
     absolute magnetization    =     2.88 Bohr mag/cell

     convergence has been achieved in  17 iterations

     Forces acting on atoms (cartesian axes, Ry/au):

     atom    1 type  1   force =    -0.00156683   -0.00000018    0.00000003
     atom    2 type  1   force =    -0.00051589   -0.00000010   -0.00000001
     atom    3 type  1   force =    -0.00114165    0.00095060    0.00000000
     atom    4 type  1   force =    -0.00027876    0.00031627    0.00000001
     atom    5 type  1   force =    -0.00101172    0.00129585    0.00000002
     atom    6 type  1   force =    -0.00026022    0.00011723   -0.00000001
     atom    7 type  1   force =    -0.00220353    0.00208949   -0.00000002
     atom    8 type  1   force =    -0.00406827    0.00227546   -0.00000001
     atom    9 type  1   force =     0.00266084   -0.00105336    0.00000001
     atom   10 type  1   force =    -0.00319139    0.00145025    0.00000002
     atom   11 type  1   force =     0.00161221   -0.00409720   -0.00000002
     atom   12 type  1   force =    -0.00118625    0.00553729    0.00000001
     atom   13 type  1   force =    -0.00057626    0.00072644    0.00000001
     atom   14 type  1   force =    -0.00075116   -0.00158072   -0.00000002
     atom   15 type  1   force =    -0.00114187   -0.00095088    0.00000001
     atom   16 type  1   force =    -0.00027870   -0.00031638   -0.00000001
     atom   17 type  1   force =    -0.00128525   -0.00000003   -0.00000002
     atom   18 type  1   force =     0.00003992   -0.00000010   -0.00000000
     atom   19 type  1   force =    -0.00266624    0.00036667    0.00000001
     atom   20 type  1   force =    -0.00169577   -0.00278479   -0.00000000
     atom   21 type  1   force =    -0.00453239    0.00365704    0.00000002
     atom   22 type  1   force =    -0.00399496    0.00029511    0.00000000
     atom   23 type  1   force =    -0.00499522    0.00720788   -0.00000001
     atom   24 type  1   force =    -0.00185169   -0.00038817    0.00000001
     atom   25 type  1   force =    -0.00036737    0.00358587   -0.00000001
     atom   26 type  1   force =     0.00246812   -0.00031712   -0.00000000
     atom   27 type  1   force =    -0.00121474   -0.00327684    0.00000000
     atom   28 type  1   force =    -0.00126092   -0.00087295   -0.00000000
     atom   29 type  1   force =    -0.00101176   -0.00129604    0.00000001
     atom   30 type  1   force =    -0.00026022   -0.00011728    0.00000001
     atom   31 type  1   force =    -0.00266587   -0.00036671    0.00000001
     atom   32 type  1   force =    -0.00169489    0.00278521   -0.00000000
     atom   33 type  1   force =    -0.00197494    0.00000015   -0.00000001
     atom   34 type  1   force =     0.00364930    0.00000083   -0.00000000
     atom   35 type  1   force =    -0.00792476   -0.00512432   -0.00000000
     atom   36 type  2   force =     0.00852924   -0.01289504   -0.00000001
     atom   37 type  1   force =    -0.00301327   -0.01621615    0.00000001
     atom   38 type  1   force =    -0.00046940   -0.01112726    0.00000001
     atom   39 type  1   force =     0.00078435   -0.00044966   -0.00000001
     atom   40 type  1   force =     0.00163312    0.00207429    0.00000002
     atom   41 type  1   force =    -0.00175417   -0.00184722    0.00000003
     atom   42 type  1   force =    -0.00083878   -0.00034591   -0.00000002
     atom   43 type  1   force =    -0.00220239   -0.00208918   -0.00000001
     atom   44 type  1   force =    -0.00406680   -0.00227417    0.00000000
     atom   45 type  1   force =    -0.00452914   -0.00365628    0.00000003
     atom   46 type  1   force =    -0.00399103   -0.00028818   -0.00000002
     atom   47 type  1   force =    -0.00791394    0.00512222   -0.00000001
     atom   48 type  2   force =     0.00852124    0.01290203    0.00000001
     atom   49 type  2   force =    -0.00078903    0.00000820    0.00000000
     atom   50 type  1   force =    -0.00184888    0.00168234   -0.00000002
     atom   51 type  1   force =     0.00791599   -0.00173862    0.00000001
     atom   52 type  1   force =     0.00480883    0.00300882    0.00000000
     atom   53 type  1   force =     0.00731324    0.00304835   -0.00000001
     atom   54 type  1   force =     0.00229802    0.00107155    0.00000001
     atom   55 type  1   force =     0.00073401    0.00077359    0.00000001
     atom   56 type  1   force =     0.00266140    0.00105425   -0.00000000
     atom   57 type  1   force =    -0.00319004   -0.00144855   -0.00000002
     atom   58 type  1   force =    -0.00499400   -0.00720645   -0.00000001
     atom   59 type  1   force =    -0.00184895    0.00038986   -0.00000003
     atom   60 type  1   force =    -0.00300961    0.01621460   -0.00000001
     atom   61 type  1   force =    -0.00046612    0.01112385   -0.00000001
     atom   62 type  1   force =    -0.00184561   -0.00169546    0.00000001
     atom   63 type  1   force =     0.00792041    0.00173709   -0.00000002
     atom   64 type  1   force =     0.00859964   -0.00000036   -0.00000000
     atom   65 type  1   force =     0.00657131   -0.00000042   -0.00000000
     atom   66 type  1   force =    -0.00038143   -0.00047637    0.00000003
     atom   67 type  1   force =    -0.00010753    0.00031701    0.00000002
     atom   68 type  1   force =     0.00069659    0.00060950   -0.00000001
     atom   69 type  1   force =     0.00249601    0.00270148    0.00000002
     atom   70 type  1   force =     0.00161213    0.00409771   -0.00000000
     atom   71 type  1   force =    -0.00118604   -0.00553639    0.00000001
     atom   72 type  1   force =    -0.00036744   -0.00358594   -0.00000001
     atom   73 type  1   force =     0.00246857    0.00031676    0.00000003
     atom   74 type  1   force =     0.00078649    0.00044613   -0.00000000
     atom   75 type  1   force =     0.00163389   -0.00207532   -0.00000001
     atom   76 type  1   force =     0.00481127   -0.00301098    0.00000002
     atom   77 type  1   force =     0.00731391   -0.00304877    0.00000002
     atom   78 type  1   force =    -0.00038084    0.00047662    0.00000000
     atom   79 type  1   force =    -0.00010758   -0.00031695   -0.00000000
     atom   80 type  1   force =    -0.00033454    0.00000003    0.00000001
     atom   81 type  1   force =     0.00087677    0.00000019    0.00000000
     atom   82 type  1   force =     0.00098526    0.00078786   -0.00000000
     atom   83 type  1   force =     0.00116903    0.00313581   -0.00000001
     atom   84 type  1   force =    -0.00057632   -0.00072641   -0.00000001
     atom   85 type  1   force =    -0.00075117    0.00158029   -0.00000001
     atom   86 type  1   force =    -0.00121438    0.00327528    0.00000001
     atom   87 type  1   force =    -0.00126097    0.00087277   -0.00000002
     atom   88 type  1   force =    -0.00175289    0.00184585    0.00000001
     atom   89 type  1   force =    -0.00083839    0.00034571   -0.00000001
     atom   90 type  1   force =     0.00229881   -0.00107236   -0.00000000
     atom   91 type  1   force =     0.00073382   -0.00077335   -0.00000000
     atom   92 type  1   force =     0.00069652   -0.00060927    0.00000002
     atom   93 type  1   force =     0.00249560   -0.00270099   -0.00000003
     atom   94 type  1   force =     0.00098530   -0.00078784   -0.00000001
     atom   95 type  1   force =     0.00116880   -0.00313508   -0.00000000
     atom   96 type  1   force =     0.00142036    0.00000011    0.00000001
     atom   97 type  1   force =     0.00022986    0.00000030    0.00000000

     Total force =     0.051116     Total SCF correction =     0.000005
     Energy error            =      2.1E-03 Ry
     Gradient error          =      1.6E-02 Ry/Bohr

     number of scf cycles    =   7
     number of bfgs steps    =   6

     energy             old  =   -1168.1009456116 Ry
     energy             new  =   -1168.1030293204 Ry

     CASE: energy            _new < energy            _old

     new trust radius        =       0.0551060811 bohr
     new conv_thr            =            1.0E-10 Ry


ATOMIC_POSITIONS (crystal)
C                0.0475568715        0.0475568425       -0.0000000009
C                0.0952029919        0.0952029745       -0.0000000008
C                0.0475519876        0.1904997143        0.0000000018
C                0.0951790891        0.2381247646        0.0000000039
C                0.0474567320        0.3333968600       -0.0000000002
C                0.0950014570        0.3810389413       -0.0000000012
C                0.0478603895        0.4762685524       -0.0000000031
C                0.0956769075        0.5237568210       -0.0000000037
C                0.0481438320        0.6190028024       -0.0000000008
C                0.0963860250        0.6661061296       -0.0000000014
C                0.0482947665        0.7613234296       -0.0000000008
C                0.0968671187        0.8080245723       -0.0000000012
C                0.0483114068        0.9039249350       -0.0000000008
C                0.0953522013        0.9521513898       -0.0000000003
C                0.1904997111        0.0475519863        0.0000000011
C                0.2381247667        0.0951790824        0.0000000036
C                0.1904581030        0.1904581070        0.0000000047
C                0.2379970569        0.2379970484        0.0000000013
C                0.1900817287        0.3333415139       -0.0000000015
C                0.2372835751        0.3808483453       -0.0000000014
C                0.1907999481        0.4758556003       -0.0000000019
C                0.2384277461        0.5232139160        0.0000000035
C                0.1922901380        0.6177366969        0.0000000035
C                0.2413849119        0.6634930654       -0.0000000002
C                0.1926912469        0.7595757819       -0.0000000027
C                0.2385773114        0.8087186004       -0.0000000009
C                0.1906409195        0.9042995293        0.0000000017
C                0.2381281321        0.9522244723        0.0000000007
C                0.3333968651        0.0474567137        0.0000000020
C                0.3810389417        0.0950014745        0.0000000005
C                0.3333415417        0.1900817265       -0.0000000004
C                0.3808483723        0.2372836337       -0.0000000011
C                0.3324251394        0.3324250830        0.0000000000
C                0.3791148783        0.3791152751        0.0000000014
C                0.3340862886        0.4741799391        0.0000000044
C1               0.3826351185        0.5177595838        0.0000000058
C                0.3385989011        0.6136697459        0.0000000008
C                0.3819275074        0.6659585430        0.0000000002
C                0.3337683482        0.7609204310        0.0000000001
C                0.3811258406        0.8091577689       -0.0000000025
C                0.3334326605        0.9044677044       -0.0000000013
C                0.3810137712        0.9522435603        0.0000000028
C                0.4762685676        0.0478605604       -0.0000000006
C                0.5237567683        0.0956773597       -0.0000000005
C                0.4758556153        0.1908007424       -0.0000000003
C                0.5232135731        0.2384294741       -0.0000000018
C                0.4741796805        0.3340890458        0.0000000013
C1               0.5177595021        0.3826389152       -0.0000000003
C1               0.5282890298        0.5282855467       -0.0000000023
C                0.4773441692        0.6199892305        0.0000000022
C                0.5244337728        0.6677305706        0.0000000008
C                0.4762195758        0.7623112895        0.0000000026
C                0.5238541911        0.8095409499        0.0000000004
C                0.4762560549        0.9046946782        0.0000000022
C                0.5238097654        0.9524928233       -0.0000000001
C                0.6190027826        0.0481439768       -0.0000000038
C                0.6661059851        0.0963862829       -0.0000000031
C                0.6177364879        0.1922907616       -0.0000000033
C                0.6634928758        0.2413854592       -0.0000000039
C                0.6136700025        0.3385998329        0.0000000007
C                0.6659600422        0.3819269451       -0.0000000009
C                0.6199918577        0.4773432673       -0.0000000023
C                0.6677317169        0.5244337214       -0.0000000018
C                0.6193062615        0.6193060577       -0.0000000031
C                0.6667410266        0.6667410530       -0.0000000002
C                0.6190987980        0.7619152504        0.0000000018
C                0.6666802494        0.8095850636        0.0000000021
C                0.6190812817        0.9048359930       -0.0000000020
C                0.6666394442        0.9525525984       -0.0000000021
C                0.7613233372        0.0482948789       -0.0000000048
C                0.8080244941        0.0968672206       -0.0000000011
C                0.7595756899        0.1926914377        0.0000000011
C                0.8087189090        0.2385770562        0.0000000014
C                0.7609211873        0.3337679428        0.0000000023
C                0.8091581588        0.3811257590        0.0000000019
C                0.7623119863        0.4762194556        0.0000000025
C                0.8095412547        0.5238542176        0.0000000012
C                0.7619152774        0.6190988011        0.0000000007
C                0.8095850606        0.6666802596        0.0000000009
C                0.7619302443        0.7619302485        0.0000000030
C                0.8095361065        0.8095361036       -0.0000000012
C                0.7618771390        0.9048684872       -0.0000000011
C                0.8094144902        0.9525887522       -0.0000000019
C                0.9039248814        0.0483114592       -0.0000000006
C                0.9521514332        0.0953521511       -0.0000000002
C                0.9042996434        0.1906408118       -0.0000000008
C                0.9522245343        0.2381280975       -0.0000000016
C                0.9044678519        0.3334326186        0.0000000012
C                0.9522436216        0.3810137751        0.0000000005
C                0.9046948070        0.4762560376        0.0000000018
C                0.9524927968        0.5238097775       -0.0000000011
C                0.9048359798        0.6190812789       -0.0000000012
C                0.9525525539        0.6666394617       -0.0000000020
C                0.9048684600        0.7618771545       -0.0000000005
C                0.9525887136        0.8094145216        0.0000000009
C                0.9047646886        0.9047647155        0.0000000019
C                0.9524058986        0.9524059351        0.0000000000



     Writing config-only to output data dir /home/gregb26/links/scratch/qe_tmp/vacancy_relaxed/series/7x7/nspin2/vac_7x7_relax_nspin2.save/ :
     XML data file
     NEW-OLD atomic charge density approx. for the potential

     negative rho (up, down):  4.648E-06 6.512E-06
     Generating pointlists ...

     total cpu time spent up to now is      681.0 secs

     per-process dynamical memory:   262.1 Mb

     Self-consistent Calculation

     iteration #  1     ecut=   100.00 Ry     beta= 0.30
     Davidson diagonalization with overlap
     ethr =  1.00E-06,  avg # of iterations =  7.0

     negative rho (up, down):  3.801E-05 3.948E-05

     total cpu time spent up to now is      689.8 secs

     total energy              =   -1168.10517040 Ry
     estimated scf accuracy    <       0.00248115 Ry

     total magnetization       =     1.99 Bohr mag/cell
     absolute magnetization    =     2.90 Bohr mag/cell

     iteration #  2     ecut=   100.00 Ry     beta= 0.30
     Davidson diagonalization with overlap
     ethr =  6.39E-07,  avg # of iterations =  2.0
     Minimization algorithm failed to find Fermi energy: reverting to bisection
     Possible cause: smearing is larger than the electronic band-gap.

     negative rho (up, down):  2.460E-05 2.562E-05

     total cpu time spent up to now is      693.1 secs

     total energy              =   -1168.10534411 Ry
     estimated scf accuracy    <       0.00079034 Ry

     total magnetization       =     1.99 Bohr mag/cell
     absolute magnetization    =     2.91 Bohr mag/cell

     iteration #  3     ecut=   100.00 Ry     beta= 0.30
     Davidson diagonalization with overlap
     ethr =  2.04E-07,  avg # of iterations =  2.5
     Minimization algorithm failed to find Fermi energy: reverting to bisection
     Possible cause: smearing is larger than the electronic band-gap.

     negative rho (up, down):  9.808E-06 1.029E-05

     total cpu time spent up to now is      696.5 secs

     total energy              =   -1168.10541884 Ry
     estimated scf accuracy    <       0.00030355 Ry

     total magnetization       =     1.99 Bohr mag/cell
     absolute magnetization    =     2.91 Bohr mag/cell

     iteration #  4     ecut=   100.00 Ry     beta= 0.30
     Davidson diagonalization with overlap
     ethr =  7.82E-08,  avg # of iterations =  3.0
     Minimization algorithm failed to find Fermi energy: reverting to bisection
     Possible cause: smearing is larger than the electronic band-gap.

     negative rho (up, down):  5.312E-06 5.603E-06

     total cpu time spent up to now is      699.9 secs

     total energy              =   -1168.10546193 Ry
     estimated scf accuracy    <       0.00013140 Ry

     total magnetization       =     2.00 Bohr mag/cell
     absolute magnetization    =     2.92 Bohr mag/cell

     iteration #  5     ecut=   100.00 Ry     beta= 0.30
     Davidson diagonalization with overlap
     ethr =  3.39E-08,  avg # of iterations =  2.5

     negative rho (up, down):  2.008E-06 2.141E-06

     total cpu time spent up to now is      703.2 secs

     total energy              =   -1168.10548854 Ry
     estimated scf accuracy    <       0.00002488 Ry

     total magnetization       =     2.00 Bohr mag/cell
     absolute magnetization    =     2.92 Bohr mag/cell

     iteration #  6     ecut=   100.00 Ry     beta= 0.30
     Davidson diagonalization with overlap
     ethr =  6.41E-09,  avg # of iterations =  4.0
     Minimization algorithm failed to find Fermi energy: reverting to bisection
     Possible cause: smearing is larger than the electronic band-gap.

     negative rho (up, down):  5.325E-07 5.792E-07

     total cpu time spent up to now is      706.8 secs

     total energy              =   -1168.10550069 Ry
     estimated scf accuracy    <       0.00001175 Ry

     total magnetization       =     2.00 Bohr mag/cell
     absolute magnetization    =     2.92 Bohr mag/cell

     iteration #  7     ecut=   100.00 Ry     beta= 0.30
     Davidson diagonalization with overlap
     ethr =  3.03E-09,  avg # of iterations =  3.5

     negative rho (up, down):  1.294E-07 1.293E-07

     total cpu time spent up to now is      710.3 secs

     total energy              =   -1168.10550592 Ry
     estimated scf accuracy    <       0.00000411 Ry

     total magnetization       =     2.00 Bohr mag/cell
     absolute magnetization    =     2.92 Bohr mag/cell

     iteration #  8     ecut=   100.00 Ry     beta= 0.30
     Davidson diagonalization with overlap
     ethr =  1.06E-09,  avg # of iterations =  4.5

     negative rho (up, down):  2.405E-07 2.382E-07

     total cpu time spent up to now is      714.3 secs

     total energy              =   -1168.10550841 Ry
     estimated scf accuracy    <       0.00000101 Ry

     total magnetization       =     2.00 Bohr mag/cell
     absolute magnetization    =     2.92 Bohr mag/cell

     iteration #  9     ecut=   100.00 Ry     beta= 0.30
     Davidson diagonalization with overlap
     ethr =  2.61E-10,  avg # of iterations =  4.0

     negative rho (up, down):  1.843E-07 1.831E-07

     total cpu time spent up to now is      718.1 secs

     total energy              =   -1168.10550924 Ry
     estimated scf accuracy    <       0.00000040 Ry

     total magnetization       =     2.00 Bohr mag/cell
     absolute magnetization    =     2.92 Bohr mag/cell

     iteration # 10     ecut=   100.00 Ry     beta= 0.30
     Davidson diagonalization with overlap
     ethr =  1.02E-10,  avg # of iterations =  5.0

     negative rho (up, down):  9.796E-08 9.812E-08

     total cpu time spent up to now is      722.5 secs

     total energy              =   -1168.10550961 Ry
     estimated scf accuracy    <       0.00000015 Ry

     total magnetization       =     2.00 Bohr mag/cell
     absolute magnetization    =     2.92 Bohr mag/cell

     iteration # 11     ecut=   100.00 Ry     beta= 0.30
     Davidson diagonalization with overlap
     ethr =  3.88E-11,  avg # of iterations =  5.0

     negative rho (up, down):  3.915E-08 3.982E-08

     total cpu time spent up to now is      726.9 secs

     total energy              =   -1168.10550973 Ry
     estimated scf accuracy    <       0.00000004 Ry

     total magnetization       =     2.00 Bohr mag/cell
     absolute magnetization    =     2.92 Bohr mag/cell

     iteration # 12     ecut=   100.00 Ry     beta= 0.30
     Davidson diagonalization with overlap
     ethr =  1.09E-11,  avg # of iterations =  5.0

     negative rho (up, down):  1.252E-08 1.306E-08

     total cpu time spent up to now is      731.4 secs

     total energy              =   -1168.10550977 Ry
     estimated scf accuracy    <       0.00000001 Ry

     total magnetization       =     2.00 Bohr mag/cell
     absolute magnetization    =     2.92 Bohr mag/cell

     iteration # 13     ecut=   100.00 Ry     beta= 0.30
     Davidson diagonalization with overlap
     ethr =  2.59E-12,  avg # of iterations =  5.0

     total cpu time spent up to now is      736.1 secs

     total energy              =   -1168.10550978 Ry
     estimated scf accuracy    <          2.7E-09 Ry

     total magnetization       =     2.00 Bohr mag/cell
     absolute magnetization    =     2.92 Bohr mag/cell

     iteration # 14     ecut=   100.00 Ry     beta= 0.30
     Davidson diagonalization with overlap
     ethr =  6.88E-13,  avg # of iterations =  5.0

     total cpu time spent up to now is      740.9 secs

     total energy              =   -1168.10550978 Ry
     estimated scf accuracy    <          1.1E-09 Ry

     total magnetization       =     2.00 Bohr mag/cell
     absolute magnetization    =     2.92 Bohr mag/cell

     iteration # 15     ecut=   100.00 Ry     beta= 0.30
     Davidson diagonalization with overlap
     ethr =  2.73E-13,  avg # of iterations =  5.5

     total cpu time spent up to now is      746.2 secs

     total energy              =   -1168.10550978 Ry
     estimated scf accuracy    <          3.9E-10 Ry

     total magnetization       =     2.00 Bohr mag/cell
     absolute magnetization    =     2.92 Bohr mag/cell

     iteration # 16     ecut=   100.00 Ry     beta= 0.30
     Davidson diagonalization with overlap
     ethr =  1.00E-13,  avg # of iterations =  4.0

     total cpu time spent up to now is      750.9 secs

     total energy              =   -1168.10550979 Ry
     estimated scf accuracy    <          2.3E-10 Ry

     total magnetization       =     2.00 Bohr mag/cell
     absolute magnetization    =     2.92 Bohr mag/cell

     iteration # 17     ecut=   100.00 Ry     beta= 0.30
     Davidson diagonalization with overlap
     ethr =  1.00E-13,  avg # of iterations =  6.0

     Magnetic moment per site  (integrated on atomic sphere of radius R)
     atom   1 (R=0.032)  charge=  1.5235  magn= -0.0019
     atom   2 (R=0.032)  charge=  1.5247  magn=  0.0030
     atom   3 (R=0.032)  charge=  1.5254  magn= -0.0026
     atom   4 (R=0.032)  charge=  1.5254  magn=  0.0044
     atom   5 (R=0.032)  charge=  1.5274  magn= -0.0022
     atom   6 (R=0.032)  charge=  1.5279  magn=  0.0018
     atom   7 (R=0.032)  charge=  1.5258  magn= -0.0023
     atom   8 (R=0.032)  charge=  1.5271  magn=  0.0041
     atom   9 (R=0.032)  charge=  1.5235  magn= -0.0026
     atom  10 (R=0.032)  charge=  1.5219  magn=  0.0078
     atom  11 (R=0.032)  charge=  1.5227  magn= -0.0027
     atom  12 (R=0.032)  charge=  1.5170  magn=  0.0042
     atom  13 (R=0.032)  charge=  1.5169  magn= -0.0024
     atom  14 (R=0.032)  charge=  1.5240  magn=  0.0015
     atom  15 (R=0.032)  charge=  1.5254  magn= -0.0026
     atom  16 (R=0.032)  charge=  1.5254  magn=  0.0044
     atom  17 (R=0.032)  charge=  1.5276  magn= -0.0028
     atom  18 (R=0.032)  charge=  1.5261  magn=  0.0137
     atom  19 (R=0.032)  charge=  1.5323  magn= -0.0040
     atom  20 (R=0.032)  charge=  1.5324  magn=  0.0154
     atom  21 (R=0.032)  charge=  1.5312  magn= -0.0039
     atom  22 (R=0.032)  charge=  1.5278  magn=  0.0068
     atom  23 (R=0.032)  charge=  1.5286  magn= -0.0034
     atom  24 (R=0.032)  charge=  1.5089  magn=  0.0044
     atom  25 (R=0.032)  charge=  1.5174  magn= -0.0048
     atom  26 (R=0.032)  charge=  1.5253  magn=  0.0131
     atom  27 (R=0.032)  charge=  1.5223  magn= -0.0036
     atom  28 (R=0.032)  charge=  1.5240  magn=  0.0114
     atom  29 (R=0.032)  charge=  1.5274  magn= -0.0022
     atom  30 (R=0.032)  charge=  1.5279  magn=  0.0018
     atom  31 (R=0.032)  charge=  1.5323  magn= -0.0040
     atom  32 (R=0.032)  charge=  1.5324  magn=  0.0154
     atom  33 (R=0.032)  charge=  1.5406  magn= -0.0078
     atom  34 (R=0.032)  charge=  1.5432  magn=  0.0446
     atom  35 (R=0.032)  charge=  1.5419  magn= -0.0062
     atom  36 (R=0.032)  charge=  1.4261  magn=  0.0771
     atom  37 (R=0.032)  charge=  1.4966  magn= -0.0128
     atom  38 (R=0.032)  charge=  1.5220  magn=  0.0516
     atom  39 (R=0.032)  charge=  1.5250  magn= -0.0088
     atom  40 (R=0.032)  charge=  1.5251  magn=  0.0154
     atom  41 (R=0.032)  charge=  1.5245  magn= -0.0041
     atom  42 (R=0.032)  charge=  1.5261  magn=  0.0020
     atom  43 (R=0.032)  charge=  1.5258  magn= -0.0023
     atom  44 (R=0.032)  charge=  1.5271  magn=  0.0041
     atom  45 (R=0.032)  charge=  1.5312  magn= -0.0039
     atom  46 (R=0.032)  charge=  1.5278  magn=  0.0068
     atom  47 (R=0.032)  charge=  1.5419  magn= -0.0062
     atom  48 (R=0.032)  charge=  1.4261  magn=  0.0769
     atom  49 (R=0.032)  charge=  1.4917  magn=  0.3381
     atom  50 (R=0.032)  charge=  1.5476  magn= -0.0105
     atom  51 (R=0.032)  charge=  1.5354  magn=  0.0239
     atom  52 (R=0.032)  charge=  1.5340  magn= -0.0021
     atom  53 (R=0.032)  charge=  1.5308  magn=  0.0053
     atom  54 (R=0.032)  charge=  1.5264  magn= -0.0022
     atom  55 (R=0.032)  charge=  1.5253  magn=  0.0053
     atom  56 (R=0.032)  charge=  1.5235  magn= -0.0026
     atom  57 (R=0.032)  charge=  1.5219  magn=  0.0078
     atom  58 (R=0.032)  charge=  1.5286  magn= -0.0034
     atom  59 (R=0.032)  charge=  1.5089  magn=  0.0044
     atom  60 (R=0.032)  charge=  1.4966  magn= -0.0128
     atom  61 (R=0.032)  charge=  1.5220  magn=  0.0516
     atom  62 (R=0.032)  charge=  1.5476  magn= -0.0105
     atom  63 (R=0.032)  charge=  1.5354  magn=  0.0239
     atom  64 (R=0.032)  charge=  1.5349  magn= -0.0087
     atom  65 (R=0.032)  charge=  1.5315  magn=  0.0088
     atom  66 (R=0.032)  charge=  1.5269  magn= -0.0036
     atom  67 (R=0.032)  charge=  1.5275  magn=  0.0021
     atom  68 (R=0.032)  charge=  1.5259  magn= -0.0021
     atom  69 (R=0.032)  charge=  1.5245  magn=  0.0019
     atom  70 (R=0.032)  charge=  1.5227  magn= -0.0027
     atom  71 (R=0.032)  charge=  1.5170  magn=  0.0042
     atom  72 (R=0.032)  charge=  1.5174  magn= -0.0048
     atom  73 (R=0.032)  charge=  1.5253  magn=  0.0131
     atom  74 (R=0.032)  charge=  1.5250  magn= -0.0088
     atom  75 (R=0.032)  charge=  1.5251  magn=  0.0155
     atom  76 (R=0.032)  charge=  1.5340  magn= -0.0021
     atom  77 (R=0.032)  charge=  1.5308  magn=  0.0053
     atom  78 (R=0.032)  charge=  1.5269  magn= -0.0036
     atom  79 (R=0.032)  charge=  1.5275  magn=  0.0021
     atom  80 (R=0.032)  charge=  1.5263  magn= -0.0021
     atom  81 (R=0.032)  charge=  1.5259  magn=  0.0040
     atom  82 (R=0.032)  charge=  1.5252  magn= -0.0018
     atom  83 (R=0.032)  charge=  1.5224  magn=  0.0018
     atom  84 (R=0.032)  charge=  1.5169  magn= -0.0024
     atom  85 (R=0.032)  charge=  1.5240  magn=  0.0015
     atom  86 (R=0.032)  charge=  1.5223  magn= -0.0036
     atom  87 (R=0.032)  charge=  1.5240  magn=  0.0114
     atom  88 (R=0.032)  charge=  1.5245  magn= -0.0041
     atom  89 (R=0.032)  charge=  1.5261  magn=  0.0020
     atom  90 (R=0.032)  charge=  1.5264  magn= -0.0022
     atom  91 (R=0.032)  charge=  1.5253  magn=  0.0053
     atom  92 (R=0.032)  charge=  1.5259  magn= -0.0021
     atom  93 (R=0.032)  charge=  1.5245  magn=  0.0019
     atom  94 (R=0.032)  charge=  1.5252  magn= -0.0018
     atom  95 (R=0.032)  charge=  1.5224  magn=  0.0018
     atom  96 (R=0.032)  charge=  1.5239  magn= -0.0020
     atom  97 (R=0.032)  charge=  1.5167  magn=  0.0047

     total cpu time spent up to now is      756.0 secs

     End of self-consistent calculation

 ------ SPIN UP ------------


          k = 0.0000 0.0000 0.0000 (233409 PWs)   bands (ev):

   -23.7988 -23.4066 -23.3427 -23.3265 -23.3246 -23.3194 -23.1675 -22.4166
   -22.4050 -22.3984 -22.3925 -22.3472 -22.2090 -21.9419 -21.9416 -21.9184
   -21.9135 -21.8725 -21.5648 -20.5800 -20.5773 -20.5430 -20.5418 -20.5307
   -20.5264 -20.5085 -20.5063 -20.4979 -20.4852 -20.4180 -20.0463 -19.6631
   -19.6460 -19.6140 -19.5917 -19.5750 -19.1872 -18.3746 -18.3702 -18.3502
   -18.3275 -18.3141 -18.2965 -18.2866 -18.2827 -18.2643 -18.2463 -18.1948
   -17.6466 -17.2585 -17.2584 -17.2580 -17.1524 -17.0908 -16.7908 -16.3442
   -16.3375 -16.3237 -16.2312 -16.2022 -16.1030 -15.8512 -15.8177 -15.8072
   -15.7335 -15.7156 -15.0449 -14.4392 -14.4389 -14.4193 -14.4160 -14.3907
   -14.3895 -14.3843 -14.3747 -14.3742 -14.3250 -14.2994 -14.2017 -14.1893
   -14.1616 -14.1477 -13.8484 -13.7800 -13.1198 -12.7189 -12.7135 -12.6832
   -12.5845 -12.5602 -12.2957 -12.1663 -12.1331 -12.1264 -12.0097 -11.9886
   -11.8857 -11.8268 -11.6892 -11.6628 -11.6406 -11.6266 -11.6179 -11.6107
   -11.5888 -11.5848 -11.5672 -11.4290 -11.3901 -11.3705 -11.3650 -11.3370
   -11.3261 -11.3255 -11.3166 -11.2297 -11.2113 -11.1922 -11.1554 -10.9705
   -10.9272 -10.6583 -10.6302 -10.5985 -10.5800 -10.3684 -10.3675 -10.2372
   -10.2248 -10.2208 -10.2148 -10.1866 -10.0810 -10.0347 -10.0070  -9.9866
    -9.9782  -9.8419  -9.8382  -9.7381  -9.7364  -9.7083  -9.6920  -9.6871
    -9.6833  -9.6692  -9.6619  -9.6517  -9.5183  -9.3577  -9.3520  -9.3447
    -9.1080  -9.1050  -9.0994  -8.5532  -8.5306  -8.2633  -8.2510  -8.2476
    -8.2094  -8.1503  -8.1477  -8.1296  -8.1118  -8.1102  -8.1071  -8.1005
    -8.0946  -8.0880  -8.0837  -8.0733  -7.8979  -7.7000  -7.4819  -7.4806
    -7.3329  -7.3150  -7.3019  -7.2946  -7.2701  -6.8874  -6.2327  -6.2244
    -6.2103  -6.1892  -6.1841  -6.0043  -5.8169  -5.8134  -5.7980  -5.7904
    -5.7506  -4.7999  -4.7664  -3.6306  -2.8279  -2.8049  -2.7902  -2.7875
    -2.7698  -2.7625  -2.7591  -2.7426  -2.7345  -2.6911  -2.6478  -2.1732
    -1.7833  -1.7639  -1.7522  -1.6997  -1.6593  -1.1673  -0.9770  -0.3432
    -0.3430  -0.3163  -0.3039  -0.3016  -0.2936  -0.2924  -0.2737  -0.2697

 ------ SPIN DOWN ----------


          k = 0.0000 0.0000 0.0000 (233409 PWs)   bands (ev):

   -23.7841 -23.3761 -23.3370 -23.3211 -23.3123 -23.3073 -23.1175 -22.3958
   -22.3858 -22.3791 -22.3728 -22.3321 -22.1874 -21.9272 -21.9225 -21.9004
   -21.8844 -21.8529 -21.5008 -20.5533 -20.5459 -20.5281 -20.5246 -20.5227
   -20.5106 -20.5005 -20.4984 -20.4917 -20.4242 -20.3896 -20.0092 -19.6343
   -19.6282 -19.6058 -19.5555 -19.5472 -19.1325 -18.3493 -18.3469 -18.3349
   -18.3184 -18.3060 -18.2841 -18.2741 -18.2722 -18.2466 -18.2265 -18.1108
   -17.5430 -17.2489 -17.2469 -17.2439 -17.1193 -17.0746 -16.7381 -16.3216
   -16.3202 -16.3115 -16.2017 -16.1836 -16.0845 -15.8377 -15.8019 -15.7973
   -15.7017 -15.6326 -14.9798 -14.4153 -14.4094 -14.4061 -14.3982 -14.3839
   -14.3755 -14.3732 -14.3607 -14.3553 -14.3069 -14.2568 -14.1930 -14.1817
   -14.1537 -14.1362 -13.7732 -13.7498 -13.0507 -12.6988 -12.6872 -12.6668
   -12.5685 -12.5256 -12.2673 -12.1436 -12.1199 -12.1089 -12.0016 -11.9726
   -11.8618 -11.7940 -11.6608 -11.6509 -11.6297 -11.6157 -11.6079 -11.6024
   -11.5779 -11.5706 -11.5432 -11.4000 -11.3470 -11.3456 -11.3413 -11.3260
   -11.3137 -11.3065 -11.2938 -11.2118 -11.1940 -11.1810 -11.0822 -10.9605
   -10.8892 -10.6348 -10.6236 -10.5933 -10.5674 -10.3420 -10.3325 -10.2088
   -10.1937 -10.1913 -10.1859 -10.1558 -10.0497  -9.9983  -9.9909  -9.9644
    -9.9623  -9.8369  -9.8282  -9.7278  -9.7104  -9.6955  -9.6656  -9.6602
    -9.6547  -9.6417  -9.6339  -9.6135  -9.4183  -9.3200  -9.3125  -9.2655
    -9.1009  -9.0902  -9.0843  -8.5366  -8.4927  -8.2534  -8.2347  -8.2319
    -8.2041  -8.1107  -8.1076  -8.0922  -8.0916  -8.0879  -8.0776  -8.0773
    -8.0695  -8.0668  -8.0219  -8.0198  -7.6502  -7.5342  -7.4682  -7.3813
    -7.2932  -7.2843  -7.2744  -7.2642  -7.2177  -6.8119  -6.2013  -6.1953
    -6.1919  -6.1598  -6.1236  -5.9653  -5.7786  -5.7780  -5.7732  -5.7214
    -5.6826  -4.4267  -3.3090  -2.8213  -2.7821  -2.7786  -2.7748  -2.7659
    -2.7529  -2.7425  -2.7405  -2.7174  -2.7101  -2.5607  -2.5307  -2.1295
    -1.7684  -1.7512  -1.7081  -1.6078  -1.6056  -1.0948  -0.9696  -0.3289
    -0.3234  -0.2946  -0.2819  -0.2703  -0.2611  -0.2549  -0.2392  -0.2388

     the Fermi energy is    -4.6555 ev

!    total energy              =   -1168.10550979 Ry
     estimated scf accuracy    <          5.8E-11 Ry
     smearing contrib. (-TS)   =       0.00163730 Ry
     internal energy E=F+TS    =   -1168.10714708 Ry

     The total energy is F=E-TS. E is the sum of the following terms:
     one-electron contribution =  -13178.09452427 Ry
     hartree contribution      =    6625.22390794 Ry
     xc contribution           =    -415.53171138 Ry
     ewald contribution        =    5800.29518062 Ry

     total magnetization       =     2.00 Bohr mag/cell
     absolute magnetization    =     2.92 Bohr mag/cell

     convergence has been achieved in  17 iterations

     Forces acting on atoms (cartesian axes, Ry/au):

     atom    1 type  1   force =    -0.00149744   -0.00000048    0.00000000
     atom    2 type  1   force =    -0.00076738    0.00000001    0.00000001
     atom    3 type  1   force =    -0.00147222    0.00068030   -0.00000001
     atom    4 type  1   force =    -0.00138290    0.00032789   -0.00000000
     atom    5 type  1   force =    -0.00085101    0.00076861    0.00000002
     atom    6 type  1   force =    -0.00104029    0.00051428   -0.00000001
     atom    7 type  1   force =    -0.00405198    0.00198619    0.00000001
     atom    8 type  1   force =    -0.00475662    0.00391874    0.00000001
     atom    9 type  1   force =    -0.00017789   -0.00047317   -0.00000000
     atom   10 type  1   force =    -0.00490345    0.00467101    0.00000003
     atom   11 type  1   force =     0.00130067   -0.00190333    0.00000001
     atom   12 type  1   force =    -0.00219900    0.00753711    0.00000000
     atom   13 type  1   force =     0.00027348    0.00377225    0.00000001
     atom   14 type  1   force =    -0.00135487   -0.00275893    0.00000001
     atom   15 type  1   force =    -0.00147230   -0.00068112    0.00000000
     atom   16 type  1   force =    -0.00138299   -0.00032805   -0.00000001
     atom   17 type  1   force =    -0.00158638   -0.00000019   -0.00000000
     atom   18 type  1   force =    -0.00130633   -0.00000013    0.00000000
     atom   19 type  1   force =    -0.00353442   -0.00056043    0.00000000
     atom   20 type  1   force =    -0.00166612   -0.00313110   -0.00000000
     atom   21 type  1   force =    -0.00482068    0.00317433    0.00000000
     atom   22 type  1   force =    -0.00321150   -0.00343024   -0.00000001
     atom   23 type  1   force =    -0.00475100    0.00911684   -0.00000000
     atom   24 type  1   force =    -0.00118380   -0.00077489    0.00000000
     atom   25 type  1   force =    -0.00026329    0.00354065    0.00000000
     atom   26 type  1   force =     0.00229206    0.00090570   -0.00000000
     atom   27 type  1   force =    -0.00006919   -0.00259326   -0.00000001
     atom   28 type  1   force =    -0.00227477   -0.00188866    0.00000000
     atom   29 type  1   force =    -0.00085122   -0.00076908    0.00000001
     atom   30 type  1   force =    -0.00103990   -0.00051462    0.00000000
     atom   31 type  1   force =    -0.00353363    0.00056025    0.00000001
     atom   32 type  1   force =    -0.00166501    0.00313135    0.00000001
     atom   33 type  1   force =    -0.00103288    0.00000023   -0.00000002
     atom   34 type  1   force =     0.00384559   -0.00000082   -0.00000001
     atom   35 type  1   force =    -0.00600744   -0.00465514   -0.00000000
     atom   36 type  2   force =     0.01469592   -0.01280316    0.00000000
     atom   37 type  1   force =    -0.00195218   -0.01264750    0.00000001
     atom   38 type  1   force =    -0.00103101   -0.00956478    0.00000001
     atom   39 type  1   force =     0.00068488   -0.00382703   -0.00000002
     atom   40 type  1   force =     0.00191667    0.00300891    0.00000002
     atom   41 type  1   force =    -0.00083100   -0.00057880    0.00000002
     atom   42 type  1   force =    -0.00218745   -0.00109842   -0.00000001
     atom   43 type  1   force =    -0.00405086   -0.00198544    0.00000000
     atom   44 type  1   force =    -0.00475458   -0.00391778   -0.00000001
     atom   45 type  1   force =    -0.00481816   -0.00317297    0.00000000
     atom   46 type  1   force =    -0.00321003    0.00343188    0.00000000
     atom   47 type  1   force =    -0.00601118    0.00464874   -0.00000005
     atom   48 type  2   force =     0.01467616    0.01280280   -0.00000004
     atom   49 type  2   force =    -0.01015445    0.00001094   -0.00000001
     atom   50 type  1   force =    -0.00520057    0.00278177   -0.00000002
     atom   51 type  1   force =     0.00480004   -0.00189918    0.00000001
     atom   52 type  1   force =     0.00470238    0.00107297   -0.00000002
     atom   53 type  1   force =     0.00844292    0.00304341    0.00000002
     atom   54 type  1   force =     0.00449445    0.00295302   -0.00000001
     atom   55 type  1   force =     0.00060949   -0.00002367   -0.00000000
     atom   56 type  1   force =    -0.00017703    0.00047499    0.00000002
     atom   57 type  1   force =    -0.00490143   -0.00466851   -0.00000001
     atom   58 type  1   force =    -0.00475064   -0.00911378    0.00000000
     atom   59 type  1   force =    -0.00118010    0.00077691    0.00000004
     atom   60 type  1   force =    -0.00195250    0.01264637   -0.00000004
     atom   61 type  1   force =    -0.00103019    0.00956339    0.00000002
     atom   62 type  1   force =    -0.00520496   -0.00278147   -0.00000001
     atom   63 type  1   force =     0.00479940    0.00189686   -0.00000001
     atom   64 type  1   force =     0.01084595    0.00000077    0.00000002
     atom   65 type  1   force =     0.01039707   -0.00000039    0.00000001
     atom   66 type  1   force =     0.00256512    0.00042935   -0.00000001
     atom   67 type  1   force =    -0.00005683   -0.00002865   -0.00000000
     atom   68 type  1   force =     0.00139246    0.00142624    0.00000002
     atom   69 type  1   force =     0.00352990    0.00313576   -0.00000000
     atom   70 type  1   force =     0.00130094    0.00190454    0.00000001
     atom   71 type  1   force =    -0.00219877   -0.00753607   -0.00000001
     atom   72 type  1   force =    -0.00026304   -0.00354131   -0.00000003
     atom   73 type  1   force =     0.00229277   -0.00090622   -0.00000000
     atom   74 type  1   force =     0.00068775    0.00382221   -0.00000001
     atom   75 type  1   force =     0.00191769   -0.00301079    0.00000000
     atom   76 type  1   force =     0.00470517   -0.00107487   -0.00000001
     atom   77 type  1   force =     0.00844380   -0.00304445    0.00000001
     atom   78 type  1   force =     0.00256597   -0.00042902    0.00000001
     atom   79 type  1   force =    -0.00005685    0.00002890    0.00000001
     atom   80 type  1   force =     0.00101044    0.00000018   -0.00000002
     atom   81 type  1   force =     0.00139816    0.00000026    0.00000002
     atom   82 type  1   force =     0.00106275    0.00055233    0.00000000
     atom   83 type  1   force =     0.00203110    0.00426586    0.00000000
     atom   84 type  1   force =     0.00027345   -0.00377205    0.00000000
     atom   85 type  1   force =    -0.00135482    0.00275802    0.00000000
     atom   86 type  1   force =    -0.00006850    0.00259118    0.00000001
     atom   87 type  1   force =    -0.00227459    0.00188787    0.00000001
     atom   88 type  1   force =    -0.00082944    0.00057674   -0.00000001
     atom   89 type  1   force =    -0.00218667    0.00109739    0.00000001
     atom   90 type  1   force =     0.00449542   -0.00295329   -0.00000001
     atom   91 type  1   force =     0.00060923    0.00002373    0.00000000
     atom   92 type  1   force =     0.00139235   -0.00142570    0.00000000
     atom   93 type  1   force =     0.00352924   -0.00313492    0.00000001
     atom   94 type  1   force =     0.00106273   -0.00055189   -0.00000001
     atom   95 type  1   force =     0.00203091   -0.00426484   -0.00000001
     atom   96 type  1   force =     0.00150828    0.00000039   -0.00000001
     atom   97 type  1   force =     0.00021295    0.00000019    0.00000000

     Total force =     0.056274     Total SCF correction =     0.000008
     Energy error            =      2.5E-03 Ry
     Gradient error          =      1.5E-02 Ry/Bohr

     number of scf cycles    =   8
     number of bfgs steps    =   7

     energy             old  =   -1168.1030293204 Ry
     energy             new  =   -1168.1055097858 Ry

     CASE: energy            _new < energy            _old

     new trust radius        =       0.0683623060 bohr
     new conv_thr            =            1.0E-10 Ry


ATOMIC_POSITIONS (crystal)
C                0.0475053639        0.0475052798       -0.0000000010
C                0.0951519983        0.0951519681       -0.0000000007
C                0.0474809369        0.1904900004        0.0000000009
C                0.0950837787        0.2381232462        0.0000000052
C                0.0473550703        0.3334160163        0.0000000011
C                0.0948169805        0.3810779203       -0.0000000020
C                0.0478359055        0.4762647293       -0.0000000040
C                0.0956069851        0.5237514520       -0.0000000047
C                0.0483915751        0.6189222248        0.0000000005
C                0.0967814471        0.6658764546       -0.0000000012
C                0.0486501828        0.7610467531       -0.0000000013
C                0.0973200202        0.8076127192       -0.0000000014
C                0.0484841278        0.9036921929       -0.0000000006
C                0.0954732945        0.9519195789       -0.0000000004
C                0.1904900352        0.0474808930        0.0000000011
C                0.2381232590        0.0950837544        0.0000000049
C                0.1904109712        0.1904109542        0.0000000062
C                0.2378980756        0.2378980445        0.0000000013
C                0.1898648226        0.3332377621       -0.0000000018
C                0.2369831151        0.3806900522       -0.0000000020
C                0.1906179975        0.4756451862       -0.0000000015
C                0.2384299227        0.5228434222        0.0000000061
C                0.1926369650        0.6173388117        0.0000000049
C                0.2423932481        0.6624954632       -0.0000000005
C                0.1933079503        0.7589036738       -0.0000000033
C                0.2388949708        0.8082937467       -0.0000000024
C                0.1907924827        0.9040197489        0.0000000003
C                0.2381656820        0.9520219871        0.0000000014
C                0.3334160404        0.0473550151        0.0000000032
C                0.3810779473        0.0948170037        0.0000000013
C                0.3332378302        0.1898648268       -0.0000000005
C                0.3806901276        0.2369832253       -0.0000000009
C                0.3320185397        0.3320184900       -0.0000000008
C                0.3785995788        0.3785999707        0.0000000015
C                0.3339689579        0.4734510316        0.0000000061
C1               0.3843519016        0.5154247533        0.0000000082
C                0.3401460514        0.6118388793        0.0000000031
C                0.3825723958        0.6652766616        0.0000000009
C                0.3341153608        0.7604156660       -0.0000000011
C                0.3811841199        0.8090229958       -0.0000000016
C                0.3334621364        0.9043334593       -0.0000000009
C                0.3810431026        0.9520882470        0.0000000027
C                0.4762647480        0.0478362130       -0.0000000011
C                0.5237513815        0.0956077368       -0.0000000004
C                0.4756452029        0.1906192378       -0.0000000007
C                0.5228429807        0.2384322735       -0.0000000017
C                0.4734507185        0.3339721569       -0.0000000016
C1               0.5154242301        0.3843563844       -0.0000000035
C1               0.5292133789        0.5292094933       -0.0000000024
C                0.4778799649        0.6205286572        0.0000000027
C                0.5248036828        0.6683241796        0.0000000009
C                0.4762850615        0.7627838262        0.0000000025
C                0.5239110391        0.8098362340        0.0000000014
C                0.4762616523        0.9048876843        0.0000000027
C                0.5238390320        0.9525385828       -0.0000000001
C                0.6189221402        0.0483918896       -0.0000000046
C                0.6658761655        0.0967820045       -0.0000000049
C                0.6173383821        0.1926380174       -0.0000000037
C                0.6624951930        0.2423941713       -0.0000000030
C                0.6118391984        0.3401472986       -0.0000000007
C                0.6652787539        0.3825715707       -0.0000000017
C                0.6205317586        0.4778788276       -0.0000000031
C                0.6683257725        0.5248034645       -0.0000000043
C                0.6196868148        0.6196865815       -0.0000000019
C                0.6669548513        0.6669548805       -0.0000000009
C                0.6191583524        0.7620612343        0.0000000024
C                0.6666945348        0.8096383627        0.0000000030
C                0.6190743408        0.9049675259       -0.0000000016
C                0.6666043635        0.9527771511       -0.0000000027
C                0.7610465641        0.0486504214       -0.0000000078
C                0.8076125771        0.0973202028       -0.0000000024
C                0.7589035774        0.1933082120        0.0000000007
C                0.8082942705        0.2388945591        0.0000000032
C                0.7604170179        0.3341146546        0.0000000034
C                0.8090237083        0.3811839274        0.0000000019
C                0.7627849463        0.4762848717        0.0000000031
C                0.8098367568        0.5239110622        0.0000000038
C                0.7620612778        0.6191583842        0.0000000008
C                0.8096383460        0.6666945668        0.0000000009
C                0.7619779580        0.7619779848        0.0000000034
C                0.8095787218        0.8095787449       -0.0000000014
C                0.7618648651        0.9049712292       -0.0000000010
C                0.8092958316        0.9528545449       -0.0000000024
C                0.9036921053        0.0484842150       -0.0000000001
C                0.9519196876        0.0954731782       -0.0000000004
C                0.9040200128        0.1907922593       -0.0000000009
C                0.9520221247        0.2381655972       -0.0000000020
C                0.9043337939        0.3334620221        0.0000000019
C                0.9520884096        0.3810430784        0.0000000008
C                0.9048879055        0.4762616390        0.0000000028
C                0.9525385356        0.5238390466       -0.0000000012
C                0.9049674772        0.6190743596       -0.0000000020
C                0.9527770296        0.6666044132       -0.0000000018
C                0.9049711618        0.7618649128       -0.0000000023
C                0.9528544421        0.8092959182        0.0000000003
C                0.9047911917        0.9047912727        0.0000000018
C                0.9524242781        0.9524243441       -0.0000000003



     Writing config-only to output data dir /home/gregb26/links/scratch/qe_tmp/vacancy_relaxed/series/7x7/nspin2/vac_7x7_relax_nspin2.save/ :
     XML data file
     NEW-OLD atomic charge density approx. for the potential

     negative rho (up, down):  5.614E-06 5.752E-06
     Generating pointlists ...

     total cpu time spent up to now is      758.3 secs

     per-process dynamical memory:   262.1 Mb

     Self-consistent Calculation

     iteration #  1     ecut=   100.00 Ry     beta= 0.30
     Davidson diagonalization with overlap
     ethr =  1.00E-06,  avg # of iterations =  7.0
     Minimization algorithm failed to find Fermi energy: reverting to bisection
     Possible cause: smearing is larger than the electronic band-gap.

     negative rho (up, down):  4.621E-06 3.839E-06

     total cpu time spent up to now is      767.5 secs

     total energy              =   -1168.10763156 Ry
     estimated scf accuracy    <       0.00391117 Ry

     total magnetization       =     2.00 Bohr mag/cell
     absolute magnetization    =     2.91 Bohr mag/cell

     iteration #  2     ecut=   100.00 Ry     beta= 0.30
     Davidson diagonalization with overlap
     ethr =  1.01E-06,  avg # of iterations =  2.0
     Minimization algorithm failed to find Fermi energy: reverting to bisection
     Possible cause: smearing is larger than the electronic band-gap.

     negative rho (up, down):  3.555E-06 2.962E-06

     total cpu time spent up to now is      770.9 secs

     total energy              =   -1168.10773491 Ry
     estimated scf accuracy    <       0.00211089 Ry

     total magnetization       =     2.00 Bohr mag/cell
     absolute magnetization    =     2.90 Bohr mag/cell

     iteration #  3     ecut=   100.00 Ry     beta= 0.30
     Davidson diagonalization with overlap
     ethr =  5.44E-07,  avg # of iterations =  2.5
     Minimization algorithm failed to find Fermi energy: reverting to bisection
     Possible cause: smearing is larger than the electronic band-gap.

     negative rho (up, down):  2.013E-06 1.688E-06

     total cpu time spent up to now is      774.2 secs

     total energy              =   -1168.10799257 Ry
     estimated scf accuracy    <       0.00162214 Ry

     total magnetization       =     2.00 Bohr mag/cell
     absolute magnetization    =     2.91 Bohr mag/cell

     iteration #  4     ecut=   100.00 Ry     beta= 0.30
     Davidson diagonalization with overlap
     ethr =  4.18E-07,  avg # of iterations =  2.0
     Minimization algorithm failed to find Fermi energy: reverting to bisection
     Possible cause: smearing is larger than the electronic band-gap.

     negative rho (up, down):  5.870E-07 4.989E-07

     total cpu time spent up to now is      777.6 secs

     total energy              =   -1168.10813237 Ry
     estimated scf accuracy    <       0.00023857 Ry

     total magnetization       =     2.00 Bohr mag/cell
     absolute magnetization    =     2.90 Bohr mag/cell

     iteration #  5     ecut=   100.00 Ry     beta= 0.30
     Davidson diagonalization with overlap
     ethr =  6.15E-08,  avg # of iterations =  3.0
     Minimization algorithm failed to find Fermi energy: reverting to bisection
     Possible cause: smearing is larger than the electronic band-gap.

     negative rho (up, down):  1.890E-07 1.628E-07

     total cpu time spent up to now is      781.1 secs

     total energy              =   -1168.10818460 Ry
     estimated scf accuracy    <       0.00005983 Ry

     total magnetization       =     2.00 Bohr mag/cell
     absolute magnetization    =     2.89 Bohr mag/cell

     iteration #  6     ecut=   100.00 Ry     beta= 0.30
     Davidson diagonalization with overlap
     ethr =  1.54E-08,  avg # of iterations =  4.5
     Minimization algorithm failed to find Fermi energy: reverting to bisection
     Possible cause: smearing is larger than the electronic band-gap.

     negative rho (up, down):  3.389E-08 3.001E-08

     total cpu time spent up to now is      784.7 secs

     total energy              =   -1168.10820338 Ry
     estimated scf accuracy    <       0.00001985 Ry

     total magnetization       =     2.00 Bohr mag/cell
     absolute magnetization    =     2.89 Bohr mag/cell

     iteration #  7     ecut=   100.00 Ry     beta= 0.30
     Davidson diagonalization with overlap
     ethr =  5.12E-09,  avg # of iterations =  3.0
     Minimization algorithm failed to find Fermi energy: reverting to bisection
     Possible cause: smearing is larger than the electronic band-gap.

     negative rho (up, down):  1.410E-08 1.014E-08

     total cpu time spent up to now is      788.4 secs

     total energy              =   -1168.10821284 Ry
     estimated scf accuracy    <       0.00000901 Ry

     total magnetization       =     2.00 Bohr mag/cell
     absolute magnetization    =     2.88 Bohr mag/cell

     iteration #  8     ecut=   100.00 Ry     beta= 0.30
     Davidson diagonalization with overlap
     ethr =  2.32E-09,  avg # of iterations =  5.0
     Minimization algorithm failed to find Fermi energy: reverting to bisection
     Possible cause: smearing is larger than the electronic band-gap.

     negative rho (up, down):  2.204E-08 1.582E-08

     total cpu time spent up to now is      792.4 secs

     total energy              =   -1168.10821753 Ry
     estimated scf accuracy    <       0.00000188 Ry

     total magnetization       =     2.00 Bohr mag/cell
     absolute magnetization    =     2.88 Bohr mag/cell

     iteration #  9     ecut=   100.00 Ry     beta= 0.30
     Davidson diagonalization with overlap
     ethr =  4.86E-10,  avg # of iterations =  4.5
     Minimization algorithm failed to find Fermi energy: reverting to bisection
     Possible cause: smearing is larger than the electronic band-gap.

     negative rho (up, down):  1.349E-08 9.565E-09

     total cpu time spent up to now is      796.9 secs

     total energy              =   -1168.10821909 Ry
     estimated scf accuracy    <       0.00000078 Ry

     total magnetization       =     2.00 Bohr mag/cell
     absolute magnetization    =     2.87 Bohr mag/cell

     iteration # 10     ecut=   100.00 Ry     beta= 0.30
     Davidson diagonalization with overlap
     ethr =  2.02E-10,  avg # of iterations =  5.0
     Minimization algorithm failed to find Fermi energy: reverting to bisection
     Possible cause: smearing is larger than the electronic band-gap.

     total cpu time spent up to now is      801.3 secs

     total energy              =   -1168.10821981 Ry
     estimated scf accuracy    <       0.00000022 Ry

     total magnetization       =     2.00 Bohr mag/cell
     absolute magnetization    =     2.87 Bohr mag/cell

     iteration # 11     ecut=   100.00 Ry     beta= 0.30
     Davidson diagonalization with overlap
     ethr =  5.71E-11,  avg # of iterations =  5.5
     Minimization algorithm failed to find Fermi energy: reverting to bisection
     Possible cause: smearing is larger than the electronic band-gap.

     total cpu time spent up to now is      806.1 secs

     total energy              =   -1168.10822008 Ry
     estimated scf accuracy    <       0.00000003 Ry

     total magnetization       =     2.00 Bohr mag/cell
     absolute magnetization    =     2.86 Bohr mag/cell

     iteration # 12     ecut=   100.00 Ry     beta= 0.30
     Davidson diagonalization with overlap
     ethr =  7.57E-12,  avg # of iterations =  6.0
     Minimization algorithm failed to find Fermi energy: reverting to bisection
     Possible cause: smearing is larger than the electronic band-gap.

     total cpu time spent up to now is      811.6 secs

     total energy              =   -1168.10822014 Ry
     estimated scf accuracy    <       0.00000001 Ry

     total magnetization       =     2.00 Bohr mag/cell
     absolute magnetization    =     2.86 Bohr mag/cell

     iteration # 13     ecut=   100.00 Ry     beta= 0.30
     Davidson diagonalization with overlap
     ethr =  3.00E-12,  avg # of iterations =  3.5
     Minimization algorithm failed to find Fermi energy: reverting to bisection
     Possible cause: smearing is larger than the electronic band-gap.

     total cpu time spent up to now is      816.0 secs

     total energy              =   -1168.10822016 Ry
     estimated scf accuracy    <          7.2E-09 Ry

     total magnetization       =     2.00 Bohr mag/cell
     absolute magnetization    =     2.86 Bohr mag/cell

     iteration # 14     ecut=   100.00 Ry     beta= 0.30
     Davidson diagonalization with overlap
     ethr =  1.85E-12,  avg # of iterations =  5.0
     Minimization algorithm failed to find Fermi energy: reverting to bisection
     Possible cause: smearing is larger than the electronic band-gap.

     total cpu time spent up to now is      821.2 secs

     total energy              =   -1168.10822017 Ry
     estimated scf accuracy    <          3.1E-09 Ry

     total magnetization       =     2.00 Bohr mag/cell
     absolute magnetization    =     2.86 Bohr mag/cell

     iteration # 15     ecut=   100.00 Ry     beta= 0.30
     Davidson diagonalization with overlap
     ethr =  7.89E-13,  avg # of iterations =  5.0
     Minimization algorithm failed to find Fermi energy: reverting to bisection
     Possible cause: smearing is larger than the electronic band-gap.

     total cpu time spent up to now is      826.4 secs

     total energy              =   -1168.10822018 Ry
     estimated scf accuracy    <          8.2E-10 Ry

     total magnetization       =     2.00 Bohr mag/cell
     absolute magnetization    =     2.86 Bohr mag/cell

     iteration # 16     ecut=   100.00 Ry     beta= 0.30
     Davidson diagonalization with overlap
     ethr =  2.12E-13,  avg # of iterations =  5.0
     Minimization algorithm failed to find Fermi energy: reverting to bisection
     Possible cause: smearing is larger than the electronic band-gap.

     total cpu time spent up to now is      832.3 secs

     total energy              =   -1168.10822018 Ry
     estimated scf accuracy    <          3.5E-10 Ry

     total magnetization       =     2.00 Bohr mag/cell
     absolute magnetization    =     2.86 Bohr mag/cell

     iteration # 17     ecut=   100.00 Ry     beta= 0.30
     Davidson diagonalization with overlap
     ethr =  1.00E-13,  avg # of iterations =  5.0
     Minimization algorithm failed to find Fermi energy: reverting to bisection
     Possible cause: smearing is larger than the electronic band-gap.

     total cpu time spent up to now is      837.6 secs

     total energy              =   -1168.10822018 Ry
     estimated scf accuracy    <          1.5E-10 Ry

     total magnetization       =     2.00 Bohr mag/cell
     absolute magnetization    =     2.86 Bohr mag/cell

     iteration # 18     ecut=   100.00 Ry     beta= 0.30
     Davidson diagonalization with overlap
     ethr =  1.00E-13,  avg # of iterations =  3.5
     Minimization algorithm failed to find Fermi energy: reverting to bisection
     Possible cause: smearing is larger than the electronic band-gap.

     Magnetic moment per site  (integrated on atomic sphere of radius R)
     atom   1 (R=0.032)  charge=  1.5212  magn= -0.0018
     atom   2 (R=0.032)  charge=  1.5240  magn=  0.0026
     atom   3 (R=0.032)  charge=  1.5245  magn= -0.0023
     atom   4 (R=0.032)  charge=  1.5251  magn=  0.0041
     atom   5 (R=0.032)  charge=  1.5275  magn= -0.0020
     atom   6 (R=0.032)  charge=  1.5288  magn=  0.0016
     atom   7 (R=0.032)  charge=  1.5269  magn= -0.0020
     atom   8 (R=0.032)  charge=  1.5286  magn=  0.0037
     atom   9 (R=0.032)  charge=  1.5237  magn= -0.0024
     atom  10 (R=0.032)  charge=  1.5225  magn=  0.0070
     atom  11 (R=0.032)  charge=  1.5226  magn= -0.0024
     atom  12 (R=0.032)  charge=  1.5150  magn=  0.0039
     atom  13 (R=0.032)  charge=  1.5151  magn= -0.0022
     atom  14 (R=0.032)  charge=  1.5229  magn=  0.0014
     atom  15 (R=0.032)  charge=  1.5245  magn= -0.0023
     atom  16 (R=0.032)  charge=  1.5251  magn=  0.0041
     atom  17 (R=0.032)  charge=  1.5278  magn= -0.0026
     atom  18 (R=0.032)  charge=  1.5267  magn=  0.0125
     atom  19 (R=0.032)  charge=  1.5337  magn= -0.0036
     atom  20 (R=0.032)  charge=  1.5346  magn=  0.0140
     atom  21 (R=0.032)  charge=  1.5321  magn= -0.0034
     atom  22 (R=0.032)  charge=  1.5287  magn=  0.0063
     atom  23 (R=0.032)  charge=  1.5286  magn= -0.0030
     atom  24 (R=0.032)  charge=  1.5031  magn=  0.0040
     atom  25 (R=0.032)  charge=  1.5150  magn= -0.0045
     atom  26 (R=0.032)  charge=  1.5242  magn=  0.0118
     atom  27 (R=0.032)  charge=  1.5215  magn= -0.0032
     atom  28 (R=0.032)  charge=  1.5232  magn=  0.0103
     atom  29 (R=0.032)  charge=  1.5275  magn= -0.0020
     atom  30 (R=0.032)  charge=  1.5288  magn=  0.0016
     atom  31 (R=0.032)  charge=  1.5337  magn= -0.0036
     atom  32 (R=0.032)  charge=  1.5346  magn=  0.0140
     atom  33 (R=0.032)  charge=  1.5433  magn= -0.0070
     atom  34 (R=0.032)  charge=  1.5467  magn=  0.0399
     atom  35 (R=0.032)  charge=  1.5435  magn= -0.0045
     atom  36 (R=0.032)  charge=  1.4203  magn=  0.0717
     atom  37 (R=0.032)  charge=  1.4879  magn= -0.0118
     atom  38 (R=0.032)  charge=  1.5185  magn=  0.0496
     atom  39 (R=0.032)  charge=  1.5236  magn= -0.0084
     atom  40 (R=0.032)  charge=  1.5242  magn=  0.0144
     atom  41 (R=0.032)  charge=  1.5248  magn= -0.0038
     atom  42 (R=0.032)  charge=  1.5259  magn=  0.0019
     atom  43 (R=0.032)  charge=  1.5269  magn= -0.0020
     atom  44 (R=0.032)  charge=  1.5286  magn=  0.0037
     atom  45 (R=0.032)  charge=  1.5321  magn= -0.0034
     atom  46 (R=0.032)  charge=  1.5287  magn=  0.0063
     atom  47 (R=0.032)  charge=  1.5435  magn= -0.0045
     atom  48 (R=0.032)  charge=  1.4203  magn=  0.0717
     atom  49 (R=0.032)  charge=  1.4997  magn=  0.3596
     atom  50 (R=0.032)  charge=  1.5510  magn= -0.0093
     atom  51 (R=0.032)  charge=  1.5369  magn=  0.0258
     atom  52 (R=0.032)  charge=  1.5367  magn= -0.0014
     atom  53 (R=0.032)  charge=  1.5328  magn=  0.0051
     atom  54 (R=0.032)  charge=  1.5279  magn= -0.0019
     atom  55 (R=0.032)  charge=  1.5269  magn=  0.0048
     atom  56 (R=0.032)  charge=  1.5237  magn= -0.0024
     atom  57 (R=0.032)  charge=  1.5225  magn=  0.0070
     atom  58 (R=0.032)  charge=  1.5286  magn= -0.0030
     atom  59 (R=0.032)  charge=  1.5031  magn=  0.0040
     atom  60 (R=0.032)  charge=  1.4879  magn= -0.0118
     atom  61 (R=0.032)  charge=  1.5185  magn=  0.0496
     atom  62 (R=0.032)  charge=  1.5511  magn= -0.0093
     atom  63 (R=0.032)  charge=  1.5369  magn=  0.0258
     atom  64 (R=0.032)  charge=  1.5377  magn= -0.0086
     atom  65 (R=0.032)  charge=  1.5343  magn=  0.0081
     atom  66 (R=0.032)  charge=  1.5283  magn= -0.0034
     atom  67 (R=0.032)  charge=  1.5278  magn=  0.0020
     atom  68 (R=0.032)  charge=  1.5252  magn= -0.0020
     atom  69 (R=0.032)  charge=  1.5240  magn=  0.0017
     atom  70 (R=0.032)  charge=  1.5226  magn= -0.0024
     atom  71 (R=0.032)  charge=  1.5150  magn=  0.0039
     atom  72 (R=0.032)  charge=  1.5150  magn= -0.0045
     atom  73 (R=0.032)  charge=  1.5242  magn=  0.0118
     atom  74 (R=0.032)  charge=  1.5236  magn= -0.0084
     atom  75 (R=0.032)  charge=  1.5242  magn=  0.0144
     atom  76 (R=0.032)  charge=  1.5368  magn= -0.0014
     atom  77 (R=0.032)  charge=  1.5328  magn=  0.0051
     atom  78 (R=0.032)  charge=  1.5283  magn= -0.0034
     atom  79 (R=0.032)  charge=  1.5278  magn=  0.0020
     atom  80 (R=0.032)  charge=  1.5260  magn= -0.0019
     atom  81 (R=0.032)  charge=  1.5251  magn=  0.0036
     atom  82 (R=0.032)  charge=  1.5243  magn= -0.0016
     atom  83 (R=0.032)  charge=  1.5206  magn=  0.0016
     atom  84 (R=0.032)  charge=  1.5151  magn= -0.0022
     atom  85 (R=0.032)  charge=  1.5229  magn=  0.0014
     atom  86 (R=0.032)  charge=  1.5215  magn= -0.0032
     atom  87 (R=0.032)  charge=  1.5232  magn=  0.0103
     atom  88 (R=0.032)  charge=  1.5248  magn= -0.0038
     atom  89 (R=0.032)  charge=  1.5259  magn=  0.0019
     atom  90 (R=0.032)  charge=  1.5279  magn= -0.0019
     atom  91 (R=0.032)  charge=  1.5269  magn=  0.0048
     atom  92 (R=0.032)  charge=  1.5252  magn= -0.0020
     atom  93 (R=0.032)  charge=  1.5240  magn=  0.0017
     atom  94 (R=0.032)  charge=  1.5243  magn= -0.0016
     atom  95 (R=0.032)  charge=  1.5206  magn=  0.0016
     atom  96 (R=0.032)  charge=  1.5220  magn= -0.0018
     atom  97 (R=0.032)  charge=  1.5147  magn=  0.0042

     total cpu time spent up to now is      842.0 secs

     End of self-consistent calculation

 ------ SPIN UP ------------


          k = 0.0000 0.0000 0.0000 (233409 PWs)   bands (ev):

   -23.7986 -23.4173 -23.3499 -23.3228 -23.3131 -23.3062 -23.1534 -22.4136
   -22.4050 -22.4002 -22.3906 -22.3283 -22.2033 -21.9437 -21.9389 -21.9151
   -21.9027 -21.8559 -21.5623 -20.5697 -20.5681 -20.5460 -20.5426 -20.5254
   -20.5236 -20.5079 -20.4979 -20.4905 -20.4846 -20.3997 -20.0446 -19.6602
   -19.6405 -19.6081 -19.5807 -19.5683 -19.1865 -18.3695 -18.3575 -18.3430
   -18.3262 -18.3132 -18.2973 -18.2845 -18.2780 -18.2584 -18.2381 -18.1761
   -17.6367 -17.2567 -17.2544 -17.2544 -17.1537 -17.0809 -16.7875 -16.3435
   -16.3321 -16.3161 -16.2299 -16.1957 -16.1011 -15.8383 -15.8172 -15.8021
   -15.7267 -15.7033 -15.0452 -14.4363 -14.4354 -14.4194 -14.4111 -14.3909
   -14.3884 -14.3768 -14.3669 -14.3627 -14.3197 -14.2857 -14.1999 -14.1902
   -14.1556 -14.1389 -13.8474 -13.7638 -13.1191 -12.7169 -12.7082 -12.6709
   -12.5825 -12.5483 -12.2889 -12.1587 -12.1303 -12.1212 -12.0081 -11.9794
   -11.8844 -11.8294 -11.6844 -11.6540 -11.6456 -11.6195 -11.6057 -11.6038
   -11.5772 -11.5732 -11.5606 -11.4265 -11.3976 -11.3664 -11.3506 -11.3429
   -11.3225 -11.3119 -11.3104 -11.2261 -11.2001 -11.1888 -11.1414 -10.9767
   -10.9136 -10.6412 -10.6348 -10.5893 -10.5685 -10.3585 -10.3531 -10.2354
   -10.2246 -10.2197 -10.2140 -10.1697 -10.0792 -10.0302  -9.9930  -9.9795
    -9.9685  -9.8470  -9.8381  -9.7381  -9.7268  -9.7028  -9.6935  -9.6844
    -9.6801  -9.6542  -9.6523  -9.6383  -9.5235  -9.3539  -9.3425  -9.3261
    -9.1077  -9.1009  -9.0937  -8.5599  -8.5210  -8.2595  -8.2416  -8.2402
    -8.2101  -8.1455  -8.1443  -8.1277  -8.1153  -8.1110  -8.1003  -8.1003
    -8.0899  -8.0782  -8.0741  -8.0562  -7.9449  -7.6990  -7.4786  -7.4785
    -7.3331  -7.3067  -7.2975  -7.2924  -7.2565  -6.8857  -6.2279  -6.2252
    -6.2049  -6.1812  -6.1736  -6.0014  -5.8112  -5.8054  -5.7994  -5.7845
    -5.7415  -4.8243  -4.7932  -3.3653  -2.8297  -2.8117  -2.7903  -2.7875
    -2.7728  -2.7587  -2.7530  -2.7390  -2.7256  -2.6851  -2.6379  -2.1719
    -1.7844  -1.7612  -1.7517  -1.7003  -1.6520  -1.1673  -0.9769  -0.3511
    -0.3476  -0.3216  -0.3002  -0.2988  -0.2917  -0.2910  -0.2673  -0.2609

 ------ SPIN DOWN ----------


          k = 0.0000 0.0000 0.0000 (233409 PWs)   bands (ev):

   -23.7843 -23.3872 -23.3440 -23.3176 -23.3061 -23.2908 -23.1022 -22.3968
   -22.3873 -22.3769 -22.3690 -22.3152 -22.1819 -21.9249 -21.9239 -21.8927
   -21.8781 -21.8366 -21.4959 -20.5476 -20.5476 -20.5281 -20.5273 -20.5147
   -20.5021 -20.4973 -20.4874 -20.4848 -20.4230 -20.3731 -20.0076 -19.6317
   -19.6231 -19.5985 -19.5487 -19.5370 -19.1306 -18.3500 -18.3341 -18.3290
   -18.3180 -18.3048 -18.2839 -18.2688 -18.2681 -18.2389 -18.2196 -18.0880
   -17.5355 -17.2473 -17.2436 -17.2406 -17.1192 -17.0652 -16.7321 -16.3204
   -16.3158 -16.3032 -16.2001 -16.1772 -16.0828 -15.8247 -15.7995 -15.7932
   -15.6978 -15.6172 -14.9783 -14.4139 -14.4096 -14.4061 -14.3962 -14.3848
   -14.3739 -14.3631 -14.3483 -14.3444 -14.3028 -14.2445 -14.1901 -14.1816
   -14.1486 -14.1238 -13.7675 -13.7335 -13.0472 -12.6965 -12.6815 -12.6559
   -12.5667 -12.5103 -12.2606 -12.1387 -12.1168 -12.1017 -12.0012 -11.9637
   -11.8624 -11.7946 -11.6564 -11.6434 -11.6347 -11.6087 -11.5943 -11.5931
   -11.5696 -11.5554 -11.5370 -11.3971 -11.3576 -11.3417 -11.3325 -11.3262
   -11.3116 -11.3025 -11.2820 -11.2083 -11.1830 -11.1768 -11.0711 -10.9669
   -10.8709 -10.6307 -10.6176 -10.5844 -10.5521 -10.3329 -10.3171 -10.2109
   -10.1967 -10.1912 -10.1836 -10.1431 -10.0464  -9.9957  -9.9775  -9.9554
    -9.9547  -9.8425  -9.8277  -9.7225  -9.7014  -9.6890  -9.6641  -9.6640
    -9.6392  -9.6380  -9.6275  -9.6029  -9.4229  -9.3101  -9.2926  -9.2644
    -9.1005  -9.0846  -9.0781  -8.5429  -8.4815  -8.2470  -8.2273  -8.2247
    -8.2037  -8.1160  -8.1101  -8.0954  -8.0906  -8.0863  -8.0749  -8.0748
    -8.0616  -8.0598  -8.0174  -8.0075  -7.6517  -7.6020  -7.4660  -7.3899
    -7.2967  -7.2870  -7.2713  -7.2553  -7.2048  -6.8136  -6.2040  -6.1957
    -6.1868  -6.1537  -6.1149  -5.9654  -5.7827  -5.7808  -5.7635  -5.7138
    -5.6739  -4.4346  -3.0604  -2.8225  -2.7919  -2.7762  -2.7689  -2.7524
    -2.7419  -2.7365  -2.7160  -2.7062  -2.6379  -2.5573  -2.5269  -2.1295
    -1.7700  -1.7493  -1.7116  -1.6094  -1.6030  -1.0957  -0.9697  -0.3349
    -0.3340  -0.3002  -0.2847  -0.2710  -0.2545  -0.2534  -0.2370  -0.2348

     the Fermi energy is    -4.6814 ev

!    total energy              =   -1168.10822018 Ry
     estimated scf accuracy    <          3.7E-11 Ry
     smearing contrib. (-TS)   =       0.00165191 Ry
     internal energy E=F+TS    =   -1168.10987210 Ry

     The total energy is F=E-TS. E is the sum of the following terms:
     one-electron contribution =  -13177.86183822 Ry
     hartree contribution      =    6625.17052539 Ry
     xc contribution           =    -415.52820469 Ry
     ewald contribution        =    5800.10964542 Ry

     total magnetization       =     2.00 Bohr mag/cell
     absolute magnetization    =     2.85 Bohr mag/cell

     convergence has been achieved in  18 iterations

     Forces acting on atoms (cartesian axes, Ry/au):

     atom    1 type  1   force =    -0.00308702   -0.00000075    0.00000000
     atom    2 type  1   force =    -0.00071405   -0.00000068    0.00000001
     atom    3 type  1   force =    -0.00328807    0.00199545   -0.00000000
     atom    4 type  1   force =    -0.00107664   -0.00006696   -0.00000002
     atom    5 type  1   force =    -0.00330325    0.00173057   -0.00000001
     atom    6 type  1   force =    -0.00135242   -0.00111659    0.00000001
     atom    7 type  1   force =    -0.00384501    0.00289509    0.00000000
     atom    8 type  1   force =    -0.00578349    0.00188423    0.00000002
     atom    9 type  1   force =    -0.00120874    0.00142132   -0.00000004
     atom   10 type  1   force =    -0.00676478    0.00597699    0.00000003
     atom   11 type  1   force =     0.00163473    0.00018960    0.00000001
     atom   12 type  1   force =    -0.00201561    0.00831737   -0.00000001
     atom   13 type  1   force =    -0.00004185    0.00345565    0.00000001
     atom   14 type  1   force =     0.00009077   -0.00021696   -0.00000001
     atom   15 type  1   force =    -0.00328870   -0.00199639    0.00000002
     atom   16 type  1   force =    -0.00107666    0.00006594   -0.00000002
     atom   17 type  1   force =    -0.00404271   -0.00000014    0.00000001
     atom   18 type  1   force =    -0.00182751   -0.00000045    0.00000001
     atom   19 type  1   force =    -0.00403293   -0.00015257    0.00000001
     atom   20 type  1   force =    -0.00258907   -0.00326943    0.00000001
     atom   21 type  1   force =    -0.00159322    0.00286159    0.00000004
     atom   22 type  1   force =    -0.00301105   -0.00526844   -0.00000000
     atom   23 type  1   force =    -0.00231277    0.00662099   -0.00000005
     atom   24 type  1   force =    -0.00106326   -0.00178254    0.00000003
     atom   25 type  1   force =    -0.00125631    0.00220039    0.00000001
     atom   26 type  1   force =     0.00310665    0.00089259    0.00000001
     atom   27 type  1   force =    -0.00108475   -0.00339740   -0.00000001
     atom   28 type  1   force =    -0.00020440   -0.00008972   -0.00000001
     atom   29 type  1   force =    -0.00330350   -0.00173157    0.00000001
     atom   30 type  1   force =    -0.00135233    0.00111647   -0.00000001
     atom   31 type  1   force =    -0.00403203    0.00015245    0.00000001
     atom   32 type  1   force =    -0.00258832    0.00327064    0.00000002
     atom   33 type  1   force =     0.00075202    0.00000086   -0.00000002
     atom   34 type  1   force =     0.00401483    0.00000170   -0.00000000
     atom   35 type  1   force =    -0.00061796   -0.00052750    0.00000002
     atom   36 type  2   force =     0.01203251   -0.01481459   -0.00000002
     atom   37 type  1   force =    -0.00124738   -0.00334324   -0.00000001
     atom   38 type  1   force =    -0.00088330   -0.00969341    0.00000001
     atom   39 type  1   force =    -0.00032225   -0.00320061   -0.00000000
     atom   40 type  1   force =     0.00338688    0.00158183    0.00000001
     atom   41 type  1   force =    -0.00207078   -0.00073628    0.00000001
     atom   42 type  1   force =     0.00025894    0.00138077   -0.00000001
     atom   43 type  1   force =    -0.00384364   -0.00289546    0.00000002
     atom   44 type  1   force =    -0.00578324   -0.00188234   -0.00000001
     atom   45 type  1   force =    -0.00159422   -0.00286355    0.00000001
     atom   46 type  1   force =    -0.00301655    0.00526726   -0.00000002
     atom   47 type  1   force =    -0.00062485    0.00051962    0.00000004
     atom   48 type  2   force =     0.01200892    0.01480728    0.00000001
     atom   49 type  2   force =    -0.02182427    0.00001672   -0.00000001
     atom   50 type  1   force =    -0.00080963    0.00340394   -0.00000000
     atom   51 type  1   force =     0.00132828   -0.00086753   -0.00000000
     atom   52 type  1   force =     0.00211722   -0.00176568   -0.00000001
     atom   53 type  1   force =     0.00934827    0.00319194    0.00000002
     atom   54 type  1   force =     0.00262336    0.00149833   -0.00000001
     atom   55 type  1   force =     0.00185954    0.00103355    0.00000000
     atom   56 type  1   force =    -0.00120684   -0.00142000    0.00000001
     atom   57 type  1   force =    -0.00676312   -0.00597458    0.00000000
     atom   58 type  1   force =    -0.00230998   -0.00662265   -0.00000000
     atom   59 type  1   force =    -0.00106211    0.00178267    0.00000002
     atom   60 type  1   force =    -0.00124989    0.00334310   -0.00000004
     atom   61 type  1   force =    -0.00088423    0.00969756    0.00000001
     atom   62 type  1   force =    -0.00081384   -0.00340621   -0.00000001
     atom   63 type  1   force =     0.00132634    0.00087014    0.00000003
     atom   64 type  1   force =     0.00732157   -0.00000263   -0.00000001
     atom   65 type  1   force =     0.01222866   -0.00000060    0.00000001
     atom   66 type  1   force =     0.00403392    0.00134701   -0.00000001
     atom   67 type  1   force =     0.00402982    0.00103091   -0.00000001
     atom   68 type  1   force =     0.00202722    0.00000832    0.00000002
     atom   69 type  1   force =     0.00187120    0.00187556   -0.00000002
     atom   70 type  1   force =     0.00163487   -0.00018804    0.00000007
     atom   71 type  1   force =    -0.00201514   -0.00831667   -0.00000001
     atom   72 type  1   force =    -0.00125557   -0.00220027   -0.00000000
     atom   73 type  1   force =     0.00310762   -0.00089400   -0.00000000
     atom   74 type  1   force =    -0.00032146    0.00320123   -0.00000001
     atom   75 type  1   force =     0.00338872   -0.00158347    0.00000001
     atom   76 type  1   force =     0.00211531    0.00176493   -0.00000002
     atom   77 type  1   force =     0.00934892   -0.00319112   -0.00000002
     atom   78 type  1   force =     0.00403437   -0.00134713   -0.00000000
     atom   79 type  1   force =     0.00402996   -0.00103030   -0.00000000
     atom   80 type  1   force =     0.00094314    0.00000031   -0.00000002
     atom   81 type  1   force =     0.00220627    0.00000050    0.00000002
     atom   82 type  1   force =     0.00263282    0.00130624   -0.00000003
     atom   83 type  1   force =     0.00078434    0.00140850   -0.00000000
     atom   84 type  1   force =    -0.00004198   -0.00345580   -0.00000002
     atom   85 type  1   force =     0.00009081    0.00021560    0.00000000
     atom   86 type  1   force =    -0.00108382    0.00339505   -0.00000000
     atom   87 type  1   force =    -0.00020411    0.00008799    0.00000003
     atom   88 type  1   force =    -0.00206869    0.00073363   -0.00000000
     atom   89 type  1   force =     0.00026005   -0.00138140    0.00000001
     atom   90 type  1   force =     0.00262382   -0.00149998   -0.00000002
     atom   91 type  1   force =     0.00185966   -0.00103240   -0.00000001
     atom   92 type  1   force =     0.00202674   -0.00000785    0.00000000
     atom   93 type  1   force =     0.00187031   -0.00187372   -0.00000002
     atom   94 type  1   force =     0.00263268   -0.00130540   -0.00000000
     atom   95 type  1   force =     0.00078381   -0.00140646   -0.00000004
     atom   96 type  1   force =     0.00144759    0.00000055   -0.00000004
     atom   97 type  1   force =    -0.00016414    0.00000053    0.00000002

     Total force =     0.054621     Total SCF correction =     0.000005
     Energy error            =      2.7E-03 Ry
     Gradient error          =      2.2E-02 Ry/Bohr

     number of scf cycles    =   9
     number of bfgs steps    =   8

     energy             old  =   -1168.1055097858 Ry
     energy             new  =   -1168.1082201825 Ry

     CASE: energy            _new < energy            _old

     new trust radius        =       0.1238258112 bohr
     new conv_thr            =            1.0E-10 Ry


ATOMIC_POSITIONS (crystal)
C                0.0473548115        0.0473545825       -0.0000000015
C                0.0950512775        0.0950511417       -0.0000000006
C                0.0471990534        0.1904822015       -0.0000000005
C                0.0949264291        0.2380987597        0.0000000056
C                0.0470304184        0.3334161262        0.0000000024
C                0.0945534923        0.3810377810       -0.0000000020
C                0.0476858854        0.4762985982       -0.0000000057
C                0.0954284390        0.5236020584       -0.0000000056
C                0.0486864473        0.6188465752        0.0000000005
C                0.0971960329        0.6655385663       -0.0000000003
C                0.0491753783        0.7606776185       -0.0000000023
C                0.0978802003        0.8071297619       -0.0000000022
C                0.0487146978        0.9033353449        0.0000000004
C                0.0956146371        0.9516667226       -0.0000000012
C                0.1904823072        0.0471988930        0.0000000020
C                0.2380988494        0.0949263192        0.0000000061
C                0.1902326028        0.1902325471        0.0000000088
C                0.2376839419        0.2376838252        0.0000000021
C                0.1894494859        0.3330259353       -0.0000000015
C                0.2364790232        0.3803321315       -0.0000000020
C                0.1902917391        0.4753397964        0.0000000019
C                0.2384779129        0.5221711612        0.0000000107
C                0.1931291844        0.6167053172        0.0000000044
C                0.2439613165        0.6608658912        0.0000000005
C                0.1941760698        0.7578901946       -0.0000000032
C                0.2395098935        0.8075913107       -0.0000000049
C                0.1910958310        0.9034298662       -0.0000000033
C                0.2382000142        0.9517962416        0.0000000014
C                0.3334162196        0.0470302554        0.0000000053
C                0.3810378407        0.0945535278        0.0000000018
C                0.3330260832        0.1894495095       -0.0000000005
C                0.3803322302        0.2364792821        0.0000000008
C                0.3313984803        0.3313985344       -0.0000000021
C                0.3778547721        0.3778553962        0.0000000017
C                0.3338753316        0.4725346484        0.0000000103
C1               0.3876512595        0.5112764414        0.0000000105
C                0.3424675078        0.6090523770        0.0000000060
C                0.3837759414        0.6639912045        0.0000000021
C                0.3346449412        0.7596210642       -0.0000000027
C                0.3814202147        0.8087823115        0.0000000001
C                0.3334786529        0.9040429775       -0.0000000005
C                0.3810337888        0.9520127643        0.0000000026
C                0.4762986978        0.0476863906       -0.0000000010
C                0.5236018419        0.0954297274       -0.0000000006
C                0.4753398904        0.1902934372       -0.0000000012
C                0.5221705188        0.2384808018       -0.0000000024
C                0.4725342265        0.3338787839       -0.0000000022
C1               0.5112753083        0.3876559377       -0.0000000071
C1               0.5301576502        0.5301542105       -0.0000000025
C                0.4788625975        0.6214103673        0.0000000041
C                0.5253521559        0.6692268855        0.0000000001
C                0.4764758477        0.7634958741        0.0000000023
C                0.5240505036        0.8105168039        0.0000000038
C                0.4762783960        0.9051690695        0.0000000031
C                0.5238798417        0.9527190051        0.0000000001
C                0.6188464222        0.0486871038       -0.0000000059
C                0.6655379950        0.0971971545       -0.0000000072
C                0.6167048456        0.1931308147       -0.0000000042
C                0.6608655161        0.2439627130       -0.0000000013
C                0.6090526425        0.3424692342       -0.0000000041
C                0.6639938558        0.3837749550       -0.0000000036
C                0.6214141471        0.4788610003       -0.0000000046
C                0.6692288481        0.5253518468       -0.0000000062
C                0.6203493296        0.6203486424       -0.0000000003
C                0.6674747205        0.6674747239       -0.0000000016
C                0.6192818659        0.7624562193        0.0000000035
C                0.6668030480        0.8099394529        0.0000000042
C                0.6191606927        0.9051724946       -0.0000000006
C                0.6665572782        0.9530899083       -0.0000000049
C                0.7606772133        0.0491758853       -0.0000000094
C                0.8071295292        0.0978805208       -0.0000000054
C                0.7578900717        0.1941765133        0.0000000008
C                0.8075922974        0.2395091552        0.0000000064
C                0.7596231026        0.3346439468        0.0000000051
C                0.8087836521        0.3814198478        0.0000000022
C                0.7634975050        0.4764754427        0.0000000029
C                0.8105176063        0.5240506199        0.0000000072
C                0.7624563054        0.6192819167        0.0000000002
C                0.8099393908        0.6668031522        0.0000000001
C                0.7620732283        0.7620733185        0.0000000032
C                0.8096950801        0.8096951865       -0.0000000014
C                0.7618518587        0.9052686134       -0.0000000026
C                0.8091875025        0.9531707401       -0.0000000032
C                0.9033352127        0.0487148247        0.0000000000
C                0.9516669917        0.0956143607       -0.0000000007
C                0.9034304522        0.1910953746       -0.0000000017
C                0.9517965930        0.2381997745       -0.0000000010
C                0.9040437325        0.3334783754        0.0000000037
C                0.9520131202        0.3810337402        0.0000000014
C                0.9051695259        0.4762782936        0.0000000039
C                0.9527188672        0.5238799377       -0.0000000018
C                0.9051723636        0.6191607415       -0.0000000036
C                0.9530895646        0.6665574447       -0.0000000026
C                0.9052684360        0.7618519933       -0.0000000057
C                0.9531704373        0.8091877488       -0.0000000031
C                0.9048438033        0.9048440140       -0.0000000006
C                0.9524487601        0.9524489195        0.0000000002



     Writing config-only to output data dir /home/gregb26/links/scratch/qe_tmp/vacancy_relaxed/series/7x7/nspin2/vac_7x7_relax_nspin2.save/ :
     XML data file
     NEW-OLD atomic charge density approx. for the potential

     negative rho (up, down):  9.322E-06 9.526E-06
     Generating pointlists ...

     total cpu time spent up to now is      844.3 secs

     per-process dynamical memory:   262.1 Mb

     Self-consistent Calculation

     iteration #  1     ecut=   100.00 Ry     beta= 0.30
     Davidson diagonalization with overlap
     ethr =  1.00E-06,  avg # of iterations =  9.0

     negative rho (up, down):  7.177E-06 6.175E-06

     total cpu time spent up to now is      854.6 secs

     total energy              =   -1168.10989814 Ry
     estimated scf accuracy    <       0.00836588 Ry

     total magnetization       =     2.00 Bohr mag/cell
     absolute magnetization    =     2.84 Bohr mag/cell

     iteration #  2     ecut=   100.00 Ry     beta= 0.30
     Davidson diagonalization with overlap
     ethr =  2.16E-06,  avg # of iterations =  2.0

     negative rho (up, down):  4.434E-06 3.831E-06

     total cpu time spent up to now is      858.1 secs

     total energy              =   -1168.11001476 Ry
     estimated scf accuracy    <       0.00280614 Ry

     total magnetization       =     2.00 Bohr mag/cell
     absolute magnetization    =     2.84 Bohr mag/cell

     iteration #  3     ecut=   100.00 Ry     beta= 0.30
     Davidson diagonalization with overlap
     ethr =  7.23E-07,  avg # of iterations =  3.0

     negative rho (up, down):  1.513E-06 1.322E-06

     total cpu time spent up to now is      861.5 secs

     total energy              =   -1168.11005396 Ry
     estimated scf accuracy    <       0.00097667 Ry

     total magnetization       =     2.00 Bohr mag/cell
     absolute magnetization    =     2.84 Bohr mag/cell

     iteration #  4     ecut=   100.00 Ry     beta= 0.30
     Davidson diagonalization with overlap
     ethr =  2.52E-07,  avg # of iterations =  3.0

     negative rho (up, down):  6.925E-07 6.077E-07

     total cpu time spent up to now is      865.0 secs

     total energy              =   -1168.11013630 Ry
     estimated scf accuracy    <       0.00014458 Ry

     total magnetization       =     2.00 Bohr mag/cell
     absolute magnetization    =     2.84 Bohr mag/cell

     iteration #  5     ecut=   100.00 Ry     beta= 0.30
     Davidson diagonalization with overlap
     ethr =  3.73E-08,  avg # of iterations =  3.0

     negative rho (up, down):  2.343E-07 2.074E-07

     total cpu time spent up to now is      868.5 secs

     total energy              =   -1168.11015923 Ry
     estimated scf accuracy    <       0.00002849 Ry

     total magnetization       =     2.00 Bohr mag/cell
     absolute magnetization    =     2.84 Bohr mag/cell

     iteration #  6     ecut=   100.00 Ry     beta= 0.30
     Davidson diagonalization with overlap
     ethr =  7.34E-09,  avg # of iterations =  4.0

     negative rho (up, down):  1.070E-07 9.522E-08

     total cpu time spent up to now is      872.4 secs

     total energy              =   -1168.11016465 Ry
     estimated scf accuracy    <       0.00000586 Ry

     total magnetization       =     2.00 Bohr mag/cell
     absolute magnetization    =     2.84 Bohr mag/cell

     iteration #  7     ecut=   100.00 Ry     beta= 0.30
     Davidson diagonalization with overlap
     ethr =  1.51E-09,  avg # of iterations =  4.0

     negative rho (up, down):  2.100E-08 1.879E-08

     total cpu time spent up to now is      876.1 secs

     total energy              =   -1168.11016584 Ry
     estimated scf accuracy    <       0.00000189 Ry

     total magnetization       =     2.00 Bohr mag/cell
     absolute magnetization    =     2.84 Bohr mag/cell

     iteration #  8     ecut=   100.00 Ry     beta= 0.30
     Davidson diagonalization with overlap
     ethr =  4.87E-10,  avg # of iterations =  4.5
     Minimization algorithm failed to find Fermi energy: reverting to bisection
     Possible cause: smearing is larger than the electronic band-gap.

     total cpu time spent up to now is      880.3 secs

     total energy              =   -1168.11016635 Ry
     estimated scf accuracy    <       0.00000026 Ry

     total magnetization       =     2.00 Bohr mag/cell
     absolute magnetization    =     2.85 Bohr mag/cell

     iteration #  9     ecut=   100.00 Ry     beta= 0.30
     Davidson diagonalization with overlap
     ethr =  6.70E-11,  avg # of iterations =  4.5
     Minimization algorithm failed to find Fermi energy: reverting to bisection
     Possible cause: smearing is larger than the electronic band-gap.

     total cpu time spent up to now is      884.7 secs

     total energy              =   -1168.11016649 Ry
     estimated scf accuracy    <       0.00000006 Ry

     total magnetization       =     2.00 Bohr mag/cell
     absolute magnetization    =     2.85 Bohr mag/cell

     iteration # 10     ecut=   100.00 Ry     beta= 0.30
     Davidson diagonalization with overlap
     ethr =  1.50E-11,  avg # of iterations =  4.5
     Minimization algorithm failed to find Fermi energy: reverting to bisection
     Possible cause: smearing is larger than the electronic band-gap.

     total cpu time spent up to now is      889.2 secs

     total energy              =   -1168.11016654 Ry
     estimated scf accuracy    <       0.00000002 Ry

     total magnetization       =     2.00 Bohr mag/cell
     absolute magnetization    =     2.85 Bohr mag/cell

     iteration # 11     ecut=   100.00 Ry     beta= 0.30
     Davidson diagonalization with overlap
     ethr =  5.03E-12,  avg # of iterations =  4.5
     Minimization algorithm failed to find Fermi energy: reverting to bisection
     Possible cause: smearing is larger than the electronic band-gap.

     total cpu time spent up to now is      893.6 secs

     total energy              =   -1168.11016656 Ry
     estimated scf accuracy    <          7.2E-09 Ry

     total magnetization       =     2.00 Bohr mag/cell
     absolute magnetization    =     2.85 Bohr mag/cell

     iteration # 12     ecut=   100.00 Ry     beta= 0.30
     Davidson diagonalization with overlap
     ethr =  1.85E-12,  avg # of iterations =  5.5
     Minimization algorithm failed to find Fermi energy: reverting to bisection
     Possible cause: smearing is larger than the electronic band-gap.

     total cpu time spent up to now is      898.5 secs

     total energy              =   -1168.11016657 Ry
     estimated scf accuracy    <          1.8E-09 Ry

     total magnetization       =     2.00 Bohr mag/cell
     absolute magnetization    =     2.85 Bohr mag/cell

     iteration # 13     ecut=   100.00 Ry     beta= 0.30
     Davidson diagonalization with overlap
     ethr =  4.69E-13,  avg # of iterations =  5.5
     Minimization algorithm failed to find Fermi energy: reverting to bisection
     Possible cause: smearing is larger than the electronic band-gap.

     total cpu time spent up to now is      903.5 secs

     total energy              =   -1168.11016658 Ry
     estimated scf accuracy    <          7.5E-10 Ry

     total magnetization       =     2.00 Bohr mag/cell
     absolute magnetization    =     2.85 Bohr mag/cell

     iteration # 14     ecut=   100.00 Ry     beta= 0.30
     Davidson diagonalization with overlap
     ethr =  1.93E-13,  avg # of iterations =  5.5
     Minimization algorithm failed to find Fermi energy: reverting to bisection
     Possible cause: smearing is larger than the electronic band-gap.

     total cpu time spent up to now is      909.0 secs

     total energy              =   -1168.11016658 Ry
     estimated scf accuracy    <          2.3E-10 Ry

     total magnetization       =     2.00 Bohr mag/cell
     absolute magnetization    =     2.85 Bohr mag/cell

     iteration # 15     ecut=   100.00 Ry     beta= 0.30
     Davidson diagonalization with overlap
     ethr =  1.00E-13,  avg # of iterations =  4.5
     Minimization algorithm failed to find Fermi energy: reverting to bisection
     Possible cause: smearing is larger than the electronic band-gap.

     Magnetic moment per site  (integrated on atomic sphere of radius R)
     atom   1 (R=0.032)  charge=  1.5192  magn= -0.0018
     atom   2 (R=0.032)  charge=  1.5222  magn=  0.0024
     atom   3 (R=0.032)  charge=  1.5238  magn= -0.0024
     atom   4 (R=0.032)  charge=  1.5245  magn=  0.0044
     atom   5 (R=0.032)  charge=  1.5291  magn= -0.0021
     atom   6 (R=0.032)  charge=  1.5292  magn=  0.0016
     atom   7 (R=0.032)  charge=  1.5301  magn= -0.0021
     atom   8 (R=0.032)  charge=  1.5302  magn=  0.0039
     atom   9 (R=0.032)  charge=  1.5242  magn= -0.0024
     atom  10 (R=0.032)  charge=  1.5231  magn=  0.0073
     atom  11 (R=0.032)  charge=  1.5223  magn= -0.0024
     atom  12 (R=0.032)  charge=  1.5127  magn=  0.0041
     atom  13 (R=0.032)  charge=  1.5126  magn= -0.0022
     atom  14 (R=0.032)  charge=  1.5211  magn=  0.0013
     atom  15 (R=0.032)  charge=  1.5238  magn= -0.0024
     atom  16 (R=0.032)  charge=  1.5245  magn=  0.0044
     atom  17 (R=0.032)  charge=  1.5290  magn= -0.0027
     atom  18 (R=0.032)  charge=  1.5273  magn=  0.0134
     atom  19 (R=0.032)  charge=  1.5358  magn= -0.0037
     atom  20 (R=0.032)  charge=  1.5375  magn=  0.0146
     atom  21 (R=0.032)  charge=  1.5325  magn= -0.0036
     atom  22 (R=0.032)  charge=  1.5295  magn=  0.0059
     atom  23 (R=0.032)  charge=  1.5278  magn= -0.0025
     atom  24 (R=0.032)  charge=  1.4939  magn=  0.0035
     atom  25 (R=0.032)  charge=  1.5083  magn= -0.0045
     atom  26 (R=0.032)  charge=  1.5238  magn=  0.0116
     atom  27 (R=0.032)  charge=  1.5191  magn= -0.0032
     atom  28 (R=0.032)  charge=  1.5228  magn=  0.0103
     atom  29 (R=0.032)  charge=  1.5291  magn= -0.0021
     atom  30 (R=0.032)  charge=  1.5292  magn=  0.0016
     atom  31 (R=0.032)  charge=  1.5358  magn= -0.0037
     atom  32 (R=0.032)  charge=  1.5375  magn=  0.0146
     atom  33 (R=0.032)  charge=  1.5468  magn= -0.0069
     atom  34 (R=0.032)  charge=  1.5516  magn=  0.0405
     atom  35 (R=0.032)  charge=  1.5448  magn= -0.0040
     atom  36 (R=0.032)  charge=  1.4102  magn=  0.0675
     atom  37 (R=0.032)  charge=  1.4719  magn= -0.0114
     atom  38 (R=0.032)  charge=  1.5132  magn=  0.0501
     atom  39 (R=0.032)  charge=  1.5192  magn= -0.0083
     atom  40 (R=0.032)  charge=  1.5225  magn=  0.0146
     atom  41 (R=0.032)  charge=  1.5247  magn= -0.0039
     atom  42 (R=0.032)  charge=  1.5261  magn=  0.0020
     atom  43 (R=0.032)  charge=  1.5301  magn= -0.0021
     atom  44 (R=0.032)  charge=  1.5301  magn=  0.0039
     atom  45 (R=0.032)  charge=  1.5325  magn= -0.0036
     atom  46 (R=0.032)  charge=  1.5295  magn=  0.0059
     atom  47 (R=0.032)  charge=  1.5448  magn= -0.0040
     atom  48 (R=0.032)  charge=  1.4102  magn=  0.0674
     atom  49 (R=0.032)  charge=  1.4991  magn=  0.3547
     atom  50 (R=0.032)  charge=  1.5543  magn= -0.0088
     atom  51 (R=0.032)  charge=  1.5398  magn=  0.0252
     atom  52 (R=0.032)  charge=  1.5397  magn= -0.0015
     atom  53 (R=0.032)  charge=  1.5355  magn=  0.0050
     atom  54 (R=0.032)  charge=  1.5308  magn= -0.0020
     atom  55 (R=0.032)  charge=  1.5296  magn=  0.0050
     atom  56 (R=0.032)  charge=  1.5242  magn= -0.0024
     atom  57 (R=0.032)  charge=  1.5230  magn=  0.0073
     atom  58 (R=0.032)  charge=  1.5278  magn= -0.0025
     atom  59 (R=0.032)  charge=  1.4938  magn=  0.0035
     atom  60 (R=0.032)  charge=  1.4719  magn= -0.0114
     atom  61 (R=0.032)  charge=  1.5132  magn=  0.0501
     atom  62 (R=0.032)  charge=  1.5543  magn= -0.0088
     atom  63 (R=0.032)  charge=  1.5398  magn=  0.0252
     atom  64 (R=0.032)  charge=  1.5398  magn= -0.0087
     atom  65 (R=0.032)  charge=  1.5367  magn=  0.0083
     atom  66 (R=0.032)  charge=  1.5302  magn= -0.0035
     atom  67 (R=0.032)  charge=  1.5298  magn=  0.0021
     atom  68 (R=0.032)  charge=  1.5257  magn= -0.0020
     atom  69 (R=0.032)  charge=  1.5245  magn=  0.0018
     atom  70 (R=0.032)  charge=  1.5223  magn= -0.0024
     atom  71 (R=0.032)  charge=  1.5127  magn=  0.0041
     atom  72 (R=0.032)  charge=  1.5083  magn= -0.0045
     atom  73 (R=0.032)  charge=  1.5238  magn=  0.0116
     atom  74 (R=0.032)  charge=  1.5192  magn= -0.0083
     atom  75 (R=0.032)  charge=  1.5225  magn=  0.0146
     atom  76 (R=0.032)  charge=  1.5397  magn= -0.0015
     atom  77 (R=0.032)  charge=  1.5355  magn=  0.0050
     atom  78 (R=0.032)  charge=  1.5302  magn= -0.0035
     atom  79 (R=0.032)  charge=  1.5298  magn=  0.0021
     atom  80 (R=0.032)  charge=  1.5258  magn= -0.0019
     atom  81 (R=0.032)  charge=  1.5229  magn=  0.0039
     atom  82 (R=0.032)  charge=  1.5235  magn= -0.0016
     atom  83 (R=0.032)  charge=  1.5189  magn=  0.0017
     atom  84 (R=0.032)  charge=  1.5126  magn= -0.0022
     atom  85 (R=0.032)  charge=  1.5211  magn=  0.0013
     atom  86 (R=0.032)  charge=  1.5191  magn= -0.0032
     atom  87 (R=0.032)  charge=  1.5228  magn=  0.0103
     atom  88 (R=0.032)  charge=  1.5247  magn= -0.0039
     atom  89 (R=0.032)  charge=  1.5262  magn=  0.0020
     atom  90 (R=0.032)  charge=  1.5308  magn= -0.0020
     atom  91 (R=0.032)  charge=  1.5296  magn=  0.0050
     atom  92 (R=0.032)  charge=  1.5257  magn= -0.0020
     atom  93 (R=0.032)  charge=  1.5245  magn=  0.0018
     atom  94 (R=0.032)  charge=  1.5235  magn= -0.0016
     atom  95 (R=0.032)  charge=  1.5189  magn=  0.0017
     atom  96 (R=0.032)  charge=  1.5203  magn= -0.0018
     atom  97 (R=0.032)  charge=  1.5124  magn=  0.0044

     total cpu time spent up to now is      913.7 secs

     End of self-consistent calculation

 ------ SPIN UP ------------


          k = 0.0000 0.0000 0.0000 (233409 PWs)   bands (ev):

   -23.8018 -23.4408 -23.3634 -23.3153 -23.3018 -23.2762 -23.1520 -22.4292
   -22.4073 -22.3993 -22.3880 -22.3028 -22.1985 -21.9471 -21.9405 -21.9134
   -21.8832 -21.8332 -21.5779 -20.5662 -20.5608 -20.5523 -20.5475 -20.5325
   -20.5172 -20.5046 -20.4946 -20.4765 -20.4745 -20.3731 -20.0477 -19.6570
   -19.6445 -19.6070 -19.5678 -19.5546 -19.2008 -18.3645 -18.3577 -18.3476
   -18.3334 -18.3049 -18.2903 -18.2729 -18.2662 -18.2498 -18.2258 -18.1653
   -17.6282 -17.2566 -17.2549 -17.2433 -17.1672 -17.0724 -16.7993 -16.3400
   -16.3331 -16.3063 -16.2312 -16.1893 -16.1058 -15.8300 -15.8166 -15.7996
   -15.7130 -15.6932 -15.0713 -14.4393 -14.4368 -14.4219 -14.4073 -14.3884
   -14.3842 -14.3761 -14.3570 -14.3400 -14.3039 -14.2681 -14.1985 -14.1953
   -14.1397 -14.1226 -13.8817 -13.7552 -13.1503 -12.7083 -12.7030 -12.6522
   -12.5888 -12.5369 -12.2849 -12.1632 -12.1312 -12.1215 -11.9963 -11.9601
   -11.8852 -11.8506 -11.6884 -11.6489 -11.6353 -11.6101 -11.5953 -11.5946
   -11.5793 -11.5467 -11.5460 -11.4252 -11.4144 -11.3543 -11.3537 -11.3305
   -11.3163 -11.3042 -11.2846 -11.2169 -11.1926 -11.1826 -11.1392 -10.9871
   -10.9093 -10.6563 -10.6103 -10.5646 -10.5546 -10.3380 -10.3334 -10.2457
   -10.2250 -10.2200 -10.2140 -10.1471 -10.0854 -10.0283  -9.9830  -9.9706
    -9.9622  -9.8615  -9.8331  -9.7379  -9.7015  -9.7001  -9.6976  -9.6864
    -9.6780  -9.6448  -9.6389  -9.6199  -9.5687  -9.3661  -9.3214  -9.3034
    -9.1059  -9.1011  -9.0748  -8.5612  -8.5260  -8.2604  -8.2560  -8.2383
    -8.1968  -8.1652  -8.1461  -8.1431  -8.1378  -8.1221  -8.1159  -8.0968
    -8.0948  -8.0901  -8.0645  -8.0625  -8.0301  -7.7038  -7.4846  -7.4626
    -7.3298  -7.3021  -7.2999  -7.2923  -7.2419  -6.8980  -6.2237  -6.2224
    -6.2036  -6.1735  -6.1691  -6.0014  -5.8035  -5.8019  -5.7979  -5.7921
    -5.7320  -5.1317  -4.8401  -2.9212  -2.8403  -2.8204  -2.7908  -2.7892
    -2.7702  -2.7496  -2.7484  -2.7396  -2.7298  -2.7077  -2.6281  -2.1849
    -1.7965  -1.7670  -1.7507  -1.7119  -1.6443  -1.1954  -0.9771  -0.3574
    -0.3566  -0.3264  -0.3150  -0.3002  -0.2910  -0.2875  -0.2624  -0.2580

 ------ SPIN DOWN ----------


          k = 0.0000 0.0000 0.0000 (233409 PWs)   bands (ev):

   -23.7865 -23.4079 -23.3570 -23.3094 -23.2946 -23.2616 -23.0986 -22.3987
   -22.3863 -22.3804 -22.3737 -22.2916 -22.1764 -21.9254 -21.9223 -21.8899
   -21.8668 -21.8137 -21.5101 -20.5539 -20.5535 -20.5244 -20.5204 -20.5044
   -20.4987 -20.4896 -20.4715 -20.4705 -20.4426 -20.3480 -20.0098 -19.6280
   -19.6275 -19.5912 -19.5345 -19.5315 -19.1446 -18.3484 -18.3429 -18.3293
   -18.3243 -18.2856 -18.2786 -18.2662 -18.2496 -18.2262 -18.2100 -18.0791
   -17.5279 -17.2465 -17.2421 -17.2327 -17.1318 -17.0568 -16.7410 -16.3169
   -16.3166 -16.2929 -16.2013 -16.1705 -16.0870 -15.8151 -15.7989 -15.7904
   -15.6857 -15.6100 -15.0046 -14.4171 -14.4154 -14.4050 -14.3940 -14.3778
   -14.3716 -14.3547 -14.3396 -14.3246 -14.2865 -14.2317 -14.1902 -14.1851
   -14.1346 -14.1049 -13.8019 -13.7252 -13.0754 -12.6875 -12.6759 -12.6392
   -12.5729 -12.4978 -12.2557 -12.1455 -12.1171 -12.1009 -11.9899 -11.9450
   -11.8623 -11.8142 -11.6648 -11.6380 -11.6239 -11.5994 -11.5832 -11.5773
   -11.5629 -11.5358 -11.5309 -11.3973 -11.3733 -11.3424 -11.3307 -11.3048
   -11.3041 -11.2936 -11.2570 -11.2013 -11.1798 -11.1664 -11.0656 -10.9772
   -10.8644 -10.6493 -10.5880 -10.5598 -10.5410 -10.3095 -10.3048 -10.2120
   -10.1947 -10.1905 -10.1888 -10.1227 -10.0455  -9.9921  -9.9614  -9.9572
    -9.9488  -9.8571  -9.8226  -9.7160  -9.6787  -9.6778  -9.6655  -9.6613
    -9.6394  -9.6297  -9.6160  -9.5842  -9.4708  -9.2891  -9.2735  -9.2666
    -9.0929  -9.0903  -9.0622  -8.5440  -8.4890  -8.2491  -8.2227  -8.2189
    -8.1866  -8.1186  -8.1171  -8.0946  -8.0856  -8.0797  -8.0775  -8.0645
    -8.0525  -8.0503  -8.0256  -7.9821  -7.9047  -7.6543  -7.4724  -7.4063
    -7.2922  -7.2896  -7.2697  -7.2438  -7.1949  -6.8234  -6.1995  -6.1961
    -6.1800  -6.1462  -6.1106  -5.9628  -5.7807  -5.7778  -5.7600  -5.6993
    -5.6766  -4.4793  -2.8965  -2.8281  -2.7961  -2.7779  -2.7625  -2.7541
    -2.7339  -2.7288  -2.7156  -2.7134  -2.6491  -2.5466  -2.5439  -2.1417
    -1.7780  -1.7532  -1.7062  -1.6271  -1.5942  -1.1226  -0.9695  -0.3408
    -0.3404  -0.3002  -0.2857  -0.2727  -0.2605  -0.2528  -0.2345  -0.2269

     the Fermi energy is    -4.7157 ev

!    total energy              =   -1168.11016658 Ry
     estimated scf accuracy    <          8.5E-11 Ry
     smearing contrib. (-TS)   =       0.00080583 Ry
     internal energy E=F+TS    =   -1168.11097240 Ry

     The total energy is F=E-TS. E is the sum of the following terms:
     one-electron contribution =  -13176.94929403 Ry
     hartree contribution      =    6624.69841890 Ry
     xc contribution           =    -415.46927106 Ry
     ewald contribution        =    5799.60917379 Ry

     total magnetization       =     2.00 Bohr mag/cell
     absolute magnetization    =     2.85 Bohr mag/cell

     convergence has been achieved in  15 iterations

     Forces acting on atoms (cartesian axes, Ry/au):

     atom    1 type  1   force =     0.00102203   -0.00000121    0.00000000
     atom    2 type  1   force =    -0.00295976   -0.00000066    0.00000000
     atom    3 type  1   force =    -0.00056061   -0.00145404    0.00000001
     atom    4 type  1   force =    -0.00582563    0.00060821   -0.00000001
     atom    5 type  1   force =     0.00009575   -0.00264944   -0.00000000
     atom    6 type  1   force =    -0.00370660    0.00055084    0.00000001
     atom    7 type  1   force =    -0.00441725   -0.00189451    0.00000000
     atom    8 type  1   force =     0.00008690    0.00206427    0.00000004
     atom    9 type  1   force =    -0.00664267    0.00095290   -0.00000002
     atom   10 type  1   force =    -0.00358805    0.00492374    0.00000001
     atom   11 type  1   force =    -0.00020310    0.00465629    0.00000000
     atom   12 type  1   force =    -0.00251577    0.00451035    0.00000001
     atom   13 type  1   force =     0.00230555    0.00512279   -0.00000002
     atom   14 type  1   force =    -0.00189475   -0.00218747   -0.00000001
     atom   15 type  1   force =    -0.00056077    0.00145094    0.00000001
     atom   16 type  1   force =    -0.00582620   -0.00060889   -0.00000000
     atom   17 type  1   force =    -0.00318882   -0.00000121   -0.00000003
     atom   18 type  1   force =    -0.00413719    0.00000021    0.00000001
     atom   19 type  1   force =    -0.00475578   -0.00163989    0.00000000
     atom   20 type  1   force =     0.00022378   -0.00252935    0.00000000
     atom   21 type  1   force =     0.00004245   -0.00177990   -0.00000001
     atom   22 type  1   force =     0.00230616   -0.00371643   -0.00000003
     atom   23 type  1   force =    -0.00169331    0.00307548    0.00000001
     atom   24 type  1   force =    -0.00031290   -0.00056608    0.00000002
     atom   25 type  1   force =    -0.00039533   -0.00137656    0.00000000
     atom   26 type  1   force =    -0.00045057    0.00177239   -0.00000000
     atom   27 type  1   force =     0.00196766    0.00076366    0.00000001
     atom   28 type  1   force =    -0.00381528   -0.00273938   -0.00000002
     atom   29 type  1   force =     0.00009546    0.00264776   -0.00000001
     atom   30 type  1   force =    -0.00370590   -0.00055225   -0.00000001
     atom   31 type  1   force =    -0.00475462    0.00163967    0.00000001
     atom   32 type  1   force =     0.00022402    0.00253053   -0.00000004
     atom   33 type  1   force =     0.00153212    0.00000159    0.00000002
     atom   34 type  1   force =     0.00450468    0.00000119    0.00000001
     atom   35 type  1   force =    -0.00100159   -0.00644479    0.00000000
     atom   36 type  2   force =     0.01783303   -0.00381132   -0.00000001
     atom   37 type  1   force =     0.00322995    0.00125256   -0.00000002
     atom   38 type  1   force =     0.00073043    0.00046201    0.00000001
     atom   39 type  1   force =     0.00099504   -0.00768871    0.00000002
     atom   40 type  1   force =     0.00116546    0.00164912    0.00000000
     atom   41 type  1   force =     0.00241548    0.00024474    0.00000002
     atom   42 type  1   force =    -0.00409676   -0.00167729    0.00000001
     atom   43 type  1   force =    -0.00441884    0.00189547    0.00000001
     atom   44 type  1   force =     0.00008436   -0.00206897   -0.00000002
     atom   45 type  1   force =     0.00003424    0.00177938    0.00000001
     atom   46 type  1   force =     0.00230180    0.00370798   -0.00000001
     atom   47 type  1   force =    -0.00101699    0.00643818   -0.00000001
     atom   48 type  2   force =     0.01781529    0.00379849    0.00000003
     atom   49 type  2   force =    -0.01103035   -0.00000117   -0.00000001
     atom   50 type  1   force =    -0.02269863    0.00082733   -0.00000004
     atom   51 type  1   force =     0.00460361   -0.00727611    0.00000001
     atom   52 type  1   force =    -0.00098897   -0.00379397   -0.00000000
     atom   53 type  1   force =     0.00273551   -0.00207433   -0.00000001
     atom   54 type  1   force =     0.00481494    0.00430543   -0.00000000
     atom   55 type  1   force =    -0.00009588   -0.00236892    0.00000001
     atom   56 type  1   force =    -0.00664233   -0.00094956    0.00000001
     atom   57 type  1   force =    -0.00358609   -0.00492593   -0.00000000
     atom   58 type  1   force =    -0.00169790   -0.00307578   -0.00000000
     atom   59 type  1   force =    -0.00030965    0.00056531   -0.00000001
     atom   60 type  1   force =     0.00322238   -0.00125446   -0.00000000
     atom   61 type  1   force =     0.00072692   -0.00045416    0.00000001
     atom   62 type  1   force =    -0.02270975   -0.00080513   -0.00000005
     atom   63 type  1   force =     0.00459515    0.00727092    0.00000004
     atom   64 type  1   force =     0.00238187    0.00000456   -0.00000003
     atom   65 type  1   force =     0.00843381   -0.00000198    0.00000002
     atom   66 type  1   force =     0.00893232    0.00196900   -0.00000000
     atom   67 type  1   force =     0.00384393   -0.00011498   -0.00000001
     atom   68 type  1   force =     0.00296268    0.00205363    0.00000001
     atom   69 type  1   force =     0.00244273    0.00002062    0.00000001
     atom   70 type  1   force =    -0.00020249   -0.00465535    0.00000003
     atom   71 type  1   force =    -0.00251497   -0.00450877    0.00000003
     atom   72 type  1   force =    -0.00039407    0.00137405   -0.00000000
     atom   73 type  1   force =    -0.00044866   -0.00176752   -0.00000003
     atom   74 type  1   force =     0.00099389    0.00769155   -0.00000004
     atom   75 type  1   force =     0.00116181   -0.00164725    0.00000003
     atom   76 type  1   force =    -0.00098922    0.00379688   -0.00000002
     atom   77 type  1   force =     0.00272933    0.00207356   -0.00000002
     atom   78 type  1   force =     0.00893442   -0.00196822    0.00000004
     atom   79 type  1   force =     0.00384359    0.00011564    0.00000000
     atom   80 type  1   force =     0.00611750    0.00000055   -0.00000003
     atom   81 type  1   force =     0.00397804    0.00000100   -0.00000001
     atom   82 type  1   force =     0.00027517   -0.00119458   -0.00000001
     atom   83 type  1   force =     0.00235604    0.00067941   -0.00000001
     atom   84 type  1   force =     0.00230582   -0.00512284   -0.00000001
     atom   85 type  1   force =    -0.00189456    0.00218585   -0.00000000
     atom   86 type  1   force =     0.00196861   -0.00076629    0.00000003
     atom   87 type  1   force =    -0.00381379    0.00273759    0.00000000
     atom   88 type  1   force =     0.00241735   -0.00024803   -0.00000002
     atom   89 type  1   force =    -0.00409633    0.00167482    0.00000003
     atom   90 type  1   force =     0.00481501   -0.00430343   -0.00000000
     atom   91 type  1   force =    -0.00009660    0.00236792   -0.00000001
     atom   92 type  1   force =     0.00296257   -0.00205138    0.00000002
     atom   93 type  1   force =     0.00244118   -0.00001892   -0.00000000
     atom   94 type  1   force =     0.00027468    0.00119671    0.00000004
     atom   95 type  1   force =     0.00235564   -0.00067696    0.00000000
     atom   96 type  1   force =     0.00081167    0.00000122   -0.00000000
     atom   97 type  1   force =    -0.00079452    0.00000010   -0.00000000

     Total force =     0.059622     Total SCF correction =     0.000007
     Energy error            =      1.9E-03 Ry
     Gradient error          =      2.3E-02 Ry/Bohr

     number of scf cycles    =  10
     number of bfgs steps    =   9

     energy             old  =   -1168.1082201825 Ry
     energy             new  =   -1168.1101665785 Ry

     CASE: energy            _new < energy            _old

     new trust radius        =       0.0276889547 bohr
     new conv_thr            =            1.0E-10 Ry


ATOMIC_POSITIONS (crystal)
C                0.0473720070        0.0473717234       -0.0000000014
C                0.0950155350        0.0950153566       -0.0000000004
C                0.0472171994        0.1904389668       -0.0000000006
C                0.0948503519        0.2380310831        0.0000000044
C                0.0470923199        0.3333412697        0.0000000023
C                0.0945309369        0.3809755746       -0.0000000013
C                0.0476597785        0.4761972892       -0.0000000053
C                0.0953644895        0.5236194428       -0.0000000040
C                0.0485271519        0.6188093417       -0.0000000001
C                0.0969159371        0.6656583867        0.0000000001
C                0.0489926640        0.7608345317       -0.0000000021
C                0.0975974570        0.8073606127       -0.0000000018
C                0.0485849354        0.9035274067        0.0000000003
C                0.0956100926        0.9516583345       -0.0000000013
C                0.1904391380        0.0472169649        0.0000000023
C                0.2380311909        0.0948502108        0.0000000053
C                0.1901814500        0.1901813403        0.0000000075
C                0.2376334578        0.2376333448        0.0000000023
C                0.1894626912        0.3329422278       -0.0000000010
C                0.2365941227        0.3802969597       -0.0000000016
C                0.1903299635        0.4753304354        0.0000000025
C                0.2385441480        0.5222658054        0.0000000101
C                0.1928579605        0.6168491868        0.0000000033
C                0.2436068984        0.6611409147        0.0000000012
C                0.1939514020        0.7581237445       -0.0000000026
C                0.2394328751        0.8076967540       -0.0000000052
C                0.1910825903        0.9034996014       -0.0000000042
C                0.2381956253        0.9517408451        0.0000000008
C                0.3333414014        0.0470921126        0.0000000046
C                0.3809756687        0.0945309499        0.0000000015
C                0.3329423927        0.1894627218       -0.0000000004
C                0.3802970178        0.2365944142        0.0000000002
C                0.3315239120        0.3315240553       -0.0000000015
C                0.3780858489        0.3780865369        0.0000000020
C                0.3341753082        0.4725812547        0.0000000102
C1               0.3876749892        0.5119211318        0.0000000094
C                0.3422067594        0.6094620960        0.0000000053
C                0.3836396379        0.6641513806        0.0000000021
C                0.3347139039        0.7596461157       -0.0000000022
C                0.3814269987        0.8088470540        0.0000000004
C                0.3335015965        0.9040837345        0.0000000002
C                0.3810056210        0.9519804245        0.0000000022
C                0.4761973593        0.0476602573       -0.0000000004
C                0.5236192829        0.0953655855       -0.0000000010
C                0.4753304396        0.1903313857       -0.0000000012
C                0.5222653655        0.2385464462       -0.0000000020
C                0.4725807148        0.3341781092       -0.0000000017
C1               0.5119202117        0.3876786696       -0.0000000062
C1               0.5296674310        0.5296642357       -0.0000000020
C                0.4784881338        0.6208577724        0.0000000026
C                0.5255086119        0.6689435453        0.0000000004
C                0.4765320597        0.7633523129        0.0000000019
C                0.5241215239        0.8104963542        0.0000000036
C                0.4762416300        0.9052882092        0.0000000025
C                0.5239256948        0.9526703901        0.0000000002
C                0.6188091317        0.0485278749       -0.0000000052
C                0.6656579050        0.0969170016       -0.0000000067
C                0.6168487683        0.1928594103       -0.0000000034
C                0.6611406246        0.2436081945       -0.0000000009
C                0.6094622254        0.3422082633       -0.0000000044
C                0.6641535462        0.3836389068       -0.0000000037
C                0.6208605764        0.4784870491       -0.0000000055
C                0.6689452956        0.5255081181       -0.0000000049
C                0.6203315144        0.6203309571        0.0000000004
C                0.6675760682        0.6675759801       -0.0000000010
C                0.6193545653        0.7626124585        0.0000000035
C                0.6668734585        0.8100172635        0.0000000039
C                0.6191717997        0.9052318129        0.0000000001
C                0.6666057779        0.9530573123       -0.0000000045
C                0.7608341136        0.0489931970       -0.0000000075
C                0.8073603716        0.0975978047       -0.0000000048
C                0.7581236940        0.1939518044        0.0000000006
C                0.8076976446        0.2394322808        0.0000000057
C                0.7596478815        0.3347130677        0.0000000038
C                0.8088482748        0.3814266449        0.0000000023
C                0.7633537290        0.4765317190        0.0000000017
C                0.8104970383        0.5241215601        0.0000000068
C                0.7626125511        0.6193546525        0.0000000006
C                0.8100171797        0.6668735774       -0.0000000004
C                0.7621534055        0.7621535235        0.0000000018
C                0.8097491383        0.8097492937       -0.0000000018
C                0.7618893543        0.9052416040       -0.0000000029
C                0.8092490300        0.9531347492       -0.0000000030
C                0.9035272886        0.0485850559       -0.0000000002
C                0.9516586441        0.0956097821       -0.0000000008
C                0.9035002491        0.1910820981       -0.0000000010
C                0.9517412619        0.2381953593       -0.0000000006
C                0.9040845770        0.3335012695        0.0000000034
C                0.9519808325        0.3810055293        0.0000000021
C                0.9052886208        0.4762415557        0.0000000037
C                0.9526702610        0.5239257704       -0.0000000019
C                0.9052316298        0.6191718955       -0.0000000034
C                0.9530569071        0.6666059684       -0.0000000026
C                0.9052413686        0.7618895339       -0.0000000051
C                0.9531343817        0.8092493293       -0.0000000037
C                0.9048501473        0.9048504136       -0.0000000011
C                0.9524348060        0.9524349692        0.0000000004



     Writing config-only to output data dir /home/gregb26/links/scratch/qe_tmp/vacancy_relaxed/series/7x7/nspin2/vac_7x7_relax_nspin2.save/ :
     XML data file
     NEW-OLD atomic charge density approx. for the potential

     negative rho (up, down):  2.015E-06 2.085E-06
     Generating pointlists ...

     total cpu time spent up to now is      916.0 secs

     per-process dynamical memory:   262.1 Mb

     Self-consistent Calculation

     iteration #  1     ecut=   100.00 Ry     beta= 0.30
     Davidson diagonalization with overlap
     ethr =  1.00E-06,  avg # of iterations =  6.0

     negative rho (up, down):  1.849E-06 1.470E-06

     total cpu time spent up to now is      923.2 secs

     total energy              =   -1168.11224636 Ry
     estimated scf accuracy    <       0.00089975 Ry

     total magnetization       =     2.00 Bohr mag/cell
     absolute magnetization    =     2.85 Bohr mag/cell

     iteration #  2     ecut=   100.00 Ry     beta= 0.30
     Davidson diagonalization with overlap
     ethr =  2.32E-07,  avg # of iterations =  3.0

     negative rho (up, down):  1.041E-06 8.330E-07

     total cpu time spent up to now is      926.9 secs

     total energy              =   -1168.11232420 Ry
     estimated scf accuracy    <       0.00022237 Ry

     total magnetization       =     2.00 Bohr mag/cell
     absolute magnetization    =     2.85 Bohr mag/cell

     iteration #  3     ecut=   100.00 Ry     beta= 0.30
     Davidson diagonalization with overlap
     ethr =  5.73E-08,  avg # of iterations =  3.0

     negative rho (up, down):  4.964E-07 4.002E-07

     total cpu time spent up to now is      930.5 secs

     total energy              =   -1168.11234972 Ry
     estimated scf accuracy    <       0.00006188 Ry

     total magnetization       =     2.00 Bohr mag/cell
     absolute magnetization    =     2.85 Bohr mag/cell

     iteration #  4     ecut=   100.00 Ry     beta= 0.30
     Davidson diagonalization with overlap
     ethr =  1.59E-08,  avg # of iterations =  3.0

     negative rho (up, down):  1.613E-07 1.314E-07

     total cpu time spent up to now is      934.0 secs

     total energy              =   -1168.11235857 Ry
     estimated scf accuracy    <       0.00001586 Ry

     total magnetization       =     2.00 Bohr mag/cell
     absolute magnetization    =     2.85 Bohr mag/cell

     iteration #  5     ecut=   100.00 Ry     beta= 0.30
     Davidson diagonalization with overlap
     ethr =  4.09E-09,  avg # of iterations =  3.5

     negative rho (up, down):  4.201E-08 3.458E-08

     total cpu time spent up to now is      937.8 secs

     total energy              =   -1168.11236156 Ry
     estimated scf accuracy    <       0.00000262 Ry

     total magnetization       =     2.00 Bohr mag/cell
     absolute magnetization    =     2.85 Bohr mag/cell

     iteration #  6     ecut=   100.00 Ry     beta= 0.30
     Davidson diagonalization with overlap
     ethr =  6.74E-10,  avg # of iterations =  3.5

     negative rho (up, down):  1.046E-08 8.674E-09

     total cpu time spent up to now is      941.9 secs

     total energy              =   -1168.11236220 Ry
     estimated scf accuracy    <       0.00000061 Ry

     total magnetization       =     2.00 Bohr mag/cell
     absolute magnetization    =     2.85 Bohr mag/cell

     iteration #  7     ecut=   100.00 Ry     beta= 0.30
     Davidson diagonalization with overlap
     ethr =  1.58E-10,  avg # of iterations =  4.5

     total cpu time spent up to now is      946.0 secs

     total energy              =   -1168.11236239 Ry
     estimated scf accuracy    <       0.00000014 Ry

     total magnetization       =     2.00 Bohr mag/cell
     absolute magnetization    =     2.85 Bohr mag/cell

     iteration #  8     ecut=   100.00 Ry     beta= 0.30
     Davidson diagonalization with overlap
     ethr =  3.71E-11,  avg # of iterations =  4.5

     total cpu time spent up to now is      950.4 secs

     total energy              =   -1168.11236246 Ry
     estimated scf accuracy    <       0.00000003 Ry

     total magnetization       =     2.00 Bohr mag/cell
     absolute magnetization    =     2.84 Bohr mag/cell

     iteration #  9     ecut=   100.00 Ry     beta= 0.30
     Davidson diagonalization with overlap
     ethr =  6.56E-12,  avg # of iterations =  4.0

     total cpu time spent up to now is      954.9 secs

     total energy              =   -1168.11236248 Ry
     estimated scf accuracy    <          7.7E-09 Ry

     total magnetization       =     2.00 Bohr mag/cell
     absolute magnetization    =     2.84 Bohr mag/cell

     iteration # 10     ecut=   100.00 Ry     beta= 0.30
     Davidson diagonalization with overlap
     ethr =  1.97E-12,  avg # of iterations =  5.0

     total cpu time spent up to now is      959.4 secs

     total energy              =   -1168.11236249 Ry
     estimated scf accuracy    <          3.1E-09 Ry

     total magnetization       =     2.00 Bohr mag/cell
     absolute magnetization    =     2.84 Bohr mag/cell

     iteration # 11     ecut=   100.00 Ry     beta= 0.30
     Davidson diagonalization with overlap
     ethr =  7.92E-13,  avg # of iterations =  4.5

     total cpu time spent up to now is      964.1 secs

     total energy              =   -1168.11236249 Ry
     estimated scf accuracy    <          1.2E-09 Ry

     total magnetization       =     2.00 Bohr mag/cell
     absolute magnetization    =     2.84 Bohr mag/cell

     iteration # 12     ecut=   100.00 Ry     beta= 0.30
     Davidson diagonalization with overlap
     ethr =  3.09E-13,  avg # of iterations =  5.5

     total cpu time spent up to now is      968.9 secs

     total energy              =   -1168.11236249 Ry
     estimated scf accuracy    <          4.7E-10 Ry

     total magnetization       =     2.00 Bohr mag/cell
     absolute magnetization    =     2.84 Bohr mag/cell

     iteration # 13     ecut=   100.00 Ry     beta= 0.30
     Davidson diagonalization with overlap
     ethr =  1.22E-13,  avg # of iterations =  6.0

     total cpu time spent up to now is      974.2 secs

     total energy              =   -1168.11236250 Ry
     estimated scf accuracy    <          1.6E-10 Ry

     total magnetization       =     2.00 Bohr mag/cell
     absolute magnetization    =     2.84 Bohr mag/cell

     iteration # 14     ecut=   100.00 Ry     beta= 0.30
     Davidson diagonalization with overlap
     ethr =  1.00E-13,  avg # of iterations =  4.0

     Magnetic moment per site  (integrated on atomic sphere of radius R)
     atom   1 (R=0.032)  charge=  1.5196  magn= -0.0018
     atom   2 (R=0.032)  charge=  1.5230  magn=  0.0025
     atom   3 (R=0.032)  charge=  1.5242  magn= -0.0024
     atom   4 (R=0.032)  charge=  1.5252  magn=  0.0042
     atom   5 (R=0.032)  charge=  1.5291  magn= -0.0021
     atom   6 (R=0.032)  charge=  1.5296  magn=  0.0016
     atom   7 (R=0.032)  charge=  1.5297  magn= -0.0021
     atom   8 (R=0.032)  charge=  1.5292  magn=  0.0039
     atom   9 (R=0.032)  charge=  1.5250  magn= -0.0023
     atom  10 (R=0.032)  charge=  1.5224  magn=  0.0072
     atom  11 (R=0.032)  charge=  1.5229  magn= -0.0024
     atom  12 (R=0.032)  charge=  1.5127  magn=  0.0040
     atom  13 (R=0.032)  charge=  1.5142  magn= -0.0022
     atom  14 (R=0.032)  charge=  1.5215  magn=  0.0013
     atom  15 (R=0.032)  charge=  1.5242  magn= -0.0024
     atom  16 (R=0.032)  charge=  1.5252  magn=  0.0042
     atom  17 (R=0.032)  charge=  1.5289  magn= -0.0026
     atom  18 (R=0.032)  charge=  1.5276  magn=  0.0128
     atom  19 (R=0.032)  charge=  1.5346  magn= -0.0036
     atom  20 (R=0.032)  charge=  1.5361  magn=  0.0141
     atom  21 (R=0.032)  charge=  1.5308  magn= -0.0035
     atom  22 (R=0.032)  charge=  1.5268  magn=  0.0059
     atom  23 (R=0.032)  charge=  1.5269  magn= -0.0026
     atom  24 (R=0.032)  charge=  1.4933  magn=  0.0037
     atom  25 (R=0.032)  charge=  1.5084  magn= -0.0045
     atom  26 (R=0.032)  charge=  1.5229  magn=  0.0117
     atom  27 (R=0.032)  charge=  1.5201  magn= -0.0032
     atom  28 (R=0.032)  charge=  1.5230  magn=  0.0102
     atom  29 (R=0.032)  charge=  1.5291  magn= -0.0021
     atom  30 (R=0.032)  charge=  1.5296  magn=  0.0016
     atom  31 (R=0.032)  charge=  1.5346  magn= -0.0036
     atom  32 (R=0.032)  charge=  1.5361  magn=  0.0141
     atom  33 (R=0.032)  charge=  1.5449  magn= -0.0067
     atom  34 (R=0.032)  charge=  1.5521  magn=  0.0395
     atom  35 (R=0.032)  charge=  1.5419  magn= -0.0036
     atom  36 (R=0.032)  charge=  1.4090  magn=  0.0686
     atom  37 (R=0.032)  charge=  1.4740  magn= -0.0113
     atom  38 (R=0.032)  charge=  1.5167  magn=  0.0496
     atom  39 (R=0.032)  charge=  1.5191  magn= -0.0084
     atom  40 (R=0.032)  charge=  1.5225  magn=  0.0145
     atom  41 (R=0.032)  charge=  1.5253  magn= -0.0039
     atom  42 (R=0.032)  charge=  1.5264  magn=  0.0019
     atom  43 (R=0.032)  charge=  1.5297  magn= -0.0021
     atom  44 (R=0.032)  charge=  1.5292  magn=  0.0039
     atom  45 (R=0.032)  charge=  1.5308  magn= -0.0035
     atom  46 (R=0.032)  charge=  1.5268  magn=  0.0059
     atom  47 (R=0.032)  charge=  1.5419  magn= -0.0036
     atom  48 (R=0.032)  charge=  1.4090  magn=  0.0685
     atom  49 (R=0.032)  charge=  1.5010  magn=  0.3563
     atom  50 (R=0.032)  charge=  1.5514  magn= -0.0090
     atom  51 (R=0.032)  charge=  1.5349  magn=  0.0258
     atom  52 (R=0.032)  charge=  1.5373  magn= -0.0015
     atom  53 (R=0.032)  charge=  1.5337  magn=  0.0051
     atom  54 (R=0.032)  charge=  1.5305  magn= -0.0019
     atom  55 (R=0.032)  charge=  1.5301  magn=  0.0050
     atom  56 (R=0.032)  charge=  1.5250  magn= -0.0023
     atom  57 (R=0.032)  charge=  1.5224  magn=  0.0072
     atom  58 (R=0.032)  charge=  1.5269  magn= -0.0026
     atom  59 (R=0.032)  charge=  1.4933  magn=  0.0036
     atom  60 (R=0.032)  charge=  1.4740  magn= -0.0113
     atom  61 (R=0.032)  charge=  1.5167  magn=  0.0496
     atom  62 (R=0.032)  charge=  1.5514  magn= -0.0090
     atom  63 (R=0.032)  charge=  1.5349  magn=  0.0258
     atom  64 (R=0.032)  charge=  1.5401  magn= -0.0086
     atom  65 (R=0.032)  charge=  1.5342  magn=  0.0084
     atom  66 (R=0.032)  charge=  1.5304  magn= -0.0034
     atom  67 (R=0.032)  charge=  1.5304  magn=  0.0020
     atom  68 (R=0.032)  charge=  1.5265  magn= -0.0020
     atom  69 (R=0.032)  charge=  1.5257  magn=  0.0017
     atom  70 (R=0.032)  charge=  1.5229  magn= -0.0024
     atom  71 (R=0.032)  charge=  1.5127  magn=  0.0040
     atom  72 (R=0.032)  charge=  1.5084  magn= -0.0045
     atom  73 (R=0.032)  charge=  1.5229  magn=  0.0117
     atom  74 (R=0.032)  charge=  1.5191  magn= -0.0084
     atom  75 (R=0.032)  charge=  1.5225  magn=  0.0145
     atom  76 (R=0.032)  charge=  1.5373  magn= -0.0015
     atom  77 (R=0.032)  charge=  1.5337  magn=  0.0051
     atom  78 (R=0.032)  charge=  1.5304  magn= -0.0034
     atom  79 (R=0.032)  charge=  1.5304  magn=  0.0020
     atom  80 (R=0.032)  charge=  1.5260  magn= -0.0019
     atom  81 (R=0.032)  charge=  1.5244  magn=  0.0038
     atom  82 (R=0.032)  charge=  1.5240  magn= -0.0016
     atom  83 (R=0.032)  charge=  1.5202  magn=  0.0017
     atom  84 (R=0.032)  charge=  1.5142  magn= -0.0022
     atom  85 (R=0.032)  charge=  1.5215  magn=  0.0013
     atom  86 (R=0.032)  charge=  1.5201  magn= -0.0032
     atom  87 (R=0.032)  charge=  1.5230  magn=  0.0102
     atom  88 (R=0.032)  charge=  1.5253  magn= -0.0039
     atom  89 (R=0.032)  charge=  1.5264  magn=  0.0019
     atom  90 (R=0.032)  charge=  1.5305  magn= -0.0019
     atom  91 (R=0.032)  charge=  1.5301  magn=  0.0050
     atom  92 (R=0.032)  charge=  1.5265  magn= -0.0020
     atom  93 (R=0.032)  charge=  1.5257  magn=  0.0017
     atom  94 (R=0.032)  charge=  1.5240  magn= -0.0016
     atom  95 (R=0.032)  charge=  1.5202  magn=  0.0017
     atom  96 (R=0.032)  charge=  1.5213  magn= -0.0018
     atom  97 (R=0.032)  charge=  1.5141  magn=  0.0043

     total cpu time spent up to now is      978.4 secs

     End of self-consistent calculation

 ------ SPIN UP ------------


          k = 0.0000 0.0000 0.0000 (233409 PWs)   bands (ev):

   -23.7989 -23.4225 -23.3620 -23.3224 -23.3061 -23.2737 -23.1445 -22.4205
   -22.3988 -22.3981 -22.3853 -22.3083 -22.2042 -21.9444 -21.9325 -21.9125
   -21.8799 -21.8370 -21.5795 -20.5592 -20.5580 -20.5444 -20.5422 -20.5292
   -20.5107 -20.5085 -20.5022 -20.4785 -20.4739 -20.3790 -20.0513 -19.6578
   -19.6385 -19.6057 -19.5701 -19.5570 -19.1991 -18.3670 -18.3493 -18.3468
   -18.3330 -18.2877 -18.2837 -18.2779 -18.2721 -18.2485 -18.2264 -18.1727
   -17.6315 -17.2542 -17.2511 -17.2416 -17.1666 -17.0811 -16.8011 -16.3415
   -16.3312 -16.3087 -16.2255 -16.1903 -16.1029 -15.8251 -15.8153 -15.8000
   -15.7145 -15.6938 -15.0645 -14.4363 -14.4321 -14.4129 -14.4037 -14.3887
   -14.3860 -14.3738 -14.3553 -14.3442 -14.3105 -14.2708 -14.1969 -14.1969
   -14.1447 -14.1308 -13.8679 -13.7541 -13.1480 -12.7152 -12.7059 -12.6533
   -12.5822 -12.5362 -12.2779 -12.1538 -12.1348 -12.1171 -11.9988 -11.9645
   -11.8838 -11.8556 -11.6831 -11.6464 -11.6319 -11.6138 -11.5981 -11.5928
   -11.5772 -11.5446 -11.5440 -11.4320 -11.4007 -11.3615 -11.3529 -11.3335
   -11.3225 -11.3075 -11.2832 -11.2167 -11.1860 -11.1816 -11.1351 -10.9841
   -10.9066 -10.6542 -10.6066 -10.5723 -10.5564 -10.3350 -10.3308 -10.2419
   -10.2180 -10.2179 -10.2125 -10.1517 -10.0932 -10.0332  -9.9812  -9.9696
    -9.9614  -9.8602  -9.8321  -9.7390  -9.7076  -9.7055  -9.6963  -9.6797
    -9.6774  -9.6376  -9.6357  -9.6237  -9.5759  -9.3698  -9.3278  -9.3032
    -9.1095  -9.1044  -9.0799  -8.5680  -8.5239  -8.2603  -8.2460  -8.2356
    -8.1986  -8.1708  -8.1441  -8.1394  -8.1353  -8.1187  -8.1154  -8.0988
    -8.0956  -8.0897  -8.0652  -8.0633  -8.0296  -7.7066  -7.4859  -7.4707
    -7.3319  -7.3023  -7.3013  -7.2842  -7.2448  -6.8975  -6.2212  -6.2198
    -6.1958  -6.1742  -6.1734  -6.0036  -5.8065  -5.8006  -5.7962  -5.7911
    -5.7306  -5.0446  -4.8428  -2.9887  -2.8344  -2.8171  -2.7907  -2.7866
    -2.7730  -2.7530  -2.7490  -2.7443  -2.7373  -2.6984  -2.6326  -2.1864
    -1.7930  -1.7637  -1.7510  -1.7094  -1.6560  -1.1915  -0.9773  -0.3576
    -0.3572  -0.3255  -0.3080  -0.2981  -0.2909  -0.2891  -0.2683  -0.2608

 ------ SPIN DOWN ----------


          k = 0.0000 0.0000 0.0000 (233409 PWs)   bands (ev):

   -23.7846 -23.3917 -23.3557 -23.3163 -23.2991 -23.2591 -23.0905 -22.3898
   -22.3868 -22.3726 -22.3707 -22.2972 -22.1822 -21.9195 -21.9170 -21.8899
   -21.8614 -21.8176 -21.5107 -20.5510 -20.5481 -20.5230 -20.5158 -20.5033
   -20.4967 -20.4923 -20.4765 -20.4671 -20.4347 -20.3543 -20.0131 -19.6292
   -19.6220 -19.5913 -19.5366 -19.5309 -19.1431 -18.3505 -18.3373 -18.3294
   -18.3243 -18.2762 -18.2736 -18.2601 -18.2537 -18.2243 -18.2104 -18.0868
   -17.5298 -17.2439 -17.2389 -17.2312 -17.1314 -17.0654 -16.7444 -16.3187
   -16.3148 -16.2947 -16.1957 -16.1715 -16.0848 -15.8127 -15.7961 -15.7910
   -15.6859 -15.6111 -14.9975 -14.4143 -14.4083 -14.3989 -14.3909 -14.3801
   -14.3728 -14.3517 -14.3376 -14.3280 -14.2926 -14.2335 -14.1883 -14.1866
   -14.1391 -14.1133 -13.7898 -13.7243 -13.0708 -12.6943 -12.6785 -12.6400
   -12.5661 -12.4967 -12.2495 -12.1370 -12.1212 -12.0971 -11.9922 -11.9498
   -11.8618 -11.8186 -11.6576 -11.6358 -11.6214 -11.6022 -11.5869 -11.5767
   -11.5603 -11.5315 -11.5292 -11.4035 -11.3610 -11.3418 -11.3377 -11.3100
   -11.3078 -11.2975 -11.2556 -11.1988 -11.1748 -11.1648 -11.0613 -10.9743
   -10.8615 -10.6471 -10.5878 -10.5675 -10.5382 -10.3099 -10.2966 -10.2048
   -10.1956 -10.1873 -10.1858 -10.1277 -10.0526  -9.9974  -9.9602  -9.9544
    -9.9481  -9.8557  -9.8218  -9.7152  -9.6870  -9.6827  -9.6597  -9.6582
    -9.6398  -9.6213  -9.6127  -9.5885  -9.4740  -9.2956  -9.2772  -9.2655
    -9.1012  -9.0888  -9.0662  -8.5507  -8.4853  -8.2450  -8.2233  -8.2169
    -8.1901  -8.1172  -8.1123  -8.0940  -8.0887  -8.0770  -8.0745  -8.0675
    -8.0572  -8.0491  -8.0200  -7.9851  -7.8933  -7.6573  -7.4738  -7.4119
    -7.2955  -7.2892  -7.2701  -7.2391  -7.1968  -6.8236  -6.1963  -6.1910
    -6.1745  -6.1473  -6.1148  -5.9651  -5.7823  -5.7820  -5.7504  -5.7034
    -5.6793  -4.4841  -2.8252  -2.8240  -2.7951  -2.7774  -2.7657  -2.7546
    -2.7359  -2.7314  -2.7208  -2.7202  -2.7074  -2.5481  -2.5374  -2.1431
    -1.7751  -1.7510  -1.7086  -1.6237  -1.6053  -1.1192  -0.9698  -0.3444
    -0.3402  -0.3023  -0.2827  -0.2725  -0.2598  -0.2588  -0.2292  -0.2289

     the Fermi energy is    -4.7234 ev

!    total energy              =   -1168.11236250 Ry
     estimated scf accuracy    <          6.6E-11 Ry
     smearing contrib. (-TS)   =       0.00106508 Ry
     internal energy E=F+TS    =   -1168.11342757 Ry

     The total energy is F=E-TS. E is the sum of the following terms:
     one-electron contribution =  -13176.55100716 Ry
     hartree contribution      =    6624.50244921 Ry
     xc contribution           =    -415.45736763 Ry
     ewald contribution        =    5799.39249800 Ry

     total magnetization       =     2.00 Bohr mag/cell
     absolute magnetization    =     2.84 Bohr mag/cell

     convergence has been achieved in  14 iterations

     Forces acting on atoms (cartesian axes, Ry/au):

     atom    1 type  1   force =    -0.00139809   -0.00000091    0.00000000
     atom    2 type  1   force =    -0.00068100   -0.00000106    0.00000000
     atom    3 type  1   force =    -0.00328409    0.00040621    0.00000002
     atom    4 type  1   force =    -0.00243748   -0.00056940    0.00000000
     atom    5 type  1   force =    -0.00276883   -0.00039600   -0.00000001
     atom    6 type  1   force =    -0.00228839   -0.00090120   -0.00000001
     atom    7 type  1   force =    -0.00135361   -0.00038759    0.00000001
     atom    8 type  1   force =    -0.00121045   -0.00097585    0.00000001
     atom    9 type  1   force =    -0.00238116    0.00096968   -0.00000002
     atom   10 type  1   force =    -0.00276244    0.00294333    0.00000000
     atom   11 type  1   force =    -0.00053075    0.00252364    0.00000000
     atom   12 type  1   force =    -0.00063316    0.00149622    0.00000000
     atom   13 type  1   force =     0.00032049    0.00226109   -0.00000001
     atom   14 type  1   force =     0.00012492   -0.00014404   -0.00000000
     atom   15 type  1   force =    -0.00328458   -0.00040847    0.00000001
     atom   16 type  1   force =    -0.00243779    0.00056755    0.00000001
     atom   17 type  1   force =    -0.00406674   -0.00000059   -0.00000002
     atom   18 type  1   force =    -0.00377975   -0.00000037   -0.00000001
     atom   19 type  1   force =    -0.00185377   -0.00092785   -0.00000000
     atom   20 type  1   force =    -0.00103212   -0.00135225    0.00000001
     atom   21 type  1   force =     0.00168423   -0.00079297   -0.00000001
     atom   22 type  1   force =     0.00061110   -0.00568196   -0.00000003
     atom   23 type  1   force =     0.00064705    0.00148432    0.00000001
     atom   24 type  1   force =     0.00024943   -0.00195387    0.00000000
     atom   25 type  1   force =    -0.00120815   -0.00118461   -0.00000000
     atom   26 type  1   force =     0.00000847   -0.00047457    0.00000001
     atom   27 type  1   force =    -0.00033042   -0.00009185    0.00000002
     atom   28 type  1   force =    -0.00043540   -0.00101138   -0.00000001
     atom   29 type  1   force =    -0.00276903    0.00039483   -0.00000001
     atom   30 type  1   force =    -0.00228843    0.00090101    0.00000001
     atom   31 type  1   force =    -0.00185390    0.00092837    0.00000000
     atom   32 type  1   force =    -0.00103263    0.00135349   -0.00000002
     atom   33 type  1   force =     0.00223523    0.00000144    0.00000001
     atom   34 type  1   force =    -0.00138144    0.00000002    0.00000002
     atom   35 type  1   force =     0.00392623    0.00227464   -0.00000002
     atom   36 type  2   force =     0.00635658   -0.00434949   -0.00000001
     atom   37 type  1   force =     0.00034655    0.00323136    0.00000001
     atom   38 type  1   force =    -0.00221576    0.00143880   -0.00000000
     atom   39 type  1   force =     0.00079532   -0.00278552    0.00000000
     atom   40 type  1   force =     0.00026683   -0.00068369   -0.00000000
     atom   41 type  1   force =    -0.00004405    0.00016721    0.00000003
     atom   42 type  1   force =    -0.00015270    0.00057631    0.00000000
     atom   43 type  1   force =    -0.00135568    0.00038620    0.00000001
     atom   44 type  1   force =    -0.00121384    0.00097417   -0.00000002
     atom   45 type  1   force =     0.00167990    0.00079094   -0.00000001
     atom   46 type  1   force =     0.00060512    0.00567983   -0.00000001
     atom   47 type  1   force =     0.00391766   -0.00228133   -0.00000001
     atom   48 type  2   force =     0.00634407    0.00434114    0.00000001
     atom   49 type  2   force =    -0.01187884    0.00001318    0.00000004
     atom   50 type  1   force =     0.00245017   -0.00062262   -0.00000003
     atom   51 type  1   force =    -0.00873464   -0.00018165    0.00000001
     atom   52 type  1   force =     0.00028399   -0.00565471    0.00000000
     atom   53 type  1   force =     0.00188759    0.00017779   -0.00000001
     atom   54 type  1   force =     0.00067747   -0.00010258   -0.00000000
     atom   55 type  1   force =     0.00082656    0.00046326    0.00000001
     atom   56 type  1   force =    -0.00238084   -0.00097011    0.00000000
     atom   57 type  1   force =    -0.00276276   -0.00294451   -0.00000000
     atom   58 type  1   force =     0.00064573   -0.00148616   -0.00000000
     atom   59 type  1   force =     0.00024938    0.00195218   -0.00000001
     atom   60 type  1   force =     0.00034176   -0.00323467    0.00000001
     atom   61 type  1   force =    -0.00222032   -0.00143293   -0.00000000
     atom   62 type  1   force =     0.00244793    0.00062243   -0.00000002
     atom   63 type  1   force =    -0.00873719    0.00018549    0.00000003
     atom   64 type  1   force =     0.00522976   -0.00000087   -0.00000002
     atom   65 type  1   force =     0.00556610    0.00000001    0.00000002
     atom   66 type  1   force =     0.00478508   -0.00019726   -0.00000001
     atom   67 type  1   force =     0.00483329   -0.00001171   -0.00000001
     atom   68 type  1   force =     0.00220577    0.00033016    0.00000000
     atom   69 type  1   force =     0.00098231   -0.00045446    0.00000002
     atom   70 type  1   force =    -0.00052940   -0.00252395    0.00000001
     atom   71 type  1   force =    -0.00063227   -0.00149645    0.00000003
     atom   72 type  1   force =    -0.00120681    0.00118415   -0.00000000
     atom   73 type  1   force =     0.00000968    0.00047673   -0.00000003
     atom   74 type  1   force =     0.00079419    0.00279036   -0.00000002
     atom   75 type  1   force =     0.00026508    0.00068401    0.00000001
     atom   76 type  1   force =     0.00028032    0.00565548    0.00000000
     atom   77 type  1   force =     0.00188622   -0.00017696   -0.00000004
     atom   78 type  1   force =     0.00478412    0.00019558   -0.00000000
     atom   79 type  1   force =     0.00483380    0.00001264   -0.00000000
     atom   80 type  1   force =     0.00440482    0.00000058   -0.00000000
     atom   81 type  1   force =     0.00279376    0.00000095   -0.00000000
     atom   82 type  1   force =     0.00173701   -0.00042583    0.00000000
     atom   83 type  1   force =     0.00059077   -0.00042352   -0.00000001
     atom   84 type  1   force =     0.00032061   -0.00226088   -0.00000001
     atom   85 type  1   force =     0.00012513    0.00014280    0.00000000
     atom   86 type  1   force =    -0.00032956    0.00009250    0.00000002
     atom   87 type  1   force =    -0.00043469    0.00100906    0.00000001
     atom   88 type  1   force =    -0.00004505   -0.00016660   -0.00000000
     atom   89 type  1   force =    -0.00015178   -0.00057729    0.00000001
     atom   90 type  1   force =     0.00067527    0.00010352   -0.00000001
     atom   91 type  1   force =     0.00082697   -0.00046260   -0.00000000
     atom   92 type  1   force =     0.00220504   -0.00032954    0.00000002
     atom   93 type  1   force =     0.00098172    0.00045638   -0.00000001
     atom   94 type  1   force =     0.00173653    0.00042767    0.00000003
     atom   95 type  1   force =     0.00059047    0.00042492    0.00000001
     atom   96 type  1   force =     0.00061866    0.00000095   -0.00000001
     atom   97 type  1   force =     0.00051756    0.00000009    0.00000000

     Total force =     0.032968     Total SCF correction =     0.000008
     Energy error            =      2.2E-03 Ry
     Gradient error          =      1.2E-02 Ry/Bohr

     number of scf cycles    =  11
     number of bfgs steps    =  10

     energy             old  =   -1168.1101665785 Ry
     energy             new  =   -1168.1123624961 Ry

     CASE: energy            _new < energy            _old

     new trust radius        =       0.0330682361 bohr
     new conv_thr            =            1.0E-10 Ry


ATOMIC_POSITIONS (crystal)
C                0.0473540040        0.0473536231       -0.0000000009
C                0.0949820962        0.0949818101       -0.0000000000
C                0.0471416208        0.1903515724       -0.0000000002
C                0.0947814966        0.2379170239        0.0000000037
C                0.0470843498        0.3332181439        0.0000000020
C                0.0945068468        0.3808551105       -0.0000000013
C                0.0476400696        0.4760959469       -0.0000000048
C                0.0953347901        0.5235529360       -0.0000000025
C                0.0483737392        0.6187810707       -0.0000000008
C                0.0965942397        0.6657753235        0.0000000003
C                0.0487912663        0.7609863050       -0.0000000023
C                0.0973513630        0.8075694637       -0.0000000012
C                0.0484353033        0.9037173036        0.0000000002
C                0.0956169682        0.9516568574       -0.0000000015
C                0.1903518576        0.0471412460        0.0000000030
C                0.2379172112        0.0947812555        0.0000000050
C                0.1900633838        0.1900631987        0.0000000053
C                0.2375198455        0.2375197039        0.0000000017
C                0.1894798652        0.3328308591       -0.0000000007
C                0.2366943166        0.3802117988       -0.0000000008
C                0.1903922696        0.4753273345        0.0000000029
C                0.2387547756        0.5221931568        0.0000000084
C                0.1925763278        0.6170262190        0.0000000030
C                0.2433391748        0.6613296915        0.0000000013
C                0.1937418336        0.7582989360       -0.0000000022
C                0.2394190045        0.8077313281       -0.0000000052
C                0.1910632843        0.9035268922       -0.0000000046
C                0.2382216290        0.9516663361        0.0000000002
C                0.3332183359        0.0470840710        0.0000000035
C                0.3808552248        0.0945068409        0.0000000019
C                0.3328310039        0.1894799143       -0.0000000002
C                0.3802117742        0.2366946603       -0.0000000010
C                0.3316701146        0.3316704200       -0.0000000006
C                0.3782275660        0.3782282559        0.0000000031
C                0.3344222598        0.4728213676        0.0000000090
C1               0.3879058185        0.5123748118        0.0000000081
C                0.3419706660        0.6097960908        0.0000000055
C                0.3834046874        0.6642913083        0.0000000017
C                0.3348240407        0.7596623684       -0.0000000021
C                0.3814715089        0.8088496645        0.0000000007
C                0.3335137774        0.9041014286        0.0000000019
C                0.3809689064        0.9519865360        0.0000000016
C                0.4760960105        0.0476404207       -0.0000000001
C                0.5235527940        0.0953356245       -0.0000000017
C                0.4753272736        0.1903933479       -0.0000000018
C                0.5221927820        0.2387564833       -0.0000000021
C                0.4728208226        0.3344242005       -0.0000000022
C1               0.5123740707        0.3879082850       -0.0000000055
C1               0.5290814931        0.5290795524        0.0000000006
C                0.4784108304        0.6204643428        0.0000000001
C                0.5253816731        0.6685321478        0.0000000012
C                0.4767783833        0.7631007985        0.0000000016
C                0.5241794613        0.8105366775        0.0000000030
C                0.4762455260        0.9053424974        0.0000000018
C                0.5239435398        0.9526825569        0.0000000007
C                0.6187808611        0.0483744737       -0.0000000044
C                0.6657749303        0.0965952094       -0.0000000063
C                0.6170258767        0.1925775612       -0.0000000028
C                0.6613295175        0.2433403184       -0.0000000010
C                0.6097961701        0.3419717863       -0.0000000040
C                0.6642928350        0.3834042264       -0.0000000044
C                0.6204665414        0.4784099807       -0.0000000064
C                0.6685335236        0.5253811963       -0.0000000034
C                0.6204539374        0.6204533684        0.0000000007
C                0.6677400250        0.6677399012        0.0000000002
C                0.6195156317        0.7627656315        0.0000000031
C                0.6670240997        0.8101627877        0.0000000033
C                0.6192141619        0.9053215742        0.0000000005
C                0.6666781303        0.9530314316       -0.0000000032
C                0.7609859307        0.0487918281       -0.0000000065
C                0.8075692550        0.0973517278       -0.0000000033
C                0.7582989717        0.1937422266        0.0000000003
C                0.8077321050        0.2394186033        0.0000000042
C                0.7596637370        0.3348234741        0.0000000019
C                0.8088507636        0.3814711341        0.0000000024
C                0.7631019601        0.4767780237        0.0000000014
C                0.8105372309        0.5241794597        0.0000000054
C                0.7627657718        0.6195156393        0.0000000004
C                0.8101626678        0.6670242768       -0.0000000011
C                0.7622992763        0.7622994563        0.0000000010
C                0.8098404745        0.8098407330       -0.0000000024
C                0.7619693330        0.9052409351       -0.0000000027
C                0.8093170997        0.9531005666       -0.0000000030
C                0.9037171874        0.0484354329       -0.0000000002
C                0.9516572409        0.0956165976       -0.0000000006
C                0.9035275533        0.1910628312        0.0000000005
C                0.9516668943        0.2382212736       -0.0000000002
C                0.9041022461        0.3335134321        0.0000000033
C                0.9519870288        0.3809687763        0.0000000030
C                0.9053427884        0.4762454524        0.0000000036
C                0.9526824177        0.5239436407       -0.0000000019
C                0.9053213241        0.6192142883       -0.0000000027
C                0.9530309091        0.6666783959       -0.0000000028
C                0.9052405844        0.7619695993       -0.0000000040
C                0.9531001101        0.8093174707       -0.0000000038
C                0.9048667830        0.9048671533       -0.0000000014
C                0.9524423598        0.9524425277        0.0000000007



     Writing config-only to output data dir /home/gregb26/links/scratch/qe_tmp/vacancy_relaxed/series/7x7/nspin2/vac_7x7_relax_nspin2.save/ :
     XML data file
     NEW-OLD atomic charge density approx. for the potential

     negative rho (up, down):  2.052E-06 2.110E-06
     Generating pointlists ...

     total cpu time spent up to now is      980.7 secs

     per-process dynamical memory:   262.1 Mb

     Self-consistent Calculation

     iteration #  1     ecut=   100.00 Ry     beta= 0.30
     Davidson diagonalization with overlap
     ethr =  1.00E-06,  avg # of iterations =  6.5

     negative rho (up, down):  1.927E-06 1.355E-06

     total cpu time spent up to now is      988.0 secs

     total energy              =   -1168.11321920 Ry
     estimated scf accuracy    <       0.00053833 Ry

     total magnetization       =     2.00 Bohr mag/cell
     absolute magnetization    =     2.85 Bohr mag/cell

     iteration #  2     ecut=   100.00 Ry     beta= 0.30
     Davidson diagonalization with overlap
     ethr =  1.39E-07,  avg # of iterations =  2.5

     negative rho (up, down):  1.088E-06 7.683E-07

     total cpu time spent up to now is      991.8 secs

     total energy              =   -1168.11329531 Ry
     estimated scf accuracy    <       0.00017818 Ry

     total magnetization       =     2.00 Bohr mag/cell
     absolute magnetization    =     2.85 Bohr mag/cell

     iteration #  3     ecut=   100.00 Ry     beta= 0.30
     Davidson diagonalization with overlap
     ethr =  4.59E-08,  avg # of iterations =  3.0

     negative rho (up, down):  3.611E-07 2.563E-07

     total cpu time spent up to now is      995.2 secs

     total energy              =   -1168.11331296 Ry
     estimated scf accuracy    <       0.00006068 Ry

     total magnetization       =     2.00 Bohr mag/cell
     absolute magnetization    =     2.85 Bohr mag/cell

     iteration #  4     ecut=   100.00 Ry     beta= 0.30
     Davidson diagonalization with overlap
     ethr =  1.56E-08,  avg # of iterations =  3.0

     negative rho (up, down):  1.548E-07 1.100E-07

     total cpu time spent up to now is      999.0 secs

     total energy              =   -1168.11331777 Ry
     estimated scf accuracy    <       0.00001592 Ry

     total magnetization       =     2.00 Bohr mag/cell
     absolute magnetization    =     2.84 Bohr mag/cell

     iteration #  5     ecut=   100.00 Ry     beta= 0.30
     Davidson diagonalization with overlap
     ethr =  4.10E-09,  avg # of iterations =  4.5

     negative rho (up, down):  7.713E-08 5.475E-08

     total cpu time spent up to now is     1002.8 secs

     total energy              =   -1168.11331767 Ry
     estimated scf accuracy    <       0.00001033 Ry

     total magnetization       =     2.00 Bohr mag/cell
     absolute magnetization    =     2.84 Bohr mag/cell

     iteration #  6     ecut=   100.00 Ry     beta= 0.30
     Davidson diagonalization with overlap
     ethr =  2.66E-09,  avg # of iterations =  3.5

     negative rho (up, down):  1.138E-08 7.768E-09

     total cpu time spent up to now is     1006.4 secs

     total energy              =   -1168.11331814 Ry
     estimated scf accuracy    <       0.00000717 Ry

     total magnetization       =     2.00 Bohr mag/cell
     absolute magnetization    =     2.84 Bohr mag/cell

     iteration #  7     ecut=   100.00 Ry     beta= 0.30
     Davidson diagonalization with overlap
     ethr =  1.85E-09,  avg # of iterations =  5.0

     total cpu time spent up to now is     1010.7 secs

     total energy              =   -1168.11332127 Ry
     estimated scf accuracy    <       0.00000190 Ry

     total magnetization       =     2.00 Bohr mag/cell
     absolute magnetization    =     2.83 Bohr mag/cell

     iteration #  8     ecut=   100.00 Ry     beta= 0.30
     Davidson diagonalization with overlap
     ethr =  4.90E-10,  avg # of iterations =  4.0

     total cpu time spent up to now is     1014.8 secs

     total energy              =   -1168.11332159 Ry
     estimated scf accuracy    <       0.00000064 Ry

     total magnetization       =     2.00 Bohr mag/cell
     absolute magnetization    =     2.83 Bohr mag/cell

     iteration #  9     ecut=   100.00 Ry     beta= 0.30
     Davidson diagonalization with overlap
     ethr =  1.66E-10,  avg # of iterations =  4.5

     negative rho (up, down):  1.160E-08 7.947E-09

     total cpu time spent up to now is     1018.9 secs

     total energy              =   -1168.11332058 Ry
     estimated scf accuracy    <       0.00000057 Ry

     total magnetization       =     2.00 Bohr mag/cell
     absolute magnetization    =     2.83 Bohr mag/cell

     iteration # 10     ecut=   100.00 Ry     beta= 0.30
     Davidson diagonalization with overlap
     ethr =  1.48E-10,  avg # of iterations =  5.5

     total cpu time spent up to now is     1023.6 secs

     total energy              =   -1168.11332034 Ry
     estimated scf accuracy    <       0.00000023 Ry

     total magnetization       =     2.00 Bohr mag/cell
     absolute magnetization    =     2.83 Bohr mag/cell

     iteration # 11     ecut=   100.00 Ry     beta= 0.30
     Davidson diagonalization with overlap
     ethr =  5.88E-11,  avg # of iterations =  5.5

     total cpu time spent up to now is     1028.3 secs

     total energy              =   -1168.11332038 Ry
     estimated scf accuracy    <       0.00000004 Ry

     total magnetization       =     2.00 Bohr mag/cell
     absolute magnetization    =     2.83 Bohr mag/cell

     iteration # 12     ecut=   100.00 Ry     beta= 0.30
     Davidson diagonalization with overlap
     ethr =  1.09E-11,  avg # of iterations =  6.5

     total cpu time spent up to now is     1033.2 secs

     total energy              =   -1168.11332038 Ry
     estimated scf accuracy    <          9.7E-09 Ry

     total magnetization       =     2.00 Bohr mag/cell
     absolute magnetization    =     2.83 Bohr mag/cell

     iteration # 13     ecut=   100.00 Ry     beta= 0.30
     Davidson diagonalization with overlap
     ethr =  2.50E-12,  avg # of iterations =  6.0

     total cpu time spent up to now is     1038.0 secs

     total energy              =   -1168.11332039 Ry
     estimated scf accuracy    <          2.9E-09 Ry

     total magnetization       =     2.00 Bohr mag/cell
     absolute magnetization    =     2.83 Bohr mag/cell

     iteration # 14     ecut=   100.00 Ry     beta= 0.30
     Davidson diagonalization with overlap
     ethr =  7.50E-13,  avg # of iterations =  5.0

     total cpu time spent up to now is     1042.6 secs

     total energy              =   -1168.11332040 Ry
     estimated scf accuracy    <          1.3E-09 Ry

     total magnetization       =     2.00 Bohr mag/cell
     absolute magnetization    =     2.83 Bohr mag/cell

     iteration # 15     ecut=   100.00 Ry     beta= 0.30
     Davidson diagonalization with overlap
     ethr =  3.28E-13,  avg # of iterations =  5.5

     total cpu time spent up to now is     1047.6 secs

     total energy              =   -1168.11332040 Ry
     estimated scf accuracy    <          4.9E-10 Ry

     total magnetization       =     2.00 Bohr mag/cell
     absolute magnetization    =     2.83 Bohr mag/cell

     iteration # 16     ecut=   100.00 Ry     beta= 0.30
     Davidson diagonalization with overlap
     ethr =  1.26E-13,  avg # of iterations =  5.5

     total cpu time spent up to now is     1052.9 secs

     total energy              =   -1168.11332040 Ry
     estimated scf accuracy    <          1.9E-10 Ry

     total magnetization       =     2.00 Bohr mag/cell
     absolute magnetization    =     2.83 Bohr mag/cell

     iteration # 17     ecut=   100.00 Ry     beta= 0.30
     Davidson diagonalization with overlap
     ethr =  1.00E-13,  avg # of iterations =  5.0

     Magnetic moment per site  (integrated on atomic sphere of radius R)
     atom   1 (R=0.032)  charge=  1.5201  magn= -0.0017
     atom   2 (R=0.032)  charge=  1.5239  magn=  0.0025
     atom   3 (R=0.032)  charge=  1.5248  magn= -0.0023
     atom   4 (R=0.032)  charge=  1.5257  magn=  0.0040
     atom   5 (R=0.032)  charge=  1.5294  magn= -0.0020
     atom   6 (R=0.032)  charge=  1.5293  magn=  0.0016
     atom   7 (R=0.032)  charge=  1.5296  magn= -0.0020
     atom   8 (R=0.032)  charge=  1.5280  magn=  0.0038
     atom   9 (R=0.032)  charge=  1.5257  magn= -0.0023
     atom  10 (R=0.032)  charge=  1.5219  magn=  0.0070
     atom  11 (R=0.032)  charge=  1.5235  magn= -0.0023
     atom  12 (R=0.032)  charge=  1.5125  magn=  0.0039
     atom  13 (R=0.032)  charge=  1.5156  magn= -0.0021
     atom  14 (R=0.032)  charge=  1.5220  magn=  0.0013
     atom  15 (R=0.032)  charge=  1.5248  magn= -0.0023
     atom  16 (R=0.032)  charge=  1.5257  magn=  0.0040
     atom  17 (R=0.032)  charge=  1.5298  magn= -0.0025
     atom  18 (R=0.032)  charge=  1.5275  magn=  0.0124
     atom  19 (R=0.032)  charge=  1.5334  magn= -0.0035
     atom  20 (R=0.032)  charge=  1.5344  magn=  0.0136
     atom  21 (R=0.032)  charge=  1.5291  magn= -0.0033
     atom  22 (R=0.032)  charge=  1.5243  magn=  0.0059
     atom  23 (R=0.032)  charge=  1.5245  magn= -0.0025
     atom  24 (R=0.032)  charge=  1.4931  magn=  0.0036
     atom  25 (R=0.032)  charge=  1.5080  magn= -0.0044
     atom  26 (R=0.032)  charge=  1.5219  magn=  0.0114
     atom  27 (R=0.032)  charge=  1.5207  magn= -0.0031
     atom  28 (R=0.032)  charge=  1.5235  magn=  0.0100
     atom  29 (R=0.032)  charge=  1.5294  magn= -0.0020
     atom  30 (R=0.032)  charge=  1.5293  magn=  0.0016
     atom  31 (R=0.032)  charge=  1.5334  magn= -0.0035
     atom  32 (R=0.032)  charge=  1.5344  magn=  0.0136
     atom  33 (R=0.032)  charge=  1.5442  magn= -0.0065
     atom  34 (R=0.032)  charge=  1.5506  magn=  0.0383
     atom  35 (R=0.032)  charge=  1.5392  magn= -0.0029
     atom  36 (R=0.032)  charge=  1.4084  magn=  0.0694
     atom  37 (R=0.032)  charge=  1.4764  magn= -0.0111
     atom  38 (R=0.032)  charge=  1.5181  magn=  0.0486
     atom  39 (R=0.032)  charge=  1.5195  magn= -0.0082
     atom  40 (R=0.032)  charge=  1.5216  magn=  0.0142
     atom  41 (R=0.032)  charge=  1.5256  magn= -0.0038
     atom  42 (R=0.032)  charge=  1.5266  magn=  0.0019
     atom  43 (R=0.032)  charge=  1.5296  magn= -0.0020
     atom  44 (R=0.032)  charge=  1.5280  magn=  0.0038
     atom  45 (R=0.032)  charge=  1.5291  magn= -0.0033
     atom  46 (R=0.032)  charge=  1.5243  magn=  0.0059
     atom  47 (R=0.032)  charge=  1.5392  magn= -0.0029
     atom  48 (R=0.032)  charge=  1.4084  magn=  0.0694
     atom  49 (R=0.032)  charge=  1.5001  magn=  0.3611
     atom  50 (R=0.032)  charge=  1.5502  magn= -0.0087
     atom  51 (R=0.032)  charge=  1.5329  magn=  0.0259
     atom  52 (R=0.032)  charge=  1.5343  magn= -0.0014
     atom  53 (R=0.032)  charge=  1.5320  magn=  0.0051
     atom  54 (R=0.032)  charge=  1.5303  magn= -0.0019
     atom  55 (R=0.032)  charge=  1.5303  magn=  0.0048
     atom  56 (R=0.032)  charge=  1.5257  magn= -0.0023
     atom  57 (R=0.032)  charge=  1.5219  magn=  0.0070
     atom  58 (R=0.032)  charge=  1.5245  magn= -0.0025
     atom  59 (R=0.032)  charge=  1.4931  magn=  0.0036
     atom  60 (R=0.032)  charge=  1.4764  magn= -0.0111
     atom  61 (R=0.032)  charge=  1.5181  magn=  0.0486
     atom  62 (R=0.032)  charge=  1.5502  magn= -0.0087
     atom  63 (R=0.032)  charge=  1.5329  magn=  0.0259
     atom  64 (R=0.032)  charge=  1.5364  magn= -0.0088
     atom  65 (R=0.032)  charge=  1.5333  magn=  0.0083
     atom  66 (R=0.032)  charge=  1.5301  magn= -0.0034
     atom  67 (R=0.032)  charge=  1.5308  magn=  0.0020
     atom  68 (R=0.032)  charge=  1.5271  magn= -0.0019
     atom  69 (R=0.032)  charge=  1.5271  magn=  0.0017
     atom  70 (R=0.032)  charge=  1.5235  magn= -0.0023
     atom  71 (R=0.032)  charge=  1.5124  magn=  0.0039
     atom  72 (R=0.032)  charge=  1.5080  magn= -0.0044
     atom  73 (R=0.032)  charge=  1.5219  magn=  0.0114
     atom  74 (R=0.032)  charge=  1.5195  magn= -0.0082
     atom  75 (R=0.032)  charge=  1.5216  magn=  0.0142
     atom  76 (R=0.032)  charge=  1.5343  magn= -0.0014
     atom  77 (R=0.032)  charge=  1.5321  magn=  0.0051
     atom  78 (R=0.032)  charge=  1.5301  magn= -0.0034
     atom  79 (R=0.032)  charge=  1.5308  magn=  0.0020
     atom  80 (R=0.032)  charge=  1.5268  magn= -0.0018
     atom  81 (R=0.032)  charge=  1.5266  magn=  0.0036
     atom  82 (R=0.032)  charge=  1.5250  magn= -0.0016
     atom  83 (R=0.032)  charge=  1.5220  magn=  0.0016
     atom  84 (R=0.032)  charge=  1.5156  magn= -0.0021
     atom  85 (R=0.032)  charge=  1.5220  magn=  0.0013
     atom  86 (R=0.032)  charge=  1.5207  magn= -0.0031
     atom  87 (R=0.032)  charge=  1.5235  magn=  0.0100
     atom  88 (R=0.032)  charge=  1.5256  magn= -0.0038
     atom  89 (R=0.032)  charge=  1.5266  magn=  0.0019
     atom  90 (R=0.032)  charge=  1.5303  magn= -0.0019
     atom  91 (R=0.032)  charge=  1.5303  magn=  0.0048
     atom  92 (R=0.032)  charge=  1.5271  magn= -0.0019
     atom  93 (R=0.032)  charge=  1.5271  magn=  0.0017
     atom  94 (R=0.032)  charge=  1.5250  magn= -0.0016
     atom  95 (R=0.032)  charge=  1.5220  magn=  0.0016
     atom  96 (R=0.032)  charge=  1.5222  magn= -0.0018
     atom  97 (R=0.032)  charge=  1.5163  magn=  0.0042

     total cpu time spent up to now is     1057.7 secs

     End of self-consistent calculation

 ------ SPIN UP ------------


          k = 0.0000 0.0000 0.0000 (233409 PWs)   bands (ev):

   -23.7960 -23.4042 -23.3592 -23.3308 -23.3089 -23.2693 -23.1381 -22.4152
   -22.3949 -22.3873 -22.3811 -22.3134 -22.2112 -21.9392 -21.9265 -21.9093
   -21.8772 -21.8385 -21.5784 -20.5565 -20.5514 -20.5350 -20.5338 -20.5235
   -20.5119 -20.5053 -20.5032 -20.4828 -20.4721 -20.3815 -20.0551 -19.6554
   -19.6348 -19.6057 -19.5682 -19.5556 -19.1953 -18.3630 -18.3481 -18.3418
   -18.3371 -18.2832 -18.2820 -18.2765 -18.2716 -18.2449 -18.2220 -18.1724
   -17.6310 -17.2467 -17.2428 -17.2387 -17.1689 -17.0877 -16.8086 -16.3363
   -16.3284 -16.3094 -16.2233 -16.1836 -16.0962 -15.8200 -15.8146 -15.8033
   -15.7153 -15.6920 -15.0697 -14.4343 -14.4233 -14.4068 -14.3986 -14.3838
   -14.3796 -14.3646 -14.3519 -14.3443 -14.3126 -14.2742 -14.1944 -14.1922
   -14.1487 -14.1359 -13.8660 -13.7565 -13.1590 -12.7115 -12.6971 -12.6508
   -12.5772 -12.5370 -12.2752 -12.1424 -12.1366 -12.1181 -11.9973 -11.9681
   -11.8820 -11.8636 -11.6668 -11.6454 -11.6253 -11.6122 -11.5997 -11.5951
   -11.5817 -11.5418 -11.5394 -11.4422 -11.3867 -11.3595 -11.3508 -11.3311
   -11.3297 -11.3092 -11.2800 -11.2112 -11.1758 -11.1742 -11.1307 -10.9829
   -10.9106 -10.6475 -10.6038 -10.5772 -10.5606 -10.3289 -10.3227 -10.2390
   -10.2139 -10.2112 -10.2085 -10.1554 -10.1026 -10.0386  -9.9806  -9.9633
    -9.9619  -9.8643  -9.8353  -9.7325  -9.7100  -9.7035  -9.6932  -9.6755
    -9.6738  -9.6394  -9.6333  -9.6249  -9.5938  -9.3694  -9.2998  -9.2982
    -9.1083  -9.1020  -9.0789  -8.5687  -8.5339  -8.2633  -8.2602  -8.2264
    -8.1903  -8.1879  -8.1395  -8.1311  -8.1305  -8.1134  -8.1129  -8.1012
    -8.0968  -8.0881  -8.0698  -8.0636  -8.0279  -7.7091  -7.4799  -7.4748
    -7.3309  -7.3018  -7.2990  -7.2824  -7.2442  -6.8969  -6.2188  -6.2175
    -6.1952  -6.1731  -6.1708  -6.0083  -5.8051  -5.7990  -5.7941  -5.7881
    -5.7293  -5.0068  -4.8468  -3.0418  -2.8313  -2.8135  -2.7921  -2.7887
    -2.7762  -2.7510  -2.7491  -2.7443  -2.7274  -2.6928  -2.6395  -2.1903
    -1.7908  -1.7636  -1.7507  -1.7130  -1.6552  -1.1992  -0.9774  -0.3578
    -0.3546  -0.3244  -0.3039  -0.2983  -0.2915  -0.2876  -0.2652  -0.2611

 ------ SPIN DOWN ----------


          k = 0.0000 0.0000 0.0000 (233409 PWs)   bands (ev):

   -23.7828 -23.3762 -23.3532 -23.3240 -23.3021 -23.2549 -23.0838 -22.3861
   -22.3792 -22.3664 -22.3662 -22.3028 -22.1898 -21.9135 -21.9106 -21.8882
   -21.8578 -21.8193 -21.5094 -20.5493 -20.5425 -20.5158 -20.5075 -20.5061
   -20.4934 -20.4922 -20.4818 -20.4635 -20.4276 -20.3569 -20.0162 -19.6268
   -19.6181 -19.5930 -19.5354 -19.5270 -19.1395 -18.3459 -18.3368 -18.3288
   -18.3257 -18.2791 -18.2731 -18.2545 -18.2514 -18.2212 -18.2036 -18.0846
   -17.5293 -17.2359 -17.2311 -17.2291 -17.1329 -17.0720 -16.7521 -16.3148
   -16.3123 -16.2944 -16.1925 -16.1645 -16.0785 -15.8096 -15.7945 -15.7939
   -15.6869 -15.6095 -15.0016 -14.4127 -14.4008 -14.3924 -14.3848 -14.3770
   -14.3658 -14.3438 -14.3332 -14.3273 -14.2952 -14.2365 -14.1846 -14.1839
   -14.1431 -14.1173 -13.7887 -13.7264 -13.0795 -12.6908 -12.6695 -12.6373
   -12.5614 -12.4973 -12.2462 -12.1285 -12.1231 -12.0960 -11.9908 -11.9537
   -11.8611 -11.8261 -11.6422 -11.6355 -11.6166 -11.6010 -11.5880 -11.5792
   -11.5602 -11.5269 -11.5266 -11.4136 -11.3498 -11.3403 -11.3366 -11.3160
   -11.3055 -11.3000 -11.2529 -11.1941 -11.1631 -11.1573 -11.0573 -10.9731
   -10.8650 -10.6410 -10.5858 -10.5725 -10.5401 -10.2961 -10.2941 -10.1967
   -10.1961 -10.1848 -10.1813 -10.1327 -10.0608 -10.0037  -9.9590  -9.9501
    -9.9485  -9.8598  -9.8250  -9.7105  -9.6862  -9.6771  -9.6563  -9.6538
    -9.6380  -9.6239  -9.6103  -9.5910  -9.4878  -9.2773  -9.2686  -9.2615
    -9.1001  -9.0859  -9.0658  -8.5507  -8.4968  -8.2459  -8.2183  -8.2169
    -8.1769  -8.1177  -8.1093  -8.0917  -8.0897  -8.0737  -8.0728  -8.0697
    -8.0568  -8.0475  -8.0153  -7.9863  -7.9108  -7.6600  -7.4671  -7.4183
    -7.2949  -7.2884  -7.2705  -7.2388  -7.1936  -6.8236  -6.1954  -6.1902
    -6.1737  -6.1450  -6.1142  -5.9706  -5.7805  -5.7802  -5.7503  -5.7010
    -5.6765  -4.4911  -2.8224  -2.7932  -2.7784  -2.7686  -2.7653  -2.7578
    -2.7496  -2.7348  -2.7304  -2.7217  -2.7119  -2.5543  -2.5324  -2.1472
    -1.7737  -1.7508  -1.7107  -1.6241  -1.6064  -1.1275  -0.9701  -0.3440
    -0.3374  -0.3011  -0.2818  -0.2728  -0.2575  -0.2563  -0.2333  -0.2312

     the Fermi energy is    -4.7352 ev

!    total energy              =   -1168.11332040 Ry
     estimated scf accuracy    <          5.5E-11 Ry
     smearing contrib. (-TS)   =       0.00140249 Ry
     internal energy E=F+TS    =   -1168.11472289 Ry

     The total energy is F=E-TS. E is the sum of the following terms:
     one-electron contribution =  -13176.06971551 Ry
     hartree contribution      =    6624.27442302 Ry
     xc contribution           =    -415.44107858 Ry
     ewald contribution        =    5799.12164818 Ry

     total magnetization       =     2.00 Bohr mag/cell
     absolute magnetization    =     2.83 Bohr mag/cell

     convergence has been achieved in  17 iterations

     Forces acting on atoms (cartesian axes, Ry/au):

     atom    1 type  1   force =    -0.00110113   -0.00000018   -0.00000000
     atom    2 type  1   force =    -0.00203064   -0.00000109   -0.00000000
     atom    3 type  1   force =    -0.00180806    0.00125800    0.00000001
     atom    4 type  1   force =    -0.00220002   -0.00000876   -0.00000001
     atom    5 type  1   force =    -0.00227399   -0.00000702   -0.00000000
     atom    6 type  1   force =    -0.00072054   -0.00129012   -0.00000001
     atom    7 type  1   force =     0.00030291   -0.00104500    0.00000002
     atom    8 type  1   force =     0.00020175   -0.00166193    0.00000001
     atom    9 type  1   force =     0.00002336   -0.00028413   -0.00000001
     atom   10 type  1   force =    -0.00010858    0.00001784   -0.00000001
     atom   11 type  1   force =     0.00013226   -0.00001067   -0.00000001
     atom   12 type  1   force =    -0.00000851   -0.00081336    0.00000002
     atom   13 type  1   force =    -0.00031649   -0.00177962   -0.00000000
     atom   14 type  1   force =     0.00031007    0.00149600   -0.00000001
     atom   15 type  1   force =    -0.00180851   -0.00125958   -0.00000001
     atom   16 type  1   force =    -0.00220013    0.00000742    0.00000000
     atom   17 type  1   force =    -0.00259941   -0.00000067   -0.00000002
     atom   18 type  1   force =    -0.00169893    0.00000019   -0.00000003
     atom   19 type  1   force =    -0.00076630   -0.00035066    0.00000000
     atom   20 type  1   force =    -0.00043183    0.00084675    0.00000001
     atom   21 type  1   force =     0.00084005   -0.00221120    0.00000003
     atom   22 type  1   force =     0.00144223    0.00086948   -0.00000000
     atom   23 type  1   force =     0.00056120   -0.00334601    0.00000004
     atom   24 type  1   force =    -0.00047512   -0.00147492    0.00000003
     atom   25 type  1   force =    -0.00034267   -0.00181598    0.00000000
     atom   26 type  1   force =    -0.00013461   -0.00054009    0.00000000
     atom   27 type  1   force =    -0.00147720   -0.00168013   -0.00000001
     atom   28 type  1   force =     0.00020355    0.00051122   -0.00000001
     atom   29 type  1   force =    -0.00227397    0.00000623    0.00000000
     atom   30 type  1   force =    -0.00072147    0.00129028    0.00000001
     atom   31 type  1   force =    -0.00076669    0.00035055    0.00000000
     atom   32 type  1   force =    -0.00043259   -0.00084590    0.00000000
     atom   33 type  1   force =    -0.00181179   -0.00000020   -0.00000002
     atom   34 type  1   force =     0.00365020   -0.00000087   -0.00000001
     atom   35 type  1   force =     0.00293006    0.00172979   -0.00000001
     atom   36 type  2   force =    -0.00421200   -0.00384762   -0.00000003
     atom   37 type  1   force =    -0.00078091    0.00345059   -0.00000003
     atom   38 type  1   force =     0.00180932   -0.00267933    0.00000001
     atom   39 type  1   force =    -0.00204532    0.00141450   -0.00000000
     atom   40 type  1   force =     0.00295677   -0.00413339   -0.00000002
     atom   41 type  1   force =    -0.00123076   -0.00105602   -0.00000002
     atom   42 type  1   force =     0.00105765    0.00022260   -0.00000001
     atom   43 type  1   force =     0.00030163    0.00104459    0.00000001
     atom   44 type  1   force =     0.00019991    0.00166187   -0.00000001
     atom   45 type  1   force =     0.00083722    0.00220966    0.00000002
     atom   46 type  1   force =     0.00143723   -0.00087252    0.00000001
     atom   47 type  1   force =     0.00292659   -0.00173245    0.00000006
     atom   48 type  2   force =    -0.00421645    0.00384120    0.00000006
     atom   49 type  2   force =    -0.00447016   -0.00000261   -0.00000001
     atom   50 type  1   force =     0.00261428    0.00119636   -0.00000001
     atom   51 type  1   force =     0.00316996   -0.00080125   -0.00000001
     atom   52 type  1   force =    -0.00306565   -0.00094308   -0.00000000
     atom   53 type  1   force =     0.00055142   -0.00320963    0.00000000
     atom   54 type  1   force =    -0.00129884   -0.00058860   -0.00000000
     atom   55 type  1   force =     0.00080067    0.00049253   -0.00000000
     atom   56 type  1   force =     0.00002249    0.00028330   -0.00000000
     atom   57 type  1   force =    -0.00010914   -0.00001818    0.00000001
     atom   58 type  1   force =     0.00056081    0.00334442   -0.00000001
     atom   59 type  1   force =    -0.00047890    0.00147218    0.00000001
     atom   60 type  1   force =    -0.00078457   -0.00345101    0.00000001
     atom   61 type  1   force =     0.00180745    0.00268196   -0.00000001
     atom   62 type  1   force =     0.00260657   -0.00118435    0.00000003
     atom   63 type  1   force =     0.00316837    0.00080243    0.00000002
     atom   64 type  1   force =    -0.00636020    0.00000121    0.00000001
     atom   65 type  1   force =     0.00165976   -0.00000061    0.00000002
     atom   66 type  1   force =     0.00255471    0.00106530   -0.00000000
     atom   67 type  1   force =     0.00294215   -0.00017245    0.00000000
     atom   68 type  1   force =     0.00107546   -0.00010608   -0.00000000
     atom   69 type  1   force =     0.00019136   -0.00074494   -0.00000001
     atom   70 type  1   force =     0.00013277    0.00001038    0.00000000
     atom   71 type  1   force =    -0.00000711    0.00081296    0.00000001
     atom   72 type  1   force =    -0.00034227    0.00181612    0.00000001
     atom   73 type  1   force =    -0.00013383    0.00054131   -0.00000003
     atom   74 type  1   force =    -0.00204772   -0.00141148   -0.00000002
     atom   75 type  1   force =     0.00295532    0.00413549   -0.00000000
     atom   76 type  1   force =    -0.00306781    0.00094398   -0.00000000
     atom   77 type  1   force =     0.00054902    0.00320997   -0.00000002
     atom   78 type  1   force =     0.00255448   -0.00106454   -0.00000000
     atom   79 type  1   force =     0.00294081    0.00017281    0.00000000
     atom   80 type  1   force =     0.00227428    0.00000056    0.00000001
     atom   81 type  1   force =     0.00227447    0.00000098    0.00000002
     atom   82 type  1   force =     0.00196275    0.00078061   -0.00000002
     atom   83 type  1   force =    -0.00016427   -0.00186088   -0.00000002
     atom   84 type  1   force =    -0.00031578    0.00177883   -0.00000002
     atom   85 type  1   force =     0.00031075   -0.00149498   -0.00000000
     atom   86 type  1   force =    -0.00147700    0.00168087   -0.00000000
     atom   87 type  1   force =     0.00020362   -0.00051073    0.00000002
     atom   88 type  1   force =    -0.00123125    0.00105544    0.00000001
     atom   89 type  1   force =     0.00105541   -0.00022136    0.00000000
     atom   90 type  1   force =    -0.00129826    0.00058728   -0.00000000
     atom   91 type  1   force =     0.00080044   -0.00049293    0.00000001
     atom   92 type  1   force =     0.00107571    0.00010620   -0.00000001
     atom   93 type  1   force =     0.00019192    0.00074472    0.00000000
     atom   94 type  1   force =     0.00196275   -0.00077950    0.00000001
     atom   95 type  1   force =    -0.00016475    0.00186145    0.00000001
     atom   96 type  1   force =     0.00065528   -0.00000023    0.00000000
     atom   97 type  1   force =     0.00006292    0.00000045   -0.00000001

     Total force =     0.023868     Total SCF correction =     0.000005
     Energy error            =      9.6E-04 Ry
     Gradient error          =      6.4E-03 Ry/Bohr

     number of scf cycles    =  12
     number of bfgs steps    =  11

     energy             old  =   -1168.1123624961 Ry
     energy             new  =   -1168.1133203993 Ry

     CASE: energy            _new < energy            _old

     new trust radius        =       0.0263866419 bohr
     new conv_thr            =            6.4E-11 Ry


ATOMIC_POSITIONS (crystal)
C                0.0473112372        0.0473107763       -0.0000000009
C                0.0949058283        0.0949054200       -0.0000000000
C                0.0470185115        0.1903154594       -0.0000000000
C                0.0946641470        0.2378218311        0.0000000035
C                0.0470137866        0.3331242318        0.0000000022
C                0.0944498939        0.3807592140       -0.0000000016
C                0.0476564222        0.4760105029       -0.0000000043
C                0.0953430677        0.5234813946       -0.0000000014
C                0.0483865004        0.6187243322       -0.0000000012
C                0.0965723940        0.6657505452        0.0000000001
C                0.0488182906        0.7609715932       -0.0000000029
C                0.0974036079        0.8075090464       -0.0000000006
C                0.0484711912        0.9036741213        0.0000000001
C                0.0956215565        0.9516210815       -0.0000000020
C                0.1903158546        0.0470179971        0.0000000029
C                0.2378220947        0.0946638124        0.0000000053
C                0.1899446742        0.1899444013        0.0000000041
C                0.2374006765        0.2374005285        0.0000000005
C                0.1894001678        0.3327080690       -0.0000000005
C                0.2366084639        0.3801312441       -0.0000000003
C                0.1904391378        0.4751932345        0.0000000042
C                0.2388457202        0.5220964903        0.0000000083
C                0.1926697885        0.6168683501        0.0000000046
C                0.2436019941        0.6610171258        0.0000000025
C                0.1939067448        0.7580848556       -0.0000000021
C                0.2395368837        0.8075817437       -0.0000000056
C                0.1911366975        0.9033666712       -0.0000000054
C                0.2382317333        0.9515709589       -0.0000000003
C                0.3331244868        0.0470134333        0.0000000035
C                0.3807593321        0.0944498666        0.0000000024
C                0.3327082224        0.1894002175       -0.0000000002
C                0.3801311562        0.2366088680       -0.0000000014
C                0.3315574146        0.3315577907       -0.0000000009
C                0.3782057394        0.3782064167        0.0000000032
C                0.3345004487        0.4727403848        0.0000000089
C1               0.3887189105        0.5115700739        0.0000000072
C                0.3422736614        0.6094161304        0.0000000053
C                0.3836720276        0.6640447621        0.0000000023
C                0.3349264728        0.7594938491       -0.0000000022
C                0.3816947906        0.8087339904        0.0000000006
C                0.3335449845        0.9040107792        0.0000000020
C                0.3809716240        0.9519516782        0.0000000010
C                0.4760105501        0.0476567374        0.0000000002
C                0.5234812323        0.0953438425       -0.0000000023
C                0.4751931294        0.1904400951       -0.0000000015
C                0.5220961428        0.2388471512       -0.0000000017
C                0.4727398187        0.3345020105       -0.0000000012
C1               0.5115694073        0.3887207491       -0.0000000041
C1               0.5290358673        0.5290340715        0.0000000011
C                0.4785149016        0.6205145277       -0.0000000011
C                0.5256001601        0.6685876140        0.0000000011
C                0.4768776485        0.7630742390        0.0000000014
C                0.5243484425        0.8105670925        0.0000000032
C                0.4762358881        0.9054176274        0.0000000016
C                0.5239699749        0.9527246718        0.0000000007
C                0.6187240964        0.0483872784       -0.0000000044
C                0.6657501536        0.0965734046       -0.0000000065
C                0.6168680181        0.1926710041       -0.0000000031
C                0.6610169993        0.2436030497       -0.0000000004
C                0.6094161367        0.3422746444       -0.0000000042
C                0.6640460676        0.3836716754       -0.0000000052
C                0.6205160208        0.4785143711       -0.0000000061
C                0.6685889226        0.5255995993       -0.0000000025
C                0.6205211223        0.6205206313        0.0000000012
C                0.6679286511        0.6679284534        0.0000000011
C                0.6196229719        0.7629911338        0.0000000031
C                0.6671573472        0.8103035185        0.0000000033
C                0.6192535461        0.9054319509        0.0000000008
C                0.6667275727        0.9530792669       -0.0000000034
C                0.7609712121        0.0488189162       -0.0000000066
C                0.8075088597        0.0974040294       -0.0000000028
C                0.7580849375        0.1939071656        0.0000000003
C                0.8075825154        0.2395365775        0.0000000029
C                0.7594950909        0.3349259821        0.0000000006
C                0.8087350473        0.3816944119        0.0000000025
C                0.7630753516        0.4768772584        0.0000000012
C                0.8105675965        0.5243483767        0.0000000048
C                0.7629912719        0.6196229901        0.0000000006
C                0.8103033401        0.6671575442       -0.0000000014
C                0.7624269337        0.7624271849        0.0000000010
C                0.8099422315        0.8099426084       -0.0000000022
C                0.7620113305        0.9053356506       -0.0000000035
C                0.8093665494        0.9531183100       -0.0000000039
C                0.9036740330        0.0484713235       -0.0000000007
C                0.9516215064        0.0956211745       -0.0000000007
C                0.9033673897        0.1911362313        0.0000000010
C                0.9515715987        0.2382313364        0.0000000005
C                0.9040116905        0.3335445669        0.0000000038
C                0.9519521726        0.3809714590        0.0000000037
C                0.9054179524        0.4762357906        0.0000000036
C                0.9527245302        0.5239700658       -0.0000000018
C                0.9054316520        0.6192537102       -0.0000000029
C                0.9530786744        0.6667278866       -0.0000000029
C                0.9053351958        0.7620116844       -0.0000000037
C                0.9531177546        0.8093669894       -0.0000000039
C                0.9048957324        0.9048961594       -0.0000000016
C                0.9524502447        0.9524504552        0.0000000005



     Writing config-only to output data dir /home/gregb26/links/scratch/qe_tmp/vacancy_relaxed/series/7x7/nspin2/vac_7x7_relax_nspin2.save/ :
     XML data file
     NEW-OLD atomic charge density approx. for the potential

     negative rho (up, down):  1.634E-06 1.733E-06
     Generating pointlists ...

     total cpu time spent up to now is     1060.1 secs

     per-process dynamical memory:   262.1 Mb

     Self-consistent Calculation

     iteration #  1     ecut=   100.00 Ry     beta= 0.30
     Davidson diagonalization with overlap
     ethr =  1.00E-06,  avg # of iterations =  6.0

     negative rho (up, down):  1.797E-06 1.760E-06

     total cpu time spent up to now is     1067.0 secs

     total energy              =   -1168.11361427 Ry
     estimated scf accuracy    <       0.00043296 Ry

     total magnetization       =     2.00 Bohr mag/cell
     absolute magnetization    =     2.82 Bohr mag/cell

     iteration #  2     ecut=   100.00 Ry     beta= 0.30
     Davidson diagonalization with overlap
     ethr =  1.12E-07,  avg # of iterations =  4.0

     negative rho (up, down):  1.055E-06 1.040E-06

     total cpu time spent up to now is     1071.2 secs

     total energy              =   -1168.11365764 Ry
     estimated scf accuracy    <       0.00017169 Ry

     total magnetization       =     2.00 Bohr mag/cell
     absolute magnetization    =     2.82 Bohr mag/cell

     iteration #  3     ecut=   100.00 Ry     beta= 0.30
     Davidson diagonalization with overlap
     ethr =  4.43E-08,  avg # of iterations =  2.5
     Minimization algorithm failed to find Fermi energy: reverting to bisection
     Possible cause: smearing is larger than the electronic band-gap.

     negative rho (up, down):  4.358E-07 4.351E-07

     total cpu time spent up to now is     1074.7 secs

     total energy              =   -1168.11366811 Ry
     estimated scf accuracy    <       0.00005640 Ry

     total magnetization       =     2.00 Bohr mag/cell
     absolute magnetization    =     2.83 Bohr mag/cell

     iteration #  4     ecut=   100.00 Ry     beta= 0.30
     Davidson diagonalization with overlap
     ethr =  1.45E-08,  avg # of iterations =  3.0

     negative rho (up, down):  1.749E-07 1.769E-07

     total cpu time spent up to now is     1078.5 secs

     total energy              =   -1168.11367500 Ry
     estimated scf accuracy    <       0.00001281 Ry

     total magnetization       =     2.00 Bohr mag/cell
     absolute magnetization    =     2.83 Bohr mag/cell

     iteration #  5     ecut=   100.00 Ry     beta= 0.30
     Davidson diagonalization with overlap
     ethr =  3.30E-09,  avg # of iterations =  3.5
     Minimization algorithm failed to find Fermi energy: reverting to bisection
     Possible cause: smearing is larger than the electronic band-gap.

     negative rho (up, down):  5.871E-08 6.046E-08

     total cpu time spent up to now is     1082.2 secs

     total energy              =   -1168.11367727 Ry
     estimated scf accuracy    <       0.00000185 Ry

     total magnetization       =     2.00 Bohr mag/cell
     absolute magnetization    =     2.83 Bohr mag/cell

     iteration #  6     ecut=   100.00 Ry     beta= 0.30
     Davidson diagonalization with overlap
     ethr =  4.77E-10,  avg # of iterations =  4.5
     Minimization algorithm failed to find Fermi energy: reverting to bisection
     Possible cause: smearing is larger than the electronic band-gap.

     negative rho (up, down):  2.162E-08 2.276E-08

     total cpu time spent up to now is     1086.6 secs

     total energy              =   -1168.11367772 Ry
     estimated scf accuracy    <       0.00000050 Ry

     total magnetization       =     2.00 Bohr mag/cell
     absolute magnetization    =     2.83 Bohr mag/cell

     iteration #  7     ecut=   100.00 Ry     beta= 0.30
     Davidson diagonalization with overlap
     ethr =  1.29E-10,  avg # of iterations =  3.5
     Minimization algorithm failed to find Fermi energy: reverting to bisection
     Possible cause: smearing is larger than the electronic band-gap.

     total cpu time spent up to now is     1090.3 secs

     total energy              =   -1168.11367783 Ry
     estimated scf accuracy    <       0.00000015 Ry

     total magnetization       =     2.00 Bohr mag/cell
     absolute magnetization    =     2.83 Bohr mag/cell

     iteration #  8     ecut=   100.00 Ry     beta= 0.30
     Davidson diagonalization with overlap
     ethr =  3.93E-11,  avg # of iterations =  4.0
     Minimization algorithm failed to find Fermi energy: reverting to bisection
     Possible cause: smearing is larger than the electronic band-gap.

     total cpu time spent up to now is     1094.4 secs

     total energy              =   -1168.11367785 Ry
     estimated scf accuracy    <       0.00000003 Ry

     total magnetization       =     2.00 Bohr mag/cell
     absolute magnetization    =     2.83 Bohr mag/cell

     iteration #  9     ecut=   100.00 Ry     beta= 0.30
     Davidson diagonalization with overlap
     ethr =  8.93E-12,  avg # of iterations =  4.5
     Minimization algorithm failed to find Fermi energy: reverting to bisection
     Possible cause: smearing is larger than the electronic band-gap.

     total cpu time spent up to now is     1098.6 secs

     total energy              =   -1168.11367787 Ry
     estimated scf accuracy    <       0.00000001 Ry

     total magnetization       =     2.00 Bohr mag/cell
     absolute magnetization    =     2.83 Bohr mag/cell

     iteration # 10     ecut=   100.00 Ry     beta= 0.30
     Davidson diagonalization with overlap
     ethr =  3.23E-12,  avg # of iterations =  3.5
     Minimization algorithm failed to find Fermi energy: reverting to bisection
     Possible cause: smearing is larger than the electronic band-gap.

     total cpu time spent up to now is     1102.7 secs

     total energy              =   -1168.11367787 Ry
     estimated scf accuracy    <          3.3E-09 Ry

     total magnetization       =     2.00 Bohr mag/cell
     absolute magnetization    =     2.84 Bohr mag/cell

     iteration # 11     ecut=   100.00 Ry     beta= 0.30
     Davidson diagonalization with overlap
     ethr =  8.51E-13,  avg # of iterations =  4.5

     total cpu time spent up to now is     1107.3 secs

     total energy              =   -1168.11367787 Ry
     estimated scf accuracy    <          9.9E-10 Ry

     total magnetization       =     2.00 Bohr mag/cell
     absolute magnetization    =     2.84 Bohr mag/cell

     iteration # 12     ecut=   100.00 Ry     beta= 0.30
     Davidson diagonalization with overlap
     ethr =  2.54E-13,  avg # of iterations =  4.5

     total cpu time spent up to now is     1112.1 secs

     total energy              =   -1168.11367788 Ry
     estimated scf accuracy    <          3.3E-10 Ry

     total magnetization       =     2.00 Bohr mag/cell
     absolute magnetization    =     2.84 Bohr mag/cell

     iteration # 13     ecut=   100.00 Ry     beta= 0.30
     Davidson diagonalization with overlap
     ethr =  1.00E-13,  avg # of iterations =  4.0

     total cpu time spent up to now is     1116.7 secs

     total energy              =   -1168.11367788 Ry
     estimated scf accuracy    <          2.0E-10 Ry

     total magnetization       =     2.00 Bohr mag/cell
     absolute magnetization    =     2.84 Bohr mag/cell

     iteration # 14     ecut=   100.00 Ry     beta= 0.30
     Davidson diagonalization with overlap
     ethr =  1.00E-13,  avg # of iterations =  5.0
     Minimization algorithm failed to find Fermi energy: reverting to bisection
     Possible cause: smearing is larger than the electronic band-gap.

     Magnetic moment per site  (integrated on atomic sphere of radius R)
     atom   1 (R=0.032)  charge=  1.5206  magn= -0.0017
     atom   2 (R=0.032)  charge=  1.5238  magn=  0.0025
     atom   3 (R=0.032)  charge=  1.5252  magn= -0.0023
     atom   4 (R=0.032)  charge=  1.5261  magn=  0.0042
     atom   5 (R=0.032)  charge=  1.5297  magn= -0.0020
     atom   6 (R=0.032)  charge=  1.5293  magn=  0.0016
     atom   7 (R=0.032)  charge=  1.5297  magn= -0.0021
     atom   8 (R=0.032)  charge=  1.5275  magn=  0.0040
     atom   9 (R=0.032)  charge=  1.5258  magn= -0.0023
     atom  10 (R=0.032)  charge=  1.5211  magn=  0.0073
     atom  11 (R=0.032)  charge=  1.5235  magn= -0.0024
     atom  12 (R=0.032)  charge=  1.5117  magn=  0.0040
     atom  13 (R=0.032)  charge=  1.5154  magn= -0.0022
     atom  14 (R=0.032)  charge=  1.5218  magn=  0.0013
     atom  15 (R=0.032)  charge=  1.5252  magn= -0.0023
     atom  16 (R=0.032)  charge=  1.5261  magn=  0.0042
     atom  17 (R=0.032)  charge=  1.5301  magn= -0.0026
     atom  18 (R=0.032)  charge=  1.5278  magn=  0.0128
     atom  19 (R=0.032)  charge=  1.5331  magn= -0.0036
     atom  20 (R=0.032)  charge=  1.5349  magn=  0.0140
     atom  21 (R=0.032)  charge=  1.5285  magn= -0.0035
     atom  22 (R=0.032)  charge=  1.5241  magn=  0.0059
     atom  23 (R=0.032)  charge=  1.5242  magn= -0.0024
     atom  24 (R=0.032)  charge=  1.4920  magn=  0.0036
     atom  25 (R=0.032)  charge=  1.5064  magn= -0.0045
     atom  26 (R=0.032)  charge=  1.5220  magn=  0.0117
     atom  27 (R=0.032)  charge=  1.5203  magn= -0.0032
     atom  28 (R=0.032)  charge=  1.5235  magn=  0.0102
     atom  29 (R=0.032)  charge=  1.5297  magn= -0.0020
     atom  30 (R=0.032)  charge=  1.5293  magn=  0.0016
     atom  31 (R=0.032)  charge=  1.5331  magn= -0.0036
     atom  32 (R=0.032)  charge=  1.5349  magn=  0.0140
     atom  33 (R=0.032)  charge=  1.5433  magn= -0.0066
     atom  34 (R=0.032)  charge=  1.5505  magn=  0.0396
     atom  35 (R=0.032)  charge=  1.5393  magn= -0.0030
     atom  36 (R=0.032)  charge=  1.4058  magn=  0.0696
     atom  37 (R=0.032)  charge=  1.4727  magn= -0.0111
     atom  38 (R=0.032)  charge=  1.5180  magn=  0.0488
     atom  39 (R=0.032)  charge=  1.5179  magn= -0.0083
     atom  40 (R=0.032)  charge=  1.5209  magn=  0.0145
     atom  41 (R=0.032)  charge=  1.5252  magn= -0.0038
     atom  42 (R=0.032)  charge=  1.5267  magn=  0.0019
     atom  43 (R=0.032)  charge=  1.5297  magn= -0.0021
     atom  44 (R=0.032)  charge=  1.5275  magn=  0.0040
     atom  45 (R=0.032)  charge=  1.5285  magn= -0.0035
     atom  46 (R=0.032)  charge=  1.5241  magn=  0.0059
     atom  47 (R=0.032)  charge=  1.5393  magn= -0.0030
     atom  48 (R=0.032)  charge=  1.4058  magn=  0.0696
     atom  49 (R=0.032)  charge=  1.4976  magn=  0.3545
     atom  50 (R=0.032)  charge=  1.5497  magn= -0.0089
     atom  51 (R=0.032)  charge=  1.5333  magn=  0.0253
     atom  52 (R=0.032)  charge=  1.5347  magn= -0.0016
     atom  53 (R=0.032)  charge=  1.5311  magn=  0.0052
     atom  54 (R=0.032)  charge=  1.5300  magn= -0.0020
     atom  55 (R=0.032)  charge=  1.5304  magn=  0.0050
     atom  56 (R=0.032)  charge=  1.5258  magn= -0.0023
     atom  57 (R=0.032)  charge=  1.5211  magn=  0.0073
     atom  58 (R=0.032)  charge=  1.5242  magn= -0.0024
     atom  59 (R=0.032)  charge=  1.4920  magn=  0.0036
     atom  60 (R=0.032)  charge=  1.4727  magn= -0.0111
     atom  61 (R=0.032)  charge=  1.5180  magn=  0.0488
     atom  62 (R=0.032)  charge=  1.5497  magn= -0.0089
     atom  63 (R=0.032)  charge=  1.5333  magn=  0.0253
     atom  64 (R=0.032)  charge=  1.5366  magn= -0.0088
     atom  65 (R=0.032)  charge=  1.5312  magn=  0.0087
     atom  66 (R=0.032)  charge=  1.5308  magn= -0.0034
     atom  67 (R=0.032)  charge=  1.5311  magn=  0.0021
     atom  68 (R=0.032)  charge=  1.5275  magn= -0.0020
     atom  69 (R=0.032)  charge=  1.5279  magn=  0.0017
     atom  70 (R=0.032)  charge=  1.5235  magn= -0.0024
     atom  71 (R=0.032)  charge=  1.5117  magn=  0.0040
     atom  72 (R=0.032)  charge=  1.5064  magn= -0.0045
     atom  73 (R=0.032)  charge=  1.5220  magn=  0.0117
     atom  74 (R=0.032)  charge=  1.5179  magn= -0.0083
     atom  75 (R=0.032)  charge=  1.5209  magn=  0.0145
     atom  76 (R=0.032)  charge=  1.5347  magn= -0.0016
     atom  77 (R=0.032)  charge=  1.5311  magn=  0.0052
     atom  78 (R=0.032)  charge=  1.5308  magn= -0.0034
     atom  79 (R=0.032)  charge=  1.5311  magn=  0.0021
     atom  80 (R=0.032)  charge=  1.5273  magn= -0.0019
     atom  81 (R=0.032)  charge=  1.5273  magn=  0.0038
     atom  82 (R=0.032)  charge=  1.5255  magn= -0.0016
     atom  83 (R=0.032)  charge=  1.5226  magn=  0.0017
     atom  84 (R=0.032)  charge=  1.5154  magn= -0.0022
     atom  85 (R=0.032)  charge=  1.5218  magn=  0.0013
     atom  86 (R=0.032)  charge=  1.5203  magn= -0.0032
     atom  87 (R=0.032)  charge=  1.5235  magn=  0.0102
     atom  88 (R=0.032)  charge=  1.5252  magn= -0.0038
     atom  89 (R=0.032)  charge=  1.5267  magn=  0.0019
     atom  90 (R=0.032)  charge=  1.5300  magn= -0.0020
     atom  91 (R=0.032)  charge=  1.5304  magn=  0.0050
     atom  92 (R=0.032)  charge=  1.5275  magn= -0.0020
     atom  93 (R=0.032)  charge=  1.5279  magn=  0.0017
     atom  94 (R=0.032)  charge=  1.5255  magn= -0.0016
     atom  95 (R=0.032)  charge=  1.5226  magn=  0.0017
     atom  96 (R=0.032)  charge=  1.5228  magn= -0.0018
     atom  97 (R=0.032)  charge=  1.5162  magn=  0.0044

     total cpu time spent up to now is     1121.4 secs

     End of self-consistent calculation

 ------ SPIN UP ------------


          k = 0.0000 0.0000 0.0000 (233409 PWs)   bands (ev):

   -23.7959 -23.4049 -23.3589 -23.3325 -23.3078 -23.2626 -23.1416 -22.4208
   -22.3923 -22.3855 -22.3785 -22.3104 -22.2136 -21.9407 -21.9286 -21.9073
   -21.8734 -21.8349 -21.5824 -20.5555 -20.5533 -20.5349 -20.5300 -20.5242
   -20.5123 -20.5086 -20.5037 -20.4822 -20.4678 -20.3753 -20.0592 -19.6552
   -19.6355 -19.6065 -19.5670 -19.5537 -19.1967 -18.3636 -18.3482 -18.3456
   -18.3365 -18.2830 -18.2807 -18.2721 -18.2654 -18.2450 -18.2180 -18.1769
   -17.6303 -17.2453 -17.2445 -17.2331 -17.1740 -17.0883 -16.8157 -16.3336
   -16.3287 -16.3059 -16.2238 -16.1859 -16.0984 -15.8201 -15.8132 -15.8014
   -15.7120 -15.6930 -15.0781 -14.4345 -14.4237 -14.4017 -14.3976 -14.3834
   -14.3823 -14.3692 -14.3470 -14.3381 -14.3087 -14.2720 -14.1948 -14.1947
   -14.1463 -14.1350 -13.8731 -13.7569 -13.1693 -12.7128 -12.6998 -12.6472
   -12.5769 -12.5349 -12.2752 -12.1424 -12.1390 -12.1186 -11.9937 -11.9649
   -11.8818 -11.8710 -11.6685 -11.6433 -11.6235 -11.6141 -11.5988 -11.5937
   -11.5836 -11.5370 -11.5353 -11.4435 -11.3871 -11.3557 -11.3505 -11.3312
   -11.3282 -11.3086 -11.2744 -11.2058 -11.1771 -11.1690 -11.1344 -10.9849
   -10.9099 -10.6512 -10.5964 -10.5734 -10.5617 -10.3253 -10.3189 -10.2426
   -10.2130 -10.2088 -10.2077 -10.1527 -10.1075 -10.0410  -9.9823  -9.9637
    -9.9566  -9.8664  -9.8331  -9.7309  -9.7137  -9.6993  -9.6950  -9.6774
    -9.6720  -9.6382  -9.6313  -9.6218  -9.6061  -9.3740  -9.3017  -9.2934
    -9.1148  -9.1021  -9.0757  -8.5711  -8.5345  -8.3162  -8.2597  -8.2245
    -8.2041  -8.1876  -8.1445  -8.1320  -8.1285  -8.1160  -8.1118  -8.1017
    -8.0981  -8.0877  -8.0688  -8.0605  -8.0214  -7.7125  -7.4854  -7.4731
    -7.3310  -7.3027  -7.3023  -7.2801  -7.2434  -6.8993  -6.2181  -6.2133
    -6.1947  -6.1756  -6.1703  -6.0081  -5.8048  -5.8012  -5.7932  -5.7921
    -5.7284  -5.0863  -4.8656  -2.9576  -2.8318  -2.8150  -2.7910  -2.7861
    -2.7734  -2.7563  -2.7527  -2.7456  -2.7338  -2.6999  -2.6375  -2.1972
    -1.7930  -1.7632  -1.7503  -1.7167  -1.6595  -1.2085  -0.9775  -0.3593
    -0.3557  -0.3261  -0.3081  -0.2978  -0.2937  -0.2869  -0.2685  -0.2627

 ------ SPIN DOWN ----------


          k = 0.0000 0.0000 0.0000 (233409 PWs)   bands (ev):

   -23.7823 -23.3763 -23.3527 -23.3250 -23.3009 -23.2481 -23.0871 -22.3840
   -22.3766 -22.3707 -22.3639 -22.3002 -22.1918 -21.9127 -21.9118 -21.8880
   -21.8554 -21.8158 -21.5133 -20.5472 -20.5442 -20.5139 -20.5077 -20.5036
   -20.4932 -20.4920 -20.4821 -20.4600 -20.4320 -20.3511 -20.0197 -19.6271
   -19.6191 -19.5921 -19.5331 -19.5272 -19.1406 -18.3475 -18.3376 -18.3286
   -18.3279 -18.2776 -18.2703 -18.2487 -18.2480 -18.2181 -18.2026 -18.0905
   -17.5282 -17.2346 -17.2330 -17.2231 -17.1381 -17.0727 -16.7594 -16.3126
   -16.3119 -16.2908 -16.1934 -16.1667 -16.0802 -15.8087 -15.7938 -15.7925
   -15.6832 -15.6122 -15.0100 -14.4126 -14.4004 -14.3876 -14.3846 -14.3760
   -14.3696 -14.3485 -14.3287 -14.3206 -14.2902 -14.2337 -14.1862 -14.1857
   -14.1410 -14.1165 -13.7971 -13.7269 -13.0881 -12.6920 -12.6724 -12.6341
   -12.5608 -12.4958 -12.2460 -12.1288 -12.1256 -12.0969 -11.9872 -11.9508
   -11.8603 -11.8333 -11.6445 -11.6331 -11.6150 -11.6040 -11.5860 -11.5755
   -11.5634 -11.5238 -11.5227 -11.4157 -11.3498 -11.3394 -11.3331 -11.3162
   -11.3023 -11.2988 -11.2468 -11.1886 -11.1645 -11.1522 -11.0593 -10.9750
   -10.8645 -10.6444 -10.5790 -10.5687 -10.5412 -10.2933 -10.2918 -10.1942
   -10.1934 -10.1846 -10.1826 -10.1303 -10.0615 -10.0049  -9.9610  -9.9506
    -9.9439  -9.8618  -9.8229  -9.7081  -9.6819  -9.6740  -9.6551  -9.6538
    -9.6381  -9.6229  -9.6084  -9.5874  -9.5046  -9.2800  -9.2699  -9.2552
    -9.1063  -9.0868  -9.0629  -8.5530  -8.4972  -8.2435  -8.2214  -8.2144
    -8.1767  -8.1146  -8.1101  -8.0902  -8.0892  -8.0740  -8.0727  -8.0674
    -8.0598  -8.0457  -8.0165  -7.9980  -7.9785  -7.6616  -7.4728  -7.4187
    -7.2948  -7.2896  -7.2717  -7.2345  -7.1936  -6.8242  -6.1894  -6.1883
    -6.1724  -6.1438  -6.1161  -5.9682  -5.7824  -5.7821  -5.7488  -5.6989
    -5.6787  -4.5065  -2.8802  -2.8221  -2.7931  -2.7774  -2.7659  -2.7555
    -2.7364  -2.7325  -2.7248  -2.7175  -2.6698  -2.5492  -2.5384  -2.1529
    -1.7738  -1.7500  -1.7076  -1.6314  -1.6085  -1.1357  -0.9701  -0.3448
    -0.3385  -0.3019  -0.2800  -0.2730  -0.2615  -0.2603  -0.2302  -0.2301

     the Fermi energy is    -4.7442 ev

!    total energy              =   -1168.11367788 Ry
     estimated scf accuracy    <          5.9E-11 Ry
     smearing contrib. (-TS)   =       0.00096540 Ry
     internal energy E=F+TS    =   -1168.11464328 Ry

     The total energy is F=E-TS. E is the sum of the following terms:
     one-electron contribution =  -13175.64558996 Ry
     hartree contribution      =    6624.04105556 Ry
     xc contribution           =    -415.41629451 Ry
     ewald contribution        =    5798.90618563 Ry

     total magnetization       =     2.00 Bohr mag/cell
     absolute magnetization    =     2.84 Bohr mag/cell

     convergence has been achieved in  14 iterations

     Forces acting on atoms (cartesian axes, Ry/au):

     atom    1 type  1   force =    -0.00106951    0.00000052   -0.00000001
     atom    2 type  1   force =    -0.00075657   -0.00000069    0.00000000
     atom    3 type  1   force =    -0.00219437    0.00014822    0.00000001
     atom    4 type  1   force =    -0.00116417   -0.00009645   -0.00000000
     atom    5 type  1   force =    -0.00126801    0.00010125   -0.00000000
     atom    6 type  1   force =    -0.00074850   -0.00145295   -0.00000000
     atom    7 type  1   force =     0.00096207   -0.00068794    0.00000001
     atom    8 type  1   force =     0.00078653   -0.00261017    0.00000001
     atom    9 type  1   force =     0.00123312   -0.00043908    0.00000000
     atom   10 type  1   force =     0.00114746   -0.00238608    0.00000000
     atom   11 type  1   force =    -0.00010229   -0.00022976    0.00000002
     atom   12 type  1   force =     0.00057417   -0.00276781   -0.00000001
     atom   13 type  1   force =    -0.00049506   -0.00160094   -0.00000000
     atom   14 type  1   force =     0.00005730   -0.00019480    0.00000000
     atom   15 type  1   force =    -0.00219408   -0.00014862   -0.00000001
     atom   16 type  1   force =    -0.00116431    0.00009521   -0.00000001
     atom   17 type  1   force =    -0.00221237   -0.00000041   -0.00000000
     atom   18 type  1   force =    -0.00102724   -0.00000017    0.00000001
     atom   19 type  1   force =    -0.00020683    0.00009496   -0.00000001
     atom   20 type  1   force =    -0.00096155   -0.00061120    0.00000001
     atom   21 type  1   force =     0.00187574   -0.00049206   -0.00000001
     atom   22 type  1   force =     0.00034452    0.00050795   -0.00000001
     atom   23 type  1   force =     0.00065960   -0.00142168    0.00000001
     atom   24 type  1   force =    -0.00001810   -0.00066224    0.00000000
     atom   25 type  1   force =    -0.00046255   -0.00109096    0.00000000
     atom   26 type  1   force =    -0.00106085   -0.00115135    0.00000002
     atom   27 type  1   force =    -0.00088137    0.00027439    0.00000002
     atom   28 type  1   force =    -0.00055659   -0.00071234   -0.00000000
     atom   29 type  1   force =    -0.00126739   -0.00010065   -0.00000000
     atom   30 type  1   force =    -0.00074904    0.00145327   -0.00000001
     atom   31 type  1   force =    -0.00020779   -0.00009464    0.00000001
     atom   32 type  1   force =    -0.00096283    0.00061097   -0.00000000
     atom   33 type  1   force =     0.00255099   -0.00000028    0.00000001
     atom   34 type  1   force =    -0.00268809   -0.00000064    0.00000001
     atom   35 type  1   force =     0.00188773   -0.00079957   -0.00000001
     atom   36 type  2   force =    -0.00207294    0.00155034   -0.00000002
     atom   37 type  1   force =     0.00091344    0.00024863   -0.00000001
     atom   38 type  1   force =    -0.00032300    0.00261677   -0.00000001
     atom   39 type  1   force =     0.00097941   -0.00000012    0.00000001
     atom   40 type  1   force =    -0.00190315   -0.00076959   -0.00000000
     atom   41 type  1   force =    -0.00014295   -0.00180424   -0.00000001
     atom   42 type  1   force =     0.00001866    0.00044473    0.00000001
     atom   43 type  1   force =     0.00096120    0.00068746   -0.00000000
     atom   44 type  1   force =     0.00078453    0.00261011   -0.00000001
     atom   45 type  1   force =     0.00187330    0.00049080   -0.00000000
     atom   46 type  1   force =     0.00034049   -0.00051001   -0.00000001
     atom   47 type  1   force =     0.00188522    0.00079721   -0.00000001
     atom   48 type  2   force =    -0.00207317   -0.00155451   -0.00000000
     atom   49 type  2   force =     0.00363477    0.00000876   -0.00000001
     atom   50 type  1   force =    -0.00001224   -0.00220734    0.00000004
     atom   51 type  1   force =    -0.00189331   -0.00041805   -0.00000001
     atom   52 type  1   force =     0.00138381   -0.00194332    0.00000001
     atom   53 type  1   force =    -0.00154653   -0.00021042   -0.00000001
     atom   54 type  1   force =    -0.00154943   -0.00297537   -0.00000000
     atom   55 type  1   force =     0.00028126    0.00112471    0.00000000
     atom   56 type  1   force =     0.00123222    0.00043813    0.00000000
     atom   57 type  1   force =     0.00114596    0.00238517    0.00000001
     atom   58 type  1   force =     0.00065800    0.00141896   -0.00000000
     atom   59 type  1   force =    -0.00002148    0.00066001   -0.00000002
     atom   60 type  1   force =     0.00091177   -0.00025084    0.00000002
     atom   61 type  1   force =    -0.00032688   -0.00261301    0.00000000
     atom   62 type  1   force =    -0.00001070    0.00220191    0.00000002
     atom   63 type  1   force =    -0.00189488    0.00042512    0.00000000
     atom   64 type  1   force =     0.00143479   -0.00000256   -0.00000001
     atom   65 type  1   force =    -0.00252949    0.00000126    0.00000001
     atom   66 type  1   force =     0.00013311   -0.00204299   -0.00000000
     atom   67 type  1   force =     0.00295004    0.00042150   -0.00000001
     atom   68 type  1   force =     0.00059721   -0.00069288    0.00000000
     atom   69 type  1   force =     0.00012525    0.00006912   -0.00000000
     atom   70 type  1   force =    -0.00010153    0.00022966    0.00000001
     atom   71 type  1   force =     0.00057497    0.00276681   -0.00000000
     atom   72 type  1   force =    -0.00046256    0.00109121    0.00000000
     atom   73 type  1   force =    -0.00106163    0.00115153   -0.00000001
     atom   74 type  1   force =     0.00097788    0.00000471   -0.00000000
     atom   75 type  1   force =    -0.00190404    0.00076966    0.00000000
     atom   76 type  1   force =     0.00138004    0.00194499    0.00000001
     atom   77 type  1   force =    -0.00154564    0.00021090   -0.00000001
     atom   78 type  1   force =     0.00013102    0.00204188    0.00000001
     atom   79 type  1   force =     0.00295045   -0.00042101    0.00000001
     atom   80 type  1   force =     0.00150964    0.00000002   -0.00000001
     atom   81 type  1   force =     0.00199898    0.00000036   -0.00000000
     atom   82 type  1   force =     0.00117737    0.00004263    0.00000000
     atom   83 type  1   force =     0.00056940   -0.00070753    0.00000000
     atom   84 type  1   force =    -0.00049409    0.00160092   -0.00000000
     atom   85 type  1   force =     0.00005814    0.00019540    0.00000001
     atom   86 type  1   force =    -0.00088112   -0.00027250   -0.00000000
     atom   87 type  1   force =    -0.00055660    0.00071150    0.00000001
     atom   88 type  1   force =    -0.00014541    0.00180679   -0.00000001
     atom   89 type  1   force =     0.00001837   -0.00044505   -0.00000001
     atom   90 type  1   force =    -0.00155091    0.00297520   -0.00000001
     atom   91 type  1   force =     0.00028227   -0.00112486   -0.00000000
     atom   92 type  1   force =     0.00059691    0.00069255    0.00000001
     atom   93 type  1   force =     0.00012620   -0.00006920   -0.00000001
     atom   94 type  1   force =     0.00117698   -0.00004204    0.00000000
     atom   95 type  1   force =     0.00056921    0.00070711    0.00000000
     atom   96 type  1   force =     0.00046975   -0.00000004    0.00000000
     atom   97 type  1   force =     0.00053188   -0.00000026   -0.00000001

     Total force =     0.017357     Total SCF correction =     0.000006
     Energy error            =      3.6E-04 Ry
     Gradient error          =      3.6E-03 Ry/Bohr

     number of scf cycles    =  13
     number of bfgs steps    =  12

     energy             old  =   -1168.1133203993 Ry
     energy             new  =   -1168.1136778764 Ry

     CASE: energy            _new < energy            _old

     new trust radius        =       0.0091681960 bohr
     new conv_thr            =            3.6E-11 Ry


ATOMIC_POSITIONS (crystal)
C                0.0472761638        0.0472757093       -0.0000000011
C                0.0948661201        0.0948656324        0.0000000000
C                0.0469333319        0.1902719868        0.0000000006
C                0.0946042569        0.2377680576        0.0000000033
C                0.0469630358        0.3330791130        0.0000000021
C                0.0944601131        0.3806730255       -0.0000000017
C                0.0476898894        0.4759795153       -0.0000000037
C                0.0954290822        0.5234005663       -0.0000000008
C                0.0484328135        0.6187111351       -0.0000000014
C                0.0966534178        0.6656874564        0.0000000001
C                0.0488505707        0.7609489364       -0.0000000025
C                0.0975064658        0.8074121706       -0.0000000007
C                0.0485210611        0.9036051802       -0.0000000001
C                0.0956364974        0.9515895625       -0.0000000020
C                0.1902724355        0.0469327655        0.0000000027
C                0.2377683791        0.0946038535        0.0000000052
C                0.1898674678        0.1898671401        0.0000000038
C                0.2373464039        0.2373462460        0.0000000006
C                0.1893585606        0.3326600898       -0.0000000007
C                0.2365883154        0.3800572626        0.0000000001
C                0.1904920158        0.4751729332        0.0000000041
C                0.2388809234        0.5220531966        0.0000000079
C                0.1927486677        0.6167919894        0.0000000055
C                0.2437632460        0.6608550067        0.0000000030
C                0.1940098893        0.7579432389       -0.0000000020
C                0.2395900947        0.8074859252       -0.0000000049
C                0.1911456433        0.9032987587       -0.0000000048
C                0.2382493776        0.9514947683       -0.0000000005
C                0.3330793805        0.0469626887        0.0000000035
C                0.3806731273        0.0944600779        0.0000000022
C                0.3326602215        0.1893586037        0.0000000002
C                0.3800571400        0.2365887104       -0.0000000016
C                0.3315496170        0.3315499933       -0.0000000008
C                0.3781484937        0.3781491366        0.0000000034
C                0.3345421291        0.4726658190        0.0000000085
C1               0.3889723686        0.5112677840        0.0000000064
C                0.3424195681        0.6092601676        0.0000000048
C                0.3837329030        0.6639805955        0.0000000021
C                0.3349937429        0.7594326885       -0.0000000019
C                0.3817475573        0.8086528982        0.0000000004
C                0.3336106716        0.9039188952        0.0000000016
C                0.3809600681        0.9519416561        0.0000000014
C                0.4759795537        0.0476901707        0.0000000002
C                0.5234003668        0.0954298097       -0.0000000028
C                0.4751728084        0.1904928728       -0.0000000014
C                0.5220528388        0.2388821842       -0.0000000022
C                0.4726652997        0.3345435051       -0.0000000012
C1               0.5112672302        0.3889739378       -0.0000000036
C1               0.5291187155        0.5291174636        0.0000000004
C                0.4785844536        0.6205147579       -0.0000000002
C                0.5256809595        0.6685871039        0.0000000007
C                0.4769941193        0.7630373680        0.0000000016
C                0.5243920247        0.8105571099        0.0000000030
C                0.4762963986        0.9053388357        0.0000000016
C                0.5239496889        0.9527777123        0.0000000007
C                0.6187108980        0.0484335662       -0.0000000043
C                0.6656870661        0.0966543935       -0.0000000063
C                0.6167917024        0.1927497791       -0.0000000035
C                0.6608549014        0.2437641650       -0.0000000010
C                0.6092602027        0.3424204200       -0.0000000037
C                0.6639816873        0.3837326190       -0.0000000051
C                0.6205162708        0.4785838573       -0.0000000055
C                0.6685881849        0.5256805493       -0.0000000020
C                0.6205773435        0.6205767371        0.0000000008
C                0.6679557699        0.6679556198        0.0000000018
C                0.6197214398        0.7630052761        0.0000000030
C                0.6672352142        0.8104076505        0.0000000031
C                0.6192935936        0.9054629886        0.0000000009
C                0.6667368857        0.9531218506       -0.0000000036
C                0.7609485666        0.0488512288       -0.0000000063
C                0.8074120312        0.0975068951       -0.0000000026
C                0.7579433285        0.1940103239        0.0000000003
C                0.8074866741        0.2395898128        0.0000000019
C                0.7594337516        0.3349933717        0.0000000000
C                0.8086539237        0.3817471634        0.0000000028
C                0.7630383682        0.4769937067        0.0000000013
C                0.8105576046        0.5243919628        0.0000000039
C                0.7630054088        0.6197213978        0.0000000011
C                0.8104074450        0.6672354374       -0.0000000010
C                0.7624935070        0.7624937817        0.0000000006
C                0.8100116941        0.8100121312       -0.0000000020
C                0.7620424815        0.9053915999       -0.0000000038
C                0.8094001400        0.9531355523       -0.0000000043
C                0.9036051192        0.0485212111       -0.0000000010
C                0.9515899962        0.0956361469       -0.0000000004
C                0.9032994486        0.1911452293        0.0000000011
C                0.9514954573        0.2382489438        0.0000000010
C                0.9039197249        0.3336102620        0.0000000036
C                0.9519421554        0.3809598746        0.0000000036
C                0.9053391558        0.4762962647        0.0000000032
C                0.9527775942        0.5239497858       -0.0000000020
C                0.9054626786        0.6192937562       -0.0000000027
C                0.9531212566        0.6667372274       -0.0000000032
C                0.9053910877        0.7620428741       -0.0000000033
C                0.9531349732        0.8094005864       -0.0000000036
C                0.9049166709        0.9049171124       -0.0000000016
C                0.9524624334        0.9524626427        0.0000000001



     Writing config-only to output data dir /home/gregb26/links/scratch/qe_tmp/vacancy_relaxed/series/7x7/nspin2/vac_7x7_relax_nspin2.save/ :
     XML data file
     NEW-OLD atomic charge density approx. for the potential

     negative rho (up, down):  6.917E-07 7.218E-07
     Generating pointlists ...

     total cpu time spent up to now is     1123.7 secs

     per-process dynamical memory:   290.0 Mb

     Self-consistent Calculation

     iteration #  1     ecut=   100.00 Ry     beta= 0.30
     Davidson diagonalization with overlap
     ethr =  1.00E-06,  avg # of iterations =  4.5

     Threshold (ethr) on eigenvalues was too large:
     Diagonalizing with lowered threshold

     Davidson diagonalization with overlap
     ethr =  1.53E-08,  avg # of iterations =  5.0

     negative rho (up, down):  5.791E-07 5.537E-07

     total cpu time spent up to now is     1135.1 secs

     total energy              =   -1168.11385365 Ry
     estimated scf accuracy    <       0.00008802 Ry

     total magnetization       =     2.00 Bohr mag/cell
     absolute magnetization    =     2.84 Bohr mag/cell

     iteration #  2     ecut=   100.00 Ry     beta= 0.30
     Davidson diagonalization with overlap
     ethr =  2.27E-08,  avg # of iterations =  2.0

     negative rho (up, down):  2.977E-07 2.870E-07

     total cpu time spent up to now is     1138.4 secs

     total energy              =   -1168.11385313 Ry
     estimated scf accuracy    <       0.00002784 Ry

     total magnetization       =     2.00 Bohr mag/cell
     absolute magnetization    =     2.84 Bohr mag/cell

     iteration #  3     ecut=   100.00 Ry     beta= 0.30
     Davidson diagonalization with overlap
     ethr =  7.17E-09,  avg # of iterations =  2.5

     negative rho (up, down):  1.064E-07 1.039E-07

     total cpu time spent up to now is     1141.7 secs

     total energy              =   -1168.11385389 Ry
     estimated scf accuracy    <       0.00000726 Ry

     total magnetization       =     2.00 Bohr mag/cell
     absolute magnetization    =     2.84 Bohr mag/cell

     iteration #  4     ecut=   100.00 Ry     beta= 0.30
     Davidson diagonalization with overlap
     ethr =  1.87E-09,  avg # of iterations =  2.5

     negative rho (up, down):  3.588E-08 3.553E-08

     total cpu time spent up to now is     1145.2 secs

     total energy              =   -1168.11385472 Ry
     estimated scf accuracy    <       0.00000114 Ry

     total magnetization       =     2.00 Bohr mag/cell
     absolute magnetization    =     2.84 Bohr mag/cell

     iteration #  5     ecut=   100.00 Ry     beta= 0.30
     Davidson diagonalization with overlap
     ethr =  2.94E-10,  avg # of iterations =  4.0
     Minimization algorithm failed to find Fermi energy: reverting to bisection
     Possible cause: smearing is larger than the electronic band-gap.

     negative rho (up, down):  1.122E-08 1.135E-08

     total cpu time spent up to now is     1149.2 secs

     total energy              =   -1168.11385490 Ry
     estimated scf accuracy    <       0.00000021 Ry

     total magnetization       =     2.00 Bohr mag/cell
     absolute magnetization    =     2.84 Bohr mag/cell

     iteration #  6     ecut=   100.00 Ry     beta= 0.30
     Davidson diagonalization with overlap
     ethr =  5.53E-11,  avg # of iterations =  4.0
     Minimization algorithm failed to find Fermi energy: reverting to bisection
     Possible cause: smearing is larger than the electronic band-gap.

     total cpu time spent up to now is     1153.2 secs

     total energy              =   -1168.11385494 Ry
     estimated scf accuracy    <       0.00000004 Ry

     total magnetization       =     2.00 Bohr mag/cell
     absolute magnetization    =     2.84 Bohr mag/cell

     iteration #  7     ecut=   100.00 Ry     beta= 0.30
     Davidson diagonalization with overlap
     ethr =  1.06E-11,  avg # of iterations =  4.0
     Minimization algorithm failed to find Fermi energy: reverting to bisection
     Possible cause: smearing is larger than the electronic band-gap.

     total cpu time spent up to now is     1157.2 secs

     total energy              =   -1168.11385495 Ry
     estimated scf accuracy    <          7.8E-09 Ry

     total magnetization       =     2.00 Bohr mag/cell
     absolute magnetization    =     2.84 Bohr mag/cell

     iteration #  8     ecut=   100.00 Ry     beta= 0.30
     Davidson diagonalization with overlap
     ethr =  2.01E-12,  avg # of iterations =  4.0
     Minimization algorithm failed to find Fermi energy: reverting to bisection
     Possible cause: smearing is larger than the electronic band-gap.

     total cpu time spent up to now is     1161.6 secs

     total energy              =   -1168.11385495 Ry
     estimated scf accuracy    <          9.1E-10 Ry

     total magnetization       =     2.00 Bohr mag/cell
     absolute magnetization    =     2.84 Bohr mag/cell

     iteration #  9     ecut=   100.00 Ry     beta= 0.30
     Davidson diagonalization with overlap
     ethr =  2.34E-13,  avg # of iterations =  4.0
     Minimization algorithm failed to find Fermi energy: reverting to bisection
     Possible cause: smearing is larger than the electronic band-gap.

     total cpu time spent up to now is     1166.2 secs

     total energy              =   -1168.11385495 Ry
     estimated scf accuracy    <          2.9E-10 Ry

     total magnetization       =     2.00 Bohr mag/cell
     absolute magnetization    =     2.84 Bohr mag/cell

     iteration # 10     ecut=   100.00 Ry     beta= 0.30
     Davidson diagonalization with overlap
     ethr =  1.00E-13,  avg # of iterations =  4.0
     Minimization algorithm failed to find Fermi energy: reverting to bisection
     Possible cause: smearing is larger than the electronic band-gap.

     total cpu time spent up to now is     1170.1 secs

     total energy              =   -1168.11385495 Ry
     estimated scf accuracy    <          9.1E-11 Ry

     total magnetization       =     2.00 Bohr mag/cell
     absolute magnetization    =     2.84 Bohr mag/cell

     iteration # 11     ecut=   100.00 Ry     beta= 0.30
     Davidson diagonalization with overlap
     ethr =  1.00E-13,  avg # of iterations =  2.0
     Minimization algorithm failed to find Fermi energy: reverting to bisection
     Possible cause: smearing is larger than the electronic band-gap.

     Magnetic moment per site  (integrated on atomic sphere of radius R)
     atom   1 (R=0.032)  charge=  1.5208  magn= -0.0017
     atom   2 (R=0.032)  charge=  1.5240  magn=  0.0025
     atom   3 (R=0.032)  charge=  1.5254  magn= -0.0023
     atom   4 (R=0.032)  charge=  1.5260  magn=  0.0042
     atom   5 (R=0.032)  charge=  1.5299  magn= -0.0021
     atom   6 (R=0.032)  charge=  1.5291  magn=  0.0016
     atom   7 (R=0.032)  charge=  1.5294  magn= -0.0021
     atom   8 (R=0.032)  charge=  1.5273  magn=  0.0040
     atom   9 (R=0.032)  charge=  1.5254  magn= -0.0023
     atom  10 (R=0.032)  charge=  1.5210  magn=  0.0073
     atom  11 (R=0.032)  charge=  1.5232  magn= -0.0024
     atom  12 (R=0.032)  charge=  1.5116  magn=  0.0040
     atom  13 (R=0.032)  charge=  1.5150  magn= -0.0022
     atom  14 (R=0.032)  charge=  1.5219  magn=  0.0013
     atom  15 (R=0.032)  charge=  1.5254  magn= -0.0023
     atom  16 (R=0.032)  charge=  1.5260  magn=  0.0042
     atom  17 (R=0.032)  charge=  1.5300  magn= -0.0026
     atom  18 (R=0.032)  charge=  1.5275  magn=  0.0129
     atom  19 (R=0.032)  charge=  1.5333  magn= -0.0036
     atom  20 (R=0.032)  charge=  1.5347  magn=  0.0142
     atom  21 (R=0.032)  charge=  1.5286  magn= -0.0035
     atom  22 (R=0.032)  charge=  1.5246  magn=  0.0059
     atom  23 (R=0.032)  charge=  1.5245  magn= -0.0024
     atom  24 (R=0.032)  charge=  1.4919  magn=  0.0036
     atom  25 (R=0.032)  charge=  1.5061  magn= -0.0045
     atom  26 (R=0.032)  charge=  1.5218  magn=  0.0116
     atom  27 (R=0.032)  charge=  1.5202  magn= -0.0032
     atom  28 (R=0.032)  charge=  1.5233  magn=  0.0102
     atom  29 (R=0.032)  charge=  1.5299  magn= -0.0021
     atom  30 (R=0.032)  charge=  1.5291  magn=  0.0016
     atom  31 (R=0.032)  charge=  1.5333  magn= -0.0036
     atom  32 (R=0.032)  charge=  1.5347  magn=  0.0142
     atom  33 (R=0.032)  charge=  1.5439  magn= -0.0067
     atom  34 (R=0.032)  charge=  1.5513  magn=  0.0398
     atom  35 (R=0.032)  charge=  1.5394  magn= -0.0030
     atom  36 (R=0.032)  charge=  1.4050  magn=  0.0694
     atom  37 (R=0.032)  charge=  1.4718  magn= -0.0110
     atom  38 (R=0.032)  charge=  1.5179  magn=  0.0488
     atom  39 (R=0.032)  charge=  1.5179  magn= -0.0083
     atom  40 (R=0.032)  charge=  1.5206  magn=  0.0145
     atom  41 (R=0.032)  charge=  1.5250  magn= -0.0039
     atom  42 (R=0.032)  charge=  1.5265  magn=  0.0019
     atom  43 (R=0.032)  charge=  1.5294  magn= -0.0021
     atom  44 (R=0.032)  charge=  1.5273  magn=  0.0040
     atom  45 (R=0.032)  charge=  1.5286  magn= -0.0035
     atom  46 (R=0.032)  charge=  1.5246  magn=  0.0059
     atom  47 (R=0.032)  charge=  1.5394  magn= -0.0030
     atom  48 (R=0.032)  charge=  1.4050  magn=  0.0694
     atom  49 (R=0.032)  charge=  1.4986  magn=  0.3535
     atom  50 (R=0.032)  charge=  1.5501  magn= -0.0088
     atom  51 (R=0.032)  charge=  1.5336  magn=  0.0253
     atom  52 (R=0.032)  charge=  1.5349  magn= -0.0016
     atom  53 (R=0.032)  charge=  1.5314  magn=  0.0052
     atom  54 (R=0.032)  charge=  1.5297  magn= -0.0020
     atom  55 (R=0.032)  charge=  1.5299  magn=  0.0051
     atom  56 (R=0.032)  charge=  1.5254  magn= -0.0023
     atom  57 (R=0.032)  charge=  1.5210  magn=  0.0073
     atom  58 (R=0.032)  charge=  1.5245  magn= -0.0024
     atom  59 (R=0.032)  charge=  1.4919  magn=  0.0036
     atom  60 (R=0.032)  charge=  1.4717  magn= -0.0110
     atom  61 (R=0.032)  charge=  1.5179  magn=  0.0488
     atom  62 (R=0.032)  charge=  1.5501  magn= -0.0088
     atom  63 (R=0.032)  charge=  1.5336  magn=  0.0253
     atom  64 (R=0.032)  charge=  1.5372  magn= -0.0088
     atom  65 (R=0.032)  charge=  1.5317  magn=  0.0086
     atom  66 (R=0.032)  charge=  1.5303  magn= -0.0034
     atom  67 (R=0.032)  charge=  1.5309  magn=  0.0021
     atom  68 (R=0.032)  charge=  1.5277  magn= -0.0020
     atom  69 (R=0.032)  charge=  1.5279  magn=  0.0017
     atom  70 (R=0.032)  charge=  1.5232  magn= -0.0024
     atom  71 (R=0.032)  charge=  1.5116  magn=  0.0040
     atom  72 (R=0.032)  charge=  1.5061  magn= -0.0045
     atom  73 (R=0.032)  charge=  1.5218  magn=  0.0116
     atom  74 (R=0.032)  charge=  1.5179  magn= -0.0083
     atom  75 (R=0.032)  charge=  1.5207  magn=  0.0145
     atom  76 (R=0.032)  charge=  1.5349  magn= -0.0016
     atom  77 (R=0.032)  charge=  1.5314  magn=  0.0052
     atom  78 (R=0.032)  charge=  1.5303  magn= -0.0034
     atom  79 (R=0.032)  charge=  1.5309  magn=  0.0021
     atom  80 (R=0.032)  charge=  1.5275  magn= -0.0019
     atom  81 (R=0.032)  charge=  1.5277  magn=  0.0038
     atom  82 (R=0.032)  charge=  1.5257  magn= -0.0016
     atom  83 (R=0.032)  charge=  1.5228  magn=  0.0017
     atom  84 (R=0.032)  charge=  1.5150  magn= -0.0022
     atom  85 (R=0.032)  charge=  1.5219  magn=  0.0013
     atom  86 (R=0.032)  charge=  1.5202  magn= -0.0032
     atom  87 (R=0.032)  charge=  1.5233  magn=  0.0102
     atom  88 (R=0.032)  charge=  1.5250  magn= -0.0039
     atom  89 (R=0.032)  charge=  1.5265  magn=  0.0019
     atom  90 (R=0.032)  charge=  1.5297  magn= -0.0020
     atom  91 (R=0.032)  charge=  1.5299  magn=  0.0051
     atom  92 (R=0.032)  charge=  1.5277  magn= -0.0020
     atom  93 (R=0.032)  charge=  1.5279  magn=  0.0017
     atom  94 (R=0.032)  charge=  1.5257  magn= -0.0016
     atom  95 (R=0.032)  charge=  1.5228  magn=  0.0017
     atom  96 (R=0.032)  charge=  1.5230  magn= -0.0018
     atom  97 (R=0.032)  charge=  1.5159  magn=  0.0044

     total cpu time spent up to now is     1173.5 secs

     End of self-consistent calculation

 ------ SPIN UP ------------


          k = 0.0000 0.0000 0.0000 (233409 PWs)   bands (ev):

   -23.7955 -23.4070 -23.3568 -23.3325 -23.3067 -23.2614 -23.1438 -22.4229
   -22.3918 -22.3851 -22.3769 -22.3087 -22.2131 -21.9421 -21.9288 -21.9080
   -21.8727 -21.8333 -21.5824 -20.5556 -20.5525 -20.5353 -20.5310 -20.5261
   -20.5091 -20.5087 -20.5026 -20.4827 -20.4674 -20.3736 -20.0596 -19.6553
   -19.6350 -19.6067 -19.5664 -19.5518 -19.1993 -18.3625 -18.3506 -18.3428
   -18.3381 -18.2831 -18.2807 -18.2699 -18.2658 -18.2439 -18.2156 -18.1777
   -17.6306 -17.2450 -17.2432 -17.2329 -17.1753 -17.0870 -16.8165 -16.3333
   -16.3298 -16.3064 -16.2235 -16.1848 -16.0981 -15.8209 -15.8129 -15.8009
   -15.7091 -15.6926 -15.0805 -14.4352 -14.4245 -14.4029 -14.3971 -14.3827
   -14.3796 -14.3693 -14.3470 -14.3363 -14.3075 -14.2717 -14.1936 -14.1927
   -14.1445 -14.1336 -13.8779 -13.7573 -13.1739 -12.7112 -12.6995 -12.6466
   -12.5773 -12.5333 -12.2787 -12.1422 -12.1389 -12.1181 -11.9905 -11.9624
   -11.8815 -11.8690 -11.6697 -11.6442 -11.6228 -11.6137 -11.5989 -11.5935
   -11.5837 -11.5351 -11.5329 -11.4441 -11.3886 -11.3546 -11.3489 -11.3310
   -11.3276 -11.3078 -11.2733 -11.2064 -11.1763 -11.1675 -11.1361 -10.9872
   -10.9118 -10.6505 -10.5941 -10.5704 -10.5591 -10.3270 -10.3151 -10.2440
   -10.2129 -10.2080 -10.2070 -10.1512 -10.1115 -10.0409  -9.9840  -9.9619
    -9.9566  -9.8688  -9.8306  -9.7302  -9.7172  -9.6965  -9.6962  -9.6776
    -9.6727  -9.6378  -9.6307  -9.6203  -9.6108  -9.3735  -9.2990  -9.2936
    -9.1101  -9.1027  -9.0732  -8.5695  -8.5405  -8.3303  -8.2611  -8.2260
    -8.2045  -8.1846  -8.1461  -8.1311  -8.1293  -8.1154  -8.1121  -8.1001
    -8.0985  -8.0870  -8.0695  -8.0599  -8.0198  -7.7133  -7.4847  -7.4711
    -7.3306  -7.3027  -7.3007  -7.2801  -7.2427  -6.9016  -6.2165  -6.2140
    -6.1956  -6.1761  -6.1681  -6.0094  -5.8034  -5.7996  -5.7945  -5.7931
    -5.7271  -5.1024  -4.8698  -2.9166  -2.8323  -2.8146  -2.7919  -2.7874
    -2.7736  -2.7552  -2.7515  -2.7446  -2.7348  -2.7013  -2.6360  -2.1974
    -1.7945  -1.7660  -1.7508  -1.7165  -1.6575  -1.2098  -0.9775  -0.3602
    -0.3552  -0.3260  -0.3083  -0.2997  -0.2927  -0.2877  -0.2700  -0.2609

 ------ SPIN DOWN ----------


          k = 0.0000 0.0000 0.0000 (233409 PWs)   bands (ev):

   -23.7817 -23.3778 -23.3506 -23.3249 -23.2996 -23.2469 -23.0892 -22.3841
   -22.3761 -22.3717 -22.3624 -22.2985 -22.1910 -21.9133 -21.9128 -21.8887
   -21.8546 -21.8142 -21.5133 -20.5471 -20.5431 -20.5143 -20.5082 -20.5003
   -20.4924 -20.4919 -20.4815 -20.4598 -20.4351 -20.3495 -20.0200 -19.6269
   -19.6184 -19.5919 -19.5313 -19.5270 -19.1434 -18.3461 -18.3381 -18.3294
   -18.3276 -18.2769 -18.2705 -18.2479 -18.2476 -18.2159 -18.2011 -18.0918
   -17.5290 -17.2343 -17.2316 -17.2227 -17.1396 -17.0712 -16.7603 -16.3136
   -16.3110 -16.2918 -16.1929 -16.1656 -16.0801 -15.8083 -15.7946 -15.7920
   -15.6804 -15.6122 -15.0124 -14.4130 -14.3996 -14.3890 -14.3840 -14.3729
   -14.3683 -14.3493 -14.3295 -14.3190 -14.2889 -14.2338 -14.1852 -14.1836
   -14.1392 -14.1155 -13.8019 -13.7274 -13.0921 -12.6903 -12.6719 -12.6336
   -12.5613 -12.4943 -12.2493 -12.1285 -12.1253 -12.0962 -11.9841 -11.9482
   -11.8598 -11.8314 -11.6460 -11.6340 -11.6145 -11.6038 -11.5858 -11.5757
   -11.5628 -11.5214 -11.5211 -11.4161 -11.3508 -11.3377 -11.3322 -11.3162
   -11.3015 -11.2977 -11.2457 -11.1885 -11.1645 -11.1506 -11.0609 -10.9773
   -10.8665 -10.6433 -10.5759 -10.5657 -10.5397 -10.2935 -10.2894 -10.1937
   -10.1934 -10.1853 -10.1814 -10.1290 -10.0644 -10.0044  -9.9632  -9.9488
    -9.9442  -9.8642  -9.8204  -9.7064  -9.6831  -9.6715  -9.6554  -9.6549
    -9.6386  -9.6226  -9.6076  -9.5860  -9.5115  -9.2795  -9.2675  -9.2550
    -9.1018  -9.0879  -9.0607  -8.5516  -8.5028  -8.2456  -8.2236  -8.2167
    -8.1724  -8.1150  -8.1092  -8.0904  -8.0874  -8.0740  -8.0715  -8.0671
    -8.0603  -8.0454  -8.0190  -8.0169  -7.9767  -7.6623  -7.4722  -7.4179
    -7.2940  -7.2880  -7.2717  -7.2338  -7.1934  -6.8263  -6.1904  -6.1869
    -6.1729  -6.1416  -6.1167  -5.9693  -5.7806  -5.7805  -5.7500  -5.6973
    -5.6801  -4.5116  -2.8955  -2.8220  -2.7923  -2.7781  -2.7658  -2.7572
    -2.7352  -2.7314  -2.7235  -2.7186  -2.6310  -2.5475  -2.5403  -2.1531
    -1.7755  -1.7526  -1.7077  -1.6315  -1.6062  -1.1373  -0.9700  -0.3447
    -0.3380  -0.3016  -0.2811  -0.2722  -0.2617  -0.2617  -0.2321  -0.2279

     the Fermi energy is    -4.7474 ev

!    total energy              =   -1168.11385495 Ry
     estimated scf accuracy    <          2.9E-11 Ry
     smearing contrib. (-TS)   =       0.00091699 Ry
     internal energy E=F+TS    =   -1168.11477194 Ry

     The total energy is F=E-TS. E is the sum of the following terms:
     one-electron contribution =  -13175.54940003 Ry
     hartree contribution      =    6623.99179261 Ry
     xc contribution           =    -415.41240721 Ry
     ewald contribution        =    5798.85524267 Ry

     total magnetization       =     2.00 Bohr mag/cell
     absolute magnetization    =     2.84 Bohr mag/cell

     convergence has been achieved in  11 iterations

     Forces acting on atoms (cartesian axes, Ry/au):

     atom    1 type  1   force =    -0.00056376    0.00000017    0.00000000
     atom    2 type  1   force =    -0.00139030    0.00000008    0.00000000
     atom    3 type  1   force =    -0.00099572    0.00012271    0.00000001
     atom    4 type  1   force =    -0.00164090    0.00022490   -0.00000001
     atom    5 type  1   force =    -0.00029696   -0.00053482    0.00000000
     atom    6 type  1   force =    -0.00072212    0.00043968    0.00000001
     atom    7 type  1   force =     0.00029666   -0.00174032    0.00000001
     atom    8 type  1   force =     0.00115964   -0.00049736   -0.00000000
     atom    9 type  1   force =     0.00051900   -0.00156042   -0.00000001
     atom   10 type  1   force =     0.00134973   -0.00121167   -0.00000001
     atom   11 type  1   force =     0.00002703   -0.00100901    0.00000000
     atom   12 type  1   force =     0.00010941   -0.00182622   -0.00000001
     atom   13 type  1   force =    -0.00011472   -0.00106953   -0.00000001
     atom   14 type  1   force =    -0.00078389   -0.00037286   -0.00000000
     atom   15 type  1   force =    -0.00099570   -0.00012331   -0.00000001
     atom   16 type  1   force =    -0.00164075   -0.00022490   -0.00000000
     atom   17 type  1   force =    -0.00058496   -0.00000027   -0.00000001
     atom   18 type  1   force =    -0.00153499    0.00000012   -0.00000004
     atom   19 type  1   force =    -0.00000746   -0.00090379   -0.00000000
     atom   20 type  1   force =     0.00079877    0.00014616    0.00000001
     atom   21 type  1   force =    -0.00021123   -0.00150589   -0.00000000
     atom   22 type  1   force =     0.00103980   -0.00030164    0.00000001
     atom   23 type  1   force =     0.00076647   -0.00124912   -0.00000000
     atom   24 type  1   force =    -0.00017785    0.00004877   -0.00000000
     atom   25 type  1   force =     0.00020306   -0.00105204    0.00000000
     atom   26 type  1   force =    -0.00071374   -0.00089088    0.00000001
     atom   27 type  1   force =    -0.00050082   -0.00025268    0.00000001
     atom   28 type  1   force =    -0.00076052   -0.00120588    0.00000001
     atom   29 type  1   force =    -0.00029693    0.00053435   -0.00000001
     atom   30 type  1   force =    -0.00072195   -0.00043951   -0.00000001
     atom   31 type  1   force =    -0.00000812    0.00090384   -0.00000000
     atom   32 type  1   force =     0.00079779   -0.00014673    0.00000001
     atom   33 type  1   force =    -0.00104108   -0.00000040    0.00000002
     atom   34 type  1   force =    -0.00056600   -0.00000104   -0.00000001
     atom   35 type  1   force =     0.00136660   -0.00045233   -0.00000000
     atom   36 type  2   force =    -0.00109301    0.00226983   -0.00000001
     atom   37 type  1   force =     0.00084322   -0.00054219   -0.00000000
     atom   38 type  1   force =    -0.00025446    0.00203800   -0.00000001
     atom   39 type  1   force =     0.00006808    0.00016721    0.00000001
     atom   40 type  1   force =    -0.00032899   -0.00140901   -0.00000001
     atom   41 type  1   force =    -0.00044573   -0.00035301   -0.00000001
     atom   42 type  1   force =    -0.00037396   -0.00171813    0.00000000
     atom   43 type  1   force =     0.00029533    0.00174013   -0.00000001
     atom   44 type  1   force =     0.00115828    0.00049610    0.00000001
     atom   45 type  1   force =    -0.00021359    0.00150552    0.00000000
     atom   46 type  1   force =     0.00103794    0.00029931   -0.00000000
     atom   47 type  1   force =     0.00136409    0.00045023    0.00000000
     atom   48 type  2   force =    -0.00109392   -0.00227324    0.00000002
     atom   49 type  2   force =     0.00223964   -0.00000327   -0.00000002
     atom   50 type  1   force =     0.00030673   -0.00075514    0.00000002
     atom   51 type  1   force =    -0.00190718   -0.00019403   -0.00000001
     atom   52 type  1   force =    -0.00043935   -0.00035323   -0.00000000
     atom   53 type  1   force =    -0.00038243   -0.00191760   -0.00000000
     atom   54 type  1   force =    -0.00003439    0.00012699    0.00000001
     atom   55 type  1   force =    -0.00040097   -0.00063703    0.00000000
     atom   56 type  1   force =     0.00051759    0.00156018   -0.00000001
     atom   57 type  1   force =     0.00134846    0.00120985    0.00000000
     atom   58 type  1   force =     0.00076343    0.00124786    0.00000000
     atom   59 type  1   force =    -0.00017921   -0.00005033   -0.00000002
     atom   60 type  1   force =     0.00084031    0.00054107    0.00000000
     atom   61 type  1   force =    -0.00025592   -0.00203654    0.00000003
     atom   62 type  1   force =     0.00030262    0.00076460    0.00000003
     atom   63 type  1   force =    -0.00191030    0.00019248    0.00000001
     atom   64 type  1   force =    -0.00008914    0.00000332   -0.00000000
     atom   65 type  1   force =    -0.00017519   -0.00000048    0.00000001
     atom   66 type  1   force =     0.00033852   -0.00059973    0.00000000
     atom   67 type  1   force =    -0.00021402   -0.00083830   -0.00000001
     atom   68 type  1   force =     0.00083179    0.00116288    0.00000000
     atom   69 type  1   force =     0.00078460    0.00008701    0.00000001
     atom   70 type  1   force =     0.00002723    0.00100831    0.00000000
     atom   71 type  1   force =     0.00010961    0.00182586   -0.00000000
     atom   72 type  1   force =     0.00020208    0.00105128   -0.00000001
     atom   73 type  1   force =    -0.00071381    0.00089341   -0.00000001
     atom   74 type  1   force =     0.00006609   -0.00016602   -0.00000001
     atom   75 type  1   force =    -0.00033126    0.00141179   -0.00000001
     atom   76 type  1   force =    -0.00043988    0.00035561    0.00000000
     atom   77 type  1   force =    -0.00038494    0.00191745   -0.00000001
     atom   78 type  1   force =     0.00033892    0.00060070    0.00000000
     atom   79 type  1   force =    -0.00021465    0.00083796    0.00000001
     atom   80 type  1   force =     0.00239967    0.00000008   -0.00000000
     atom   81 type  1   force =     0.00097896    0.00000004   -0.00000000
     atom   82 type  1   force =     0.00067398    0.00016076    0.00000000
     atom   83 type  1   force =     0.00095467    0.00034701   -0.00000000
     atom   84 type  1   force =    -0.00011410    0.00106912   -0.00000000
     atom   85 type  1   force =    -0.00078334    0.00037385    0.00000000
     atom   86 type  1   force =    -0.00050083    0.00025351   -0.00000000
     atom   87 type  1   force =    -0.00076060    0.00120675    0.00000000
     atom   88 type  1   force =    -0.00044643    0.00035295   -0.00000000
     atom   89 type  1   force =    -0.00037534    0.00171852   -0.00000000
     atom   90 type  1   force =    -0.00003424   -0.00012700   -0.00000001
     atom   91 type  1   force =    -0.00040131    0.00063680    0.00000001
     atom   92 type  1   force =     0.00083245   -0.00116292   -0.00000000
     atom   93 type  1   force =     0.00078474   -0.00008716   -0.00000000
     atom   94 type  1   force =     0.00067391   -0.00016079    0.00000000
     atom   95 type  1   force =     0.00095438   -0.00034708    0.00000001
     atom   96 type  1   force =     0.00061102   -0.00000016   -0.00000001
     atom   97 type  1   force =     0.00048069   -0.00000011   -0.00000001

     Total force =     0.012392     Total SCF correction =     0.000003
     Energy error            =      1.8E-04 Ry
     Gradient error          =      2.4E-03 Ry/Bohr

     number of scf cycles    =  14
     number of bfgs steps    =  13

     energy             old  =   -1168.1136778764 Ry
     energy             new  =   -1168.1138549545 Ry

     CASE: energy            _new < energy            _old

     new trust radius        =       0.0084410400 bohr
     new conv_thr            =            1.8E-11 Ry


ATOMIC_POSITIONS (crystal)
C                0.0472149889        0.0472145511       -0.0000000012
C                0.0947785113        0.0947779315        0.0000000002
C                0.0467875139        0.1902036042        0.0000000020
C                0.0944753632        0.2376645538        0.0000000029
C                0.0469122153        0.3329889751        0.0000000021
C                0.0944373866        0.3805680265       -0.0000000012
C                0.0478081434        0.4758665954       -0.0000000022
C                0.0955737067        0.5233146946       -0.0000000001
C                0.0485702793        0.6186364681       -0.0000000022
C                0.0967974775        0.6656062565       -0.0000000002
C                0.0489438435        0.7608784475       -0.0000000020
C                0.0976723422        0.8072415343       -0.0000000014
C                0.0486190034        0.9034809245       -0.0000000007
C                0.0956444652        0.9515183509       -0.0000000022
C                0.1902041512        0.0467868470        0.0000000022
C                0.2376649501        0.0944748808        0.0000000048
C                0.1897538697        0.1897534483        0.0000000026
C                0.2372403114        0.2372401561       -0.0000000016
C                0.1893497572        0.3325508524       -0.0000000011
C                0.2365947374        0.3799915961        0.0000000008
C                0.1906208628        0.4750808072        0.0000000039
C                0.2389920742        0.5219842457        0.0000000076
C                0.1929039224        0.6166882666        0.0000000064
C                0.2439567612        0.6606547725        0.0000000037
C                0.1941891162        0.7577240713       -0.0000000018
C                0.2396638443        0.8073417426       -0.0000000036
C                0.1911677337        0.9031737036       -0.0000000035
C                0.2383058142        0.9513299229       -0.0000000006
C                0.3329892872        0.0469118448        0.0000000031
C                0.3805681052        0.0944373523        0.0000000018
C                0.3325509399        0.1893497776        0.0000000007
C                0.3799914248        0.2365950748       -0.0000000012
C                0.3315069016        0.3315072423        0.0000000005
C                0.3780908310        0.3780913411        0.0000000030
C                0.3346147726        0.4726000997        0.0000000079
C1               0.3891723773        0.5109929852        0.0000000046
C                0.3426101610        0.6090902116        0.0000000038
C                0.3837538711        0.6639476892        0.0000000015
C                0.3350604730        0.7593621762       -0.0000000010
C                0.3818840207        0.8085017044       -0.0000000003
C                0.3336895497        0.9037736819        0.0000000006
C                0.3810200225        0.9518386058        0.0000000019
C                0.4758665948        0.0478083327       -0.0000000000
C                0.5233144745        0.0955742712       -0.0000000028
C                0.4750806137        0.1906215068       -0.0000000009
C                0.5219839199        0.2389929851       -0.0000000029
C                0.4725997049        0.3346157610       -0.0000000008
C1               0.5109926797        0.3891734172       -0.0000000017
C1               0.5292372107        0.5292362661       -0.0000000016
C                0.4786691540        0.6205399423        0.0000000016
C                0.5257413315        0.6685267710        0.0000000001
C                0.4771337262        0.7629332918        0.0000000017
C                0.5245503263        0.8104515382        0.0000000025
C                0.4763542351        0.9052639726        0.0000000019
C                0.5239463542        0.9528019114        0.0000000007
C                0.6186362015        0.0485709486       -0.0000000046
C                0.6656059251        0.0967982868       -0.0000000058
C                0.6166880090        0.1929047622       -0.0000000040
C                0.6606547351        0.2439574039       -0.0000000025
C                0.6090902561        0.3426107106       -0.0000000030
C                0.6639484262        0.3837537019       -0.0000000035
C                0.6205408683        0.4786688321       -0.0000000031
C                0.6685276021        0.5257409194       -0.0000000009
C                0.6206267285        0.6206263455        0.0000000003
C                0.6680074450        0.6680072831        0.0000000032
C                0.6198715045        0.7630159461        0.0000000029
C                0.6673659479        0.8104811891        0.0000000023
C                0.6193057243        0.9055850057        0.0000000011
C                0.6667651512        0.9532093278       -0.0000000033
C                0.7608781352        0.0489445062       -0.0000000056
C                0.8072414724        0.0976727759       -0.0000000023
C                0.7577241840        0.1941894988       -0.0000000000
C                0.8073423278        0.2396637333        0.0000000001
C                0.7593629132        0.3350602395       -0.0000000015
C                0.8085024711        0.3818836903        0.0000000025
C                0.7629340346        0.4771333883        0.0000000017
C                0.8104519438        0.5245501801        0.0000000020
C                0.7630160339        0.6198714622        0.0000000019
C                0.8104809457        0.6673661631       -0.0000000003
C                0.7626428935        0.7626432096        0.0000000002
C                0.8101243932        0.8101249130       -0.0000000018
C                0.7620920796        0.9054898475       -0.0000000041
C                0.8094439468        0.9532026724       -0.0000000050
C                0.9034809366        0.0486191667       -0.0000000016
C                0.9515187602        0.0956442171        0.0000000001
C                0.9031743249        0.1911674173        0.0000000013
C                0.9513306199        0.2383053822        0.0000000018
C                0.9037744176        0.3336891179        0.0000000032
C                0.9518390405        0.3810197782        0.0000000035
C                0.9052643001        0.4763540611        0.0000000021
C                0.9528018194        0.5239464344       -0.0000000015
C                0.9055847017        0.6193059053       -0.0000000024
C                0.9532087397        0.6667655224       -0.0000000037
C                0.9054892650        0.7620925184       -0.0000000026
C                0.9532020517        0.8094443947       -0.0000000029
C                0.9049630771        0.9049635190       -0.0000000019
C                0.9524889603        0.9524891650       -0.0000000007



     Writing config-only to output data dir /home/gregb26/links/scratch/qe_tmp/vacancy_relaxed/series/7x7/nspin2/vac_7x7_relax_nspin2.save/ :
     XML data file
     NEW-OLD atomic charge density approx. for the potential

     negative rho (up, down):  1.070E-06 1.108E-06
     Generating pointlists ...

     total cpu time spent up to now is     1175.8 secs

     per-process dynamical memory:   263.2 Mb

     Self-consistent Calculation

     iteration #  1     ecut=   100.00 Ry     beta= 0.30
     Davidson diagonalization with overlap
     ethr =  1.00E-06,  avg # of iterations =  5.0

     Threshold (ethr) on eigenvalues was too large:
     Diagonalizing with lowered threshold

     Davidson diagonalization with overlap
     ethr =  3.54E-08,  avg # of iterations =  4.0

     negative rho (up, down):  8.163E-07 8.065E-07

     total cpu time spent up to now is     1186.8 secs

     total energy              =   -1168.11403618 Ry
     estimated scf accuracy    <       0.00016420 Ry

     total magnetization       =     2.00 Bohr mag/cell
     absolute magnetization    =     2.83 Bohr mag/cell

     iteration #  2     ecut=   100.00 Ry     beta= 0.30
     Davidson diagonalization with overlap
     ethr =  4.23E-08,  avg # of iterations =  2.0

     negative rho (up, down):  4.148E-07 4.132E-07

     total cpu time spent up to now is     1190.1 secs

     total energy              =   -1168.11403427 Ry
     estimated scf accuracy    <       0.00005626 Ry

     total magnetization       =     2.00 Bohr mag/cell
     absolute magnetization    =     2.84 Bohr mag/cell

     iteration #  3     ecut=   100.00 Ry     beta= 0.30
     Davidson diagonalization with overlap
     ethr =  1.45E-08,  avg # of iterations =  1.5

     negative rho (up, down):  1.276E-07 1.291E-07

     total cpu time spent up to now is     1193.3 secs

     total energy              =   -1168.11403545 Ry
     estimated scf accuracy    <       0.00001483 Ry

     total magnetization       =     2.00 Bohr mag/cell
     absolute magnetization    =     2.83 Bohr mag/cell

     iteration #  4     ecut=   100.00 Ry     beta= 0.30
     Davidson diagonalization with overlap
     ethr =  3.82E-09,  avg # of iterations =  3.0

     negative rho (up, down):  4.457E-08 4.574E-08

     total cpu time spent up to now is     1196.9 secs

     total energy              =   -1168.11403712 Ry
     estimated scf accuracy    <       0.00000172 Ry

     total magnetization       =     2.00 Bohr mag/cell
     absolute magnetization    =     2.84 Bohr mag/cell

     iteration #  5     ecut=   100.00 Ry     beta= 0.30
     Davidson diagonalization with overlap
     ethr =  4.43E-10,  avg # of iterations =  4.0

     negative rho (up, down):  1.449E-08 1.519E-08

     total cpu time spent up to now is     1201.0 secs

     total energy              =   -1168.11403740 Ry
     estimated scf accuracy    <       0.00000036 Ry

     total magnetization       =     2.00 Bohr mag/cell
     absolute magnetization    =     2.84 Bohr mag/cell

     iteration #  6     ecut=   100.00 Ry     beta= 0.30
     Davidson diagonalization with overlap
     ethr =  9.27E-11,  avg # of iterations =  4.0

     total cpu time spent up to now is     1205.1 secs

     total energy              =   -1168.11403746 Ry
     estimated scf accuracy    <       0.00000008 Ry

     total magnetization       =     2.00 Bohr mag/cell
     absolute magnetization    =     2.84 Bohr mag/cell

     iteration #  7     ecut=   100.00 Ry     beta= 0.30
     Davidson diagonalization with overlap
     ethr =  1.95E-11,  avg # of iterations =  3.0

     total cpu time spent up to now is     1208.7 secs

     total energy              =   -1168.11403747 Ry
     estimated scf accuracy    <       0.00000002 Ry

     total magnetization       =     2.00 Bohr mag/cell
     absolute magnetization    =     2.84 Bohr mag/cell

     iteration #  8     ecut=   100.00 Ry     beta= 0.30
     Davidson diagonalization with overlap
     ethr =  4.36E-12,  avg # of iterations =  4.0

     total cpu time spent up to now is     1213.0 secs

     total energy              =   -1168.11403747 Ry
     estimated scf accuracy    <          1.9E-09 Ry

     total magnetization       =     2.00 Bohr mag/cell
     absolute magnetization    =     2.84 Bohr mag/cell

     iteration #  9     ecut=   100.00 Ry     beta= 0.30
     Davidson diagonalization with overlap
     ethr =  4.99E-13,  avg # of iterations =  4.0

     total cpu time spent up to now is     1217.7 secs

     total energy              =   -1168.11403747 Ry
     estimated scf accuracy    <          5.1E-10 Ry

     total magnetization       =     2.00 Bohr mag/cell
     absolute magnetization    =     2.84 Bohr mag/cell

     iteration # 10     ecut=   100.00 Ry     beta= 0.30
     Davidson diagonalization with overlap
     ethr =  1.32E-13,  avg # of iterations =  4.5

     total cpu time spent up to now is     1221.9 secs

     total energy              =   -1168.11403747 Ry
     estimated scf accuracy    <          1.7E-10 Ry

     total magnetization       =     2.00 Bohr mag/cell
     absolute magnetization    =     2.84 Bohr mag/cell

     iteration # 11     ecut=   100.00 Ry     beta= 0.30
     Davidson diagonalization with overlap
     ethr =  1.00E-13,  avg # of iterations =  3.5

     total cpu time spent up to now is     1225.6 secs

     total energy              =   -1168.11403747 Ry
     estimated scf accuracy    <          3.6E-11 Ry

     total magnetization       =     2.00 Bohr mag/cell
     absolute magnetization    =     2.84 Bohr mag/cell

     iteration # 12     ecut=   100.00 Ry     beta= 0.30
     Davidson diagonalization with overlap
     ethr =  1.00E-13,  avg # of iterations =  3.0

     Magnetic moment per site  (integrated on atomic sphere of radius R)
     atom   1 (R=0.032)  charge=  1.5212  magn= -0.0017
     atom   2 (R=0.032)  charge=  1.5241  magn=  0.0024
     atom   3 (R=0.032)  charge=  1.5255  magn= -0.0023
     atom   4 (R=0.032)  charge=  1.5259  magn=  0.0042
     atom   5 (R=0.032)  charge=  1.5294  magn= -0.0021
     atom   6 (R=0.032)  charge=  1.5290  magn=  0.0016
     atom   7 (R=0.032)  charge=  1.5284  magn= -0.0021
     atom   8 (R=0.032)  charge=  1.5272  magn=  0.0040
     atom   9 (R=0.032)  charge=  1.5250  magn= -0.0023
     atom  10 (R=0.032)  charge=  1.5209  magn=  0.0073
     atom  11 (R=0.032)  charge=  1.5232  magn= -0.0024
     atom  12 (R=0.032)  charge=  1.5115  magn=  0.0040
     atom  13 (R=0.032)  charge=  1.5145  magn= -0.0022
     atom  14 (R=0.032)  charge=  1.5220  magn=  0.0013
     atom  15 (R=0.032)  charge=  1.5255  magn= -0.0023
     atom  16 (R=0.032)  charge=  1.5259  magn=  0.0042
     atom  17 (R=0.032)  charge=  1.5297  magn= -0.0026
     atom  18 (R=0.032)  charge=  1.5274  magn=  0.0130
     atom  19 (R=0.032)  charge=  1.5327  magn= -0.0036
     atom  20 (R=0.032)  charge=  1.5349  magn=  0.0143
     atom  21 (R=0.032)  charge=  1.5287  magn= -0.0035
     atom  22 (R=0.032)  charge=  1.5250  magn=  0.0058
     atom  23 (R=0.032)  charge=  1.5252  magn= -0.0023
     atom  24 (R=0.032)  charge=  1.4924  magn=  0.0035
     atom  25 (R=0.032)  charge=  1.5061  magn= -0.0045
     atom  26 (R=0.032)  charge=  1.5221  magn=  0.0116
     atom  27 (R=0.032)  charge=  1.5200  magn= -0.0032
     atom  28 (R=0.032)  charge=  1.5230  magn=  0.0102
     atom  29 (R=0.032)  charge=  1.5294  magn= -0.0021
     atom  30 (R=0.032)  charge=  1.5290  magn=  0.0016
     atom  31 (R=0.032)  charge=  1.5327  magn= -0.0036
     atom  32 (R=0.032)  charge=  1.5349  magn=  0.0143
     atom  33 (R=0.032)  charge=  1.5448  magn= -0.0067
     atom  34 (R=0.032)  charge=  1.5517  magn=  0.0401
     atom  35 (R=0.032)  charge=  1.5401  magn= -0.0031
     atom  36 (R=0.032)  charge=  1.4051  magn=  0.0691
     atom  37 (R=0.032)  charge=  1.4713  magn= -0.0109
     atom  38 (R=0.032)  charge=  1.5178  magn=  0.0488
     atom  39 (R=0.032)  charge=  1.5183  magn= -0.0082
     atom  40 (R=0.032)  charge=  1.5205  magn=  0.0145
     atom  41 (R=0.032)  charge=  1.5248  magn= -0.0039
     atom  42 (R=0.032)  charge=  1.5259  magn=  0.0020
     atom  43 (R=0.032)  charge=  1.5284  magn= -0.0021
     atom  44 (R=0.032)  charge=  1.5272  magn=  0.0040
     atom  45 (R=0.032)  charge=  1.5287  magn= -0.0035
     atom  46 (R=0.032)  charge=  1.5250  magn=  0.0058
     atom  47 (R=0.032)  charge=  1.5401  magn= -0.0031
     atom  48 (R=0.032)  charge=  1.4051  magn=  0.0691
     atom  49 (R=0.032)  charge=  1.4998  magn=  0.3528
     atom  50 (R=0.032)  charge=  1.5510  magn= -0.0087
     atom  51 (R=0.032)  charge=  1.5347  magn=  0.0252
     atom  52 (R=0.032)  charge=  1.5350  magn= -0.0016
     atom  53 (R=0.032)  charge=  1.5309  magn=  0.0052
     atom  54 (R=0.032)  charge=  1.5292  magn= -0.0020
     atom  55 (R=0.032)  charge=  1.5289  magn=  0.0051
     atom  56 (R=0.032)  charge=  1.5250  magn= -0.0023
     atom  57 (R=0.032)  charge=  1.5209  magn=  0.0073
     atom  58 (R=0.032)  charge=  1.5252  magn= -0.0023
     atom  59 (R=0.032)  charge=  1.4924  magn=  0.0035
     atom  60 (R=0.032)  charge=  1.4713  magn= -0.0109
     atom  61 (R=0.032)  charge=  1.5178  magn=  0.0488
     atom  62 (R=0.032)  charge=  1.5510  magn= -0.0087
     atom  63 (R=0.032)  charge=  1.5347  magn=  0.0252
     atom  64 (R=0.032)  charge=  1.5373  magn= -0.0087
     atom  65 (R=0.032)  charge=  1.5321  magn=  0.0086
     atom  66 (R=0.032)  charge=  1.5304  magn= -0.0034
     atom  67 (R=0.032)  charge=  1.5299  magn=  0.0021
     atom  68 (R=0.032)  charge=  1.5273  magn= -0.0020
     atom  69 (R=0.032)  charge=  1.5277  magn=  0.0018
     atom  70 (R=0.032)  charge=  1.5232  magn= -0.0024
     atom  71 (R=0.032)  charge=  1.5115  magn=  0.0040
     atom  72 (R=0.032)  charge=  1.5061  magn= -0.0045
     atom  73 (R=0.032)  charge=  1.5221  magn=  0.0116
     atom  74 (R=0.032)  charge=  1.5183  magn= -0.0082
     atom  75 (R=0.032)  charge=  1.5205  magn=  0.0145
     atom  76 (R=0.032)  charge=  1.5350  magn= -0.0016
     atom  77 (R=0.032)  charge=  1.5309  magn=  0.0052
     atom  78 (R=0.032)  charge=  1.5304  magn= -0.0034
     atom  79 (R=0.032)  charge=  1.5299  magn=  0.0021
     atom  80 (R=0.032)  charge=  1.5279  magn= -0.0019
     atom  81 (R=0.032)  charge=  1.5285  magn=  0.0038
     atom  82 (R=0.032)  charge=  1.5259  magn= -0.0016
     atom  83 (R=0.032)  charge=  1.5230  magn=  0.0017
     atom  84 (R=0.032)  charge=  1.5145  magn= -0.0022
     atom  85 (R=0.032)  charge=  1.5220  magn=  0.0013
     atom  86 (R=0.032)  charge=  1.5200  magn= -0.0032
     atom  87 (R=0.032)  charge=  1.5230  magn=  0.0102
     atom  88 (R=0.032)  charge=  1.5248  magn= -0.0039
     atom  89 (R=0.032)  charge=  1.5259  magn=  0.0020
     atom  90 (R=0.032)  charge=  1.5292  magn= -0.0020
     atom  91 (R=0.032)  charge=  1.5289  magn=  0.0051
     atom  92 (R=0.032)  charge=  1.5273  magn= -0.0020
     atom  93 (R=0.032)  charge=  1.5277  magn=  0.0018
     atom  94 (R=0.032)  charge=  1.5259  magn= -0.0016
     atom  95 (R=0.032)  charge=  1.5230  magn=  0.0017
     atom  96 (R=0.032)  charge=  1.5232  magn= -0.0018
     atom  97 (R=0.032)  charge=  1.5153  magn=  0.0044

     total cpu time spent up to now is     1228.9 secs

     End of self-consistent calculation

 ------ SPIN UP ------------


          k = 0.0000 0.0000 0.0000 (233409 PWs)   bands (ev):

   -23.7946 -23.4099 -23.3522 -23.3316 -23.3057 -23.2623 -23.1476 -22.4257
   -22.3914 -22.3842 -22.3756 -22.3065 -22.2123 -21.9431 -21.9294 -21.9091
   -21.8742 -21.8315 -21.5821 -20.5541 -20.5505 -20.5356 -20.5337 -20.5279
   -20.5097 -20.5072 -20.5017 -20.4818 -20.4664 -20.3726 -20.0610 -19.6564
   -19.6349 -19.6078 -19.5644 -19.5508 -19.2002 -18.3640 -18.3492 -18.3422
   -18.3361 -18.2837 -18.2812 -18.2705 -18.2654 -18.2446 -18.2130 -18.1786
   -17.6318 -17.2435 -17.2418 -17.2328 -17.1769 -17.0852 -16.8186 -16.3324
   -16.3299 -16.3053 -16.2249 -16.1846 -16.0984 -15.8238 -15.8104 -15.7970
   -15.7073 -15.6939 -15.0830 -14.4371 -14.4269 -14.4039 -14.3974 -14.3821
   -14.3796 -14.3661 -14.3469 -14.3341 -14.3063 -14.2727 -14.1908 -14.1905
   -14.1437 -14.1329 -13.8807 -13.7576 -13.1759 -12.7110 -12.6999 -12.6458
   -12.5767 -12.5329 -12.2821 -12.1427 -12.1382 -12.1179 -11.9874 -11.9615
   -11.8807 -11.8670 -11.6715 -11.6451 -11.6229 -11.6137 -11.5996 -11.5939
   -11.5825 -11.5364 -11.5315 -11.4443 -11.3907 -11.3531 -11.3452 -11.3303
   -11.3259 -11.3067 -11.2741 -11.2055 -11.1757 -11.1662 -11.1390 -10.9904
   -10.9095 -10.6469 -10.5932 -10.5691 -10.5580 -10.3310 -10.3150 -10.2459
   -10.2129 -10.2074 -10.2060 -10.1494 -10.1145 -10.0403  -9.9855  -9.9629
    -9.9546  -9.8696  -9.8290  -9.7292  -9.7172  -9.6967  -9.6943  -9.6782
    -9.6738  -9.6367  -9.6318  -9.6187  -9.6119  -9.3730  -9.2958  -9.2953
    -9.1117  -9.1011  -9.0732  -8.5712  -8.5416  -8.3374  -8.2608  -8.2235
    -8.2052  -8.1830  -8.1473  -8.1308  -8.1308  -8.1139  -8.1117  -8.0998
    -8.0987  -8.0861  -8.0685  -8.0600  -8.0187  -7.7141  -7.4835  -7.4713
    -7.3320  -7.3027  -7.3012  -7.2794  -7.2410  -6.9025  -6.2164  -6.2145
    -6.1971  -6.1761  -6.1656  -6.0080  -5.8048  -5.8009  -5.7940  -5.7931
    -5.7252  -5.1151  -4.8722  -2.8728  -2.8341  -2.8164  -2.7910  -2.7860
    -2.7743  -2.7553  -2.7532  -2.7458  -2.7321  -2.7005  -2.6344  -2.1977
    -1.7954  -1.7659  -1.7500  -1.7178  -1.6563  -1.2104  -0.9773  -0.3613
    -0.3579  -0.3285  -0.3078  -0.3000  -0.2925  -0.2883  -0.2689  -0.2598

 ------ SPIN DOWN ----------


          k = 0.0000 0.0000 0.0000 (233409 PWs)   bands (ev):

   -23.7804 -23.3798 -23.3458 -23.3242 -23.2984 -23.2478 -23.0931 -22.3850
   -22.3750 -22.3725 -22.3612 -22.2963 -22.1899 -21.9149 -21.9135 -21.8891
   -21.8561 -21.8126 -21.5134 -20.5455 -20.5406 -20.5144 -20.5082 -20.4986
   -20.4935 -20.4908 -20.4811 -20.4595 -20.4388 -20.3485 -20.0210 -19.6280
   -19.6184 -19.5928 -19.5301 -19.5254 -19.1445 -18.3474 -18.3347 -18.3286
   -18.3274 -18.2765 -18.2708 -18.2493 -18.2465 -18.2152 -18.1998 -18.0940
   -17.5308 -17.2328 -17.2300 -17.2225 -17.1410 -17.0695 -16.7625 -16.3136
   -16.3104 -16.2907 -16.1940 -16.1654 -16.0802 -15.8082 -15.7945 -15.7881
   -15.6791 -15.6136 -15.0147 -14.4147 -14.4011 -14.3896 -14.3846 -14.3727
   -14.3679 -14.3474 -14.3297 -14.3167 -14.2876 -14.2347 -14.1823 -14.1817
   -14.1385 -14.1149 -13.8041 -13.7276 -13.0939 -12.6901 -12.6723 -12.6328
   -12.5608 -12.4939 -12.2526 -12.1290 -12.1244 -12.0954 -11.9810 -11.9472
   -11.8587 -11.8294 -11.6480 -11.6348 -11.6148 -11.6045 -11.5859 -11.5735
   -11.5638 -11.5224 -11.5203 -11.4165 -11.3521 -11.3338 -11.3310 -11.3159
   -11.2997 -11.2963 -11.2465 -11.1880 -11.1636 -11.1493 -11.0639 -10.9805
   -10.8640 -10.6394 -10.5738 -10.5644 -10.5399 -10.2976 -10.2891 -10.1941
   -10.1929 -10.1858 -10.1804 -10.1272 -10.0668 -10.0035  -9.9650  -9.9496
    -9.9422  -9.8650  -9.8186  -9.7049  -9.6823  -9.6695  -9.6562  -9.6560
    -9.6387  -9.6218  -9.6087  -9.5845  -9.5147  -9.2793  -9.2642  -9.2568
    -9.1033  -9.0866  -9.0607  -8.5532  -8.5040  -8.2449  -8.2273  -8.2146
    -8.1707  -8.1144  -8.1077  -8.0906  -8.0859  -8.0738  -8.0705  -8.0664
    -8.0607  -8.0453  -8.0274  -8.0216  -7.9758  -7.6628  -7.4709  -7.4184
    -7.2954  -7.2885  -7.2719  -7.2329  -7.1916  -6.8274  -6.1911  -6.1869
    -6.1741  -6.1389  -6.1158  -5.9677  -5.7824  -5.7820  -5.7502  -5.6944
    -5.6808  -4.5154  -2.9047  -2.8233  -2.7948  -2.7768  -2.7650  -2.7572
    -2.7369  -2.7332  -2.7215  -2.7161  -2.5896  -2.5458  -2.5404  -2.1534
    -1.7759  -1.7524  -1.7072  -1.6336  -1.6050  -1.1377  -0.9699  -0.3454
    -0.3407  -0.3028  -0.2822  -0.2717  -0.2619  -0.2610  -0.2329  -0.2261

     the Fermi energy is    -4.7493 ev

!    total energy              =   -1168.11403747 Ry
     estimated scf accuracy    <          1.1E-11 Ry
     smearing contrib. (-TS)   =       0.00088292 Ry
     internal energy E=F+TS    =   -1168.11492039 Ry

     The total energy is F=E-TS. E is the sum of the following terms:
     one-electron contribution =  -13175.44732559 Ry
     hartree contribution      =    6623.94041733 Ry
     xc contribution           =    -415.41043747 Ry
     ewald contribution        =    5798.80242534 Ry

     total magnetization       =     2.00 Bohr mag/cell
     absolute magnetization    =     2.84 Bohr mag/cell

     convergence has been achieved in  12 iterations

     Forces acting on atoms (cartesian axes, Ry/au):

     atom    1 type  1   force =    -0.00087264    0.00000032    0.00000000
     atom    2 type  1   force =    -0.00103425    0.00000051    0.00000001
     atom    3 type  1   force =    -0.00033248    0.00027062    0.00000000
     atom    4 type  1   force =    -0.00049493    0.00019781   -0.00000001
     atom    5 type  1   force =    -0.00032346    0.00092229   -0.00000001
     atom    6 type  1   force =     0.00009981   -0.00013746    0.00000001
     atom    7 type  1   force =    -0.00036065    0.00067640    0.00000001
     atom    8 type  1   force =    -0.00022209    0.00007225   -0.00000001
     atom    9 type  1   force =     0.00043073   -0.00074663    0.00000001
     atom   10 type  1   force =     0.00081415   -0.00082333    0.00000001
     atom   11 type  1   force =     0.00028942   -0.00109127    0.00000000
     atom   12 type  1   force =     0.00028709   -0.00050398    0.00000000
     atom   13 type  1   force =    -0.00035420    0.00017264   -0.00000001
     atom   14 type  1   force =    -0.00076546   -0.00093814    0.00000000
     atom   15 type  1   force =    -0.00033221   -0.00026931    0.00000000
     atom   16 type  1   force =    -0.00049477   -0.00019740   -0.00000002
     atom   17 type  1   force =    -0.00049007    0.00000051   -0.00000000
     atom   18 type  1   force =    -0.00033700    0.00000026    0.00000002
     atom   19 type  1   force =     0.00020883   -0.00001674   -0.00000001
     atom   20 type  1   force =    -0.00055703    0.00010473   -0.00000000
     atom   21 type  1   force =    -0.00061278   -0.00057261   -0.00000000
     atom   22 type  1   force =     0.00039611   -0.00049009   -0.00000000
     atom   23 type  1   force =    -0.00028507   -0.00065294   -0.00000002
     atom   24 type  1   force =     0.00068305    0.00021145   -0.00000001
     atom   25 type  1   force =     0.00041793    0.00007771    0.00000001
     atom   26 type  1   force =     0.00008264   -0.00035476    0.00000002
     atom   27 type  1   force =    -0.00019237   -0.00052655    0.00000000
     atom   28 type  1   force =    -0.00094222   -0.00050227    0.00000000
     atom   29 type  1   force =    -0.00032295   -0.00092188   -0.00000000
     atom   30 type  1   force =     0.00009966    0.00013711   -0.00000000
     atom   31 type  1   force =     0.00020871    0.00001679   -0.00000001
     atom   32 type  1   force =    -0.00055746   -0.00010536    0.00000002
     atom   33 type  1   force =    -0.00087665   -0.00000055    0.00000001
     atom   34 type  1   force =     0.00088267   -0.00000122    0.00000001
     atom   35 type  1   force =    -0.00056134   -0.00047450    0.00000001
     atom   36 type  2   force =     0.00164483    0.00208205   -0.00000000
     atom   37 type  1   force =    -0.00009099   -0.00062272   -0.00000000
     atom   38 type  1   force =     0.00053254   -0.00037706    0.00000000
     atom   39 type  1   force =    -0.00039202   -0.00007897   -0.00000001
     atom   40 type  1   force =     0.00029285   -0.00018364    0.00000001
     atom   41 type  1   force =     0.00001981   -0.00014087   -0.00000000
     atom   42 type  1   force =    -0.00088196   -0.00054181    0.00000001
     atom   43 type  1   force =    -0.00036077   -0.00067630    0.00000000
     atom   44 type  1   force =    -0.00022293   -0.00007306    0.00000001
     atom   45 type  1   force =    -0.00061350    0.00057213   -0.00000001
     atom   46 type  1   force =     0.00039541    0.00048847    0.00000000
     atom   47 type  1   force =    -0.00056319    0.00047306    0.00000000
     atom   48 type  2   force =     0.00164256   -0.00208305   -0.00000001
     atom   49 type  2   force =    -0.00026683    0.00000214   -0.00000000
     atom   50 type  1   force =    -0.00169279    0.00112021   -0.00000001
     atom   51 type  1   force =     0.00090888   -0.00004249    0.00000001
     atom   52 type  1   force =    -0.00016124    0.00063784   -0.00000001
     atom   53 type  1   force =    -0.00009927   -0.00023476   -0.00000000
     atom   54 type  1   force =     0.00094966    0.00003000   -0.00000000
     atom   55 type  1   force =     0.00035236    0.00059037   -0.00000000
     atom   56 type  1   force =     0.00042990    0.00074610   -0.00000000
     atom   57 type  1   force =     0.00081282    0.00082180   -0.00000000
     atom   58 type  1   force =    -0.00028652    0.00065227   -0.00000000
     atom   59 type  1   force =     0.00068172   -0.00021213    0.00000001
     atom   60 type  1   force =    -0.00009134    0.00062191    0.00000001
     atom   61 type  1   force =     0.00053104    0.00037812   -0.00000001
     atom   62 type  1   force =    -0.00169415   -0.00112021   -0.00000000
     atom   63 type  1   force =     0.00090876    0.00004607    0.00000001
     atom   64 type  1   force =    -0.00101943   -0.00000082    0.00000001
     atom   65 type  1   force =     0.00010161    0.00000086   -0.00000001
     atom   66 type  1   force =     0.00051662    0.00025668    0.00000001
     atom   67 type  1   force =    -0.00070939    0.00009492   -0.00000000
     atom   68 type  1   force =    -0.00024995   -0.00011473   -0.00000002
     atom   69 type  1   force =     0.00121362    0.00129601    0.00000001
     atom   70 type  1   force =     0.00028889    0.00109031    0.00000001
     atom   71 type  1   force =     0.00028619    0.00050317   -0.00000000
     atom   72 type  1   force =     0.00041734   -0.00007798   -0.00000001
     atom   73 type  1   force =     0.00008120    0.00035486   -0.00000000
     atom   74 type  1   force =    -0.00039252    0.00008025    0.00000001
     atom   75 type  1   force =     0.00029227    0.00018418   -0.00000001
     atom   76 type  1   force =    -0.00016226   -0.00063713   -0.00000000
     atom   77 type  1   force =    -0.00009885    0.00023573    0.00000000
     atom   78 type  1   force =     0.00051631   -0.00025775    0.00000000
     atom   79 type  1   force =    -0.00070860   -0.00009526    0.00000000
     atom   80 type  1   force =    -0.00045916   -0.00000049   -0.00000000
     atom   81 type  1   force =     0.00085044   -0.00000054   -0.00000001
     atom   82 type  1   force =     0.00044664    0.00039961    0.00000000
     atom   83 type  1   force =     0.00100984    0.00136088    0.00000000
     atom   84 type  1   force =    -0.00035449   -0.00017259    0.00000001
     atom   85 type  1   force =    -0.00076566    0.00093844   -0.00000000
     atom   86 type  1   force =    -0.00019281    0.00052833   -0.00000000
     atom   87 type  1   force =    -0.00094255    0.00050251    0.00000001
     atom   88 type  1   force =     0.00001882    0.00014305   -0.00000000
     atom   89 type  1   force =    -0.00088159    0.00054128   -0.00000000
     atom   90 type  1   force =     0.00094833   -0.00002884   -0.00000001
     atom   91 type  1   force =     0.00035283   -0.00059054   -0.00000000
     atom   92 type  1   force =    -0.00025016    0.00011455    0.00000000
     atom   93 type  1   force =     0.00121411   -0.00129664    0.00000000
     atom   94 type  1   force =     0.00044667   -0.00040024   -0.00000000
     atom   95 type  1   force =     0.00101003   -0.00136170    0.00000001
     atom   96 type  1   force =     0.00043970   -0.00000002   -0.00000001
     atom   97 type  1   force =     0.00047152   -0.00000021   -0.00000001

     Total force =     0.008793     Total SCF correction =     0.000003
     Energy error            =      1.8E-04 Ry
     Gradient error          =      2.1E-03 Ry/Bohr

     number of scf cycles    =  15
     number of bfgs steps    =  14

     energy             old  =   -1168.1138549545 Ry
     energy             new  =   -1168.1140374739 Ry

     CASE: energy            _new < energy            _old

     new trust radius        =       0.0034781426 bohr
     new conv_thr            =            1.8E-11 Ry


ATOMIC_POSITIONS (crystal)
C                0.0471719835        0.0471715760       -0.0000000012
C                0.0947278984        0.0947273116        0.0000000005
C                0.0467091325        0.1901789627        0.0000000026
C                0.0944172226        0.2376216670        0.0000000024
C                0.0468448180        0.3329803469        0.0000000017
C                0.0944500551        0.3805146329       -0.0000000006
C                0.0478163913        0.4758496146       -0.0000000014
C                0.0956293610        0.5232664572       -0.0000000001
C                0.0486449469        0.6186011722       -0.0000000020
C                0.0968849646        0.6655662049       -0.0000000000
C                0.0490083259        0.7608308688       -0.0000000017
C                0.0977505893        0.8071755005       -0.0000000014
C                0.0486374827        0.9034364768       -0.0000000011
C                0.0956612408        0.9514564882       -0.0000000021
C                0.1901795044        0.0467084809        0.0000000020
C                0.2376220868        0.0944167208        0.0000000040
C                0.1896959006        0.1896954806        0.0000000020
C                0.2371951633        0.2371950240       -0.0000000015
C                0.1893529099        0.3325206809       -0.0000000015
C                0.2365833655        0.3799565434        0.0000000010
C                0.1906842216        0.4750266320        0.0000000038
C                0.2390565502        0.5219563491        0.0000000072
C                0.1929760265        0.6166280123        0.0000000061
C                0.2440103031        0.6606228619        0.0000000038
C                0.1942438776        0.7576696342       -0.0000000013
C                0.2396999979        0.8072852183       -0.0000000025
C                0.1911850382        0.9031081397       -0.0000000029
C                0.2383223320        0.9512443054       -0.0000000006
C                0.3329806693        0.0468444687        0.0000000029
C                0.3805147079        0.0944500047        0.0000000015
C                0.3325207442        0.1893529217        0.0000000006
C                0.3799563618        0.2365836520       -0.0000000004
C                0.3314939392        0.3314942310        0.0000000013
C                0.3780914111        0.3780917849        0.0000000033
C                0.3346558037        0.4725899598        0.0000000077
C1               0.3891667376        0.5110342343        0.0000000038
C                0.3426540443        0.6090564529        0.0000000033
C                0.3837632013        0.6639555876        0.0000000014
C                0.3350719068        0.7593366377       -0.0000000011
C                0.3819482586        0.8084443805       -0.0000000004
C                0.3337268068        0.9037129692        0.0000000003
C                0.3810337652        0.9517833500        0.0000000024
C                0.4758495985        0.0478165396        0.0000000001
C                0.5232662307        0.0956298158       -0.0000000026
C                0.4750264224        0.1906847353       -0.0000000011
C                0.5219560699        0.2390572311       -0.0000000032
C                0.4725896258        0.3346565306       -0.0000000005
C1               0.5110340273        0.3891674581       -0.0000000015
C1               0.5292408782        0.5292403488       -0.0000000023
C                0.4786359004        0.6205430294        0.0000000017
C                0.5257603007        0.6685045490        0.0000000004
C                0.4771731223        0.7628932805        0.0000000014
C                0.5246051919        0.8104017998        0.0000000023
C                0.4764033687        0.9052326183        0.0000000019
C                0.5239236154        0.9528516387        0.0000000006
C                0.6186009068        0.0486455408       -0.0000000047
C                0.6655659191        0.0968856275       -0.0000000056
C                0.6166277801        0.1929766992       -0.0000000043
C                0.6606228468        0.2440107697       -0.0000000029
C                0.6090565259        0.3426544331       -0.0000000023
C                0.6639560861        0.3837630937       -0.0000000035
C                0.6205437703        0.4786356063       -0.0000000022
C                0.6685051038        0.5257600676       -0.0000000000
C                0.6206178907        0.6206174720        0.0000000004
C                0.6680223943        0.6680223059        0.0000000033
C                0.6199331243        0.7630344555        0.0000000032
C                0.6674017085        0.8105128759        0.0000000020
C                0.6193192199        0.9056086505        0.0000000006
C                0.6667549598        0.9533034093       -0.0000000029
C                0.7608306039        0.0490089457       -0.0000000050
C                0.8071754857        0.0977509723       -0.0000000022
C                0.7576697507        0.1942442272       -0.0000000005
C                0.8072857157        0.2396999148       -0.0000000007
C                0.7593371640        0.3350717871       -0.0000000018
C                0.8084450298        0.3819479532        0.0000000019
C                0.7628938650        0.4771728007        0.0000000018
C                0.8104021451        0.5246050730        0.0000000012
C                0.7630345625        0.6199330173        0.0000000022
C                0.8105126458        0.6674019315        0.0000000002
C                0.7626865241        0.7626868215       -0.0000000000
C                0.8101859584        0.8101864746       -0.0000000020
C                0.7621082393        0.9055517819       -0.0000000040
C                0.8094406572        0.9532808311       -0.0000000052
C                0.9034365078        0.0486376479       -0.0000000016
C                0.9514568754        0.0956610365        0.0000000001
C                0.9031086532        0.1911848232        0.0000000013
C                0.9512449980        0.2383218940        0.0000000025
C                0.9037135496        0.3337264334        0.0000000030
C                0.9517837899        0.3810334927        0.0000000034
C                0.9052328737        0.4764031865        0.0000000014
C                0.9528515736        0.5239236992       -0.0000000015
C                0.9056083503        0.6193193916       -0.0000000022
C                0.9533028570        0.6667553333       -0.0000000039
C                0.9055511925        0.7621086762       -0.0000000025
C                0.9532802302        0.8094410789       -0.0000000024
C                0.9049883471        0.9049887889       -0.0000000024
C                0.9525087417        0.9525089290       -0.0000000013



     Writing config-only to output data dir /home/gregb26/links/scratch/qe_tmp/vacancy_relaxed/series/7x7/nspin2/vac_7x7_relax_nspin2.save/ :
     XML data file
     NEW-OLD atomic charge density approx. for the potential

     negative rho (up, down):  3.935E-07 4.183E-07
     Generating pointlists ...

     total cpu time spent up to now is     1231.2 secs

     per-process dynamical memory:   262.1 Mb

     Self-consistent Calculation

     iteration #  1     ecut=   100.00 Ry     beta= 0.30
     Davidson diagonalization with overlap
     ethr =  1.00E-06,  avg # of iterations =  3.0

     Threshold (ethr) on eigenvalues was too large:
     Diagonalizing with lowered threshold

     Davidson diagonalization with overlap
     ethr =  4.40E-09,  avg # of iterations =  6.0

     negative rho (up, down):  3.319E-07 3.571E-07

     total cpu time spent up to now is     1243.2 secs

     total energy              =   -1168.11409333 Ry
     estimated scf accuracy    <       0.00003283 Ry

     total magnetization       =     2.00 Bohr mag/cell
     absolute magnetization    =     2.84 Bohr mag/cell

     iteration #  2     ecut=   100.00 Ry     beta= 0.30
     Davidson diagonalization with overlap
     ethr =  8.46E-09,  avg # of iterations =  1.0

     negative rho (up, down):  1.811E-07 1.970E-07

     total cpu time spent up to now is     1246.3 secs

     total energy              =   -1168.11409269 Ry
     estimated scf accuracy    <       0.00001129 Ry

     total magnetization       =     2.00 Bohr mag/cell
     absolute magnetization    =     2.84 Bohr mag/cell

     iteration #  3     ecut=   100.00 Ry     beta= 0.30
     Davidson diagonalization with overlap
     ethr =  2.91E-09,  avg # of iterations =  1.0

     negative rho (up, down):  5.218E-08 5.816E-08

     total cpu time spent up to now is     1249.4 secs

     total energy              =   -1168.11409275 Ry
     estimated scf accuracy    <       0.00000342 Ry

     total magnetization       =     2.00 Bohr mag/cell
     absolute magnetization    =     2.83 Bohr mag/cell

     iteration #  4     ecut=   100.00 Ry     beta= 0.30
     Davidson diagonalization with overlap
     ethr =  8.81E-10,  avg # of iterations =  2.0

     negative rho (up, down):  1.326E-08 1.540E-08

     total cpu time spent up to now is     1253.1 secs

     total energy              =   -1168.11409313 Ry
     estimated scf accuracy    <       0.00000031 Ry

     total magnetization       =     2.00 Bohr mag/cell
     absolute magnetization    =     2.83 Bohr mag/cell

     iteration #  5     ecut=   100.00 Ry     beta= 0.30
     Davidson diagonalization with overlap
     ethr =  7.97E-11,  avg # of iterations =  4.0

     total cpu time spent up to now is     1257.6 secs

     total energy              =   -1168.11409320 Ry
     estimated scf accuracy    <       0.00000005 Ry

     total magnetization       =     2.00 Bohr mag/cell
     absolute magnetization    =     2.83 Bohr mag/cell

     iteration #  6     ecut=   100.00 Ry     beta= 0.30
     Davidson diagonalization with overlap
     ethr =  1.28E-11,  avg # of iterations =  4.0

     total cpu time spent up to now is     1261.6 secs

     total energy              =   -1168.11409320 Ry
     estimated scf accuracy    <       0.00000001 Ry

     total magnetization       =     2.00 Bohr mag/cell
     absolute magnetization    =     2.83 Bohr mag/cell

     iteration #  7     ecut=   100.00 Ry     beta= 0.30
     Davidson diagonalization with overlap
     ethr =  3.55E-12,  avg # of iterations =  3.0

     total cpu time spent up to now is     1265.5 secs

     total energy              =   -1168.11409321 Ry
     estimated scf accuracy    <          1.6E-09 Ry

     total magnetization       =     2.00 Bohr mag/cell
     absolute magnetization    =     2.83 Bohr mag/cell

     iteration #  8     ecut=   100.00 Ry     beta= 0.30
     Davidson diagonalization with overlap
     ethr =  4.10E-13,  avg # of iterations =  4.0

     total cpu time spent up to now is     1270.3 secs

     total energy              =   -1168.11409321 Ry
     estimated scf accuracy    <          2.7E-10 Ry

     total magnetization       =     2.00 Bohr mag/cell
     absolute magnetization    =     2.83 Bohr mag/cell

     iteration #  9     ecut=   100.00 Ry     beta= 0.30
     Davidson diagonalization with overlap
     ethr =  1.00E-13,  avg # of iterations =  2.5

     total cpu time spent up to now is     1273.8 secs

     total energy              =   -1168.11409321 Ry
     estimated scf accuracy    <          9.1E-11 Ry

     total magnetization       =     2.00 Bohr mag/cell
     absolute magnetization    =     2.83 Bohr mag/cell

     iteration # 10     ecut=   100.00 Ry     beta= 0.30
     Davidson diagonalization with overlap
     ethr =  1.00E-13,  avg # of iterations =  4.0

     total cpu time spent up to now is     1277.4 secs

     total energy              =   -1168.11409321 Ry
     estimated scf accuracy    <          2.4E-11 Ry

     total magnetization       =     2.00 Bohr mag/cell
     absolute magnetization    =     2.83 Bohr mag/cell

     iteration # 11     ecut=   100.00 Ry     beta= 0.30
     Davidson diagonalization with overlap
     ethr =  1.00E-13,  avg # of iterations =  2.0

     Magnetic moment per site  (integrated on atomic sphere of radius R)
     atom   1 (R=0.032)  charge=  1.5211  magn= -0.0017
     atom   2 (R=0.032)  charge=  1.5239  magn=  0.0025
     atom   3 (R=0.032)  charge=  1.5254  magn= -0.0023
     atom   4 (R=0.032)  charge=  1.5256  magn=  0.0042
     atom   5 (R=0.032)  charge=  1.5291  magn= -0.0021
     atom   6 (R=0.032)  charge=  1.5286  magn=  0.0016
     atom   7 (R=0.032)  charge=  1.5283  magn= -0.0021
     atom   8 (R=0.032)  charge=  1.5270  magn=  0.0040
     atom   9 (R=0.032)  charge=  1.5250  magn= -0.0023
     atom  10 (R=0.032)  charge=  1.5210  magn=  0.0073
     atom  11 (R=0.032)  charge=  1.5234  magn= -0.0024
     atom  12 (R=0.032)  charge=  1.5116  magn=  0.0040
     atom  13 (R=0.032)  charge=  1.5145  magn= -0.0022
     atom  14 (R=0.032)  charge=  1.5220  magn=  0.0013
     atom  15 (R=0.032)  charge=  1.5254  magn= -0.0023
     atom  16 (R=0.032)  charge=  1.5256  magn=  0.0042
     atom  17 (R=0.032)  charge=  1.5295  magn= -0.0026
     atom  18 (R=0.032)  charge=  1.5271  magn=  0.0130
     atom  19 (R=0.032)  charge=  1.5327  magn= -0.0036
     atom  20 (R=0.032)  charge=  1.5352  magn=  0.0143
     atom  21 (R=0.032)  charge=  1.5285  magn= -0.0035
     atom  22 (R=0.032)  charge=  1.5252  magn=  0.0058
     atom  23 (R=0.032)  charge=  1.5255  magn= -0.0023
     atom  24 (R=0.032)  charge=  1.4926  magn=  0.0035
     atom  25 (R=0.032)  charge=  1.5064  magn= -0.0045
     atom  26 (R=0.032)  charge=  1.5225  magn=  0.0116
     atom  27 (R=0.032)  charge=  1.5202  magn= -0.0032
     atom  28 (R=0.032)  charge=  1.5230  magn=  0.0102
     atom  29 (R=0.032)  charge=  1.5291  magn= -0.0021
     atom  30 (R=0.032)  charge=  1.5286  magn=  0.0016
     atom  31 (R=0.032)  charge=  1.5327  magn= -0.0036
     atom  32 (R=0.032)  charge=  1.5352  magn=  0.0143
     atom  33 (R=0.032)  charge=  1.5446  magn= -0.0067
     atom  34 (R=0.032)  charge=  1.5516  magn=  0.0401
     atom  35 (R=0.032)  charge=  1.5402  magn= -0.0030
     atom  36 (R=0.032)  charge=  1.4055  magn=  0.0691
     atom  37 (R=0.032)  charge=  1.4717  magn= -0.0109
     atom  38 (R=0.032)  charge=  1.5182  magn=  0.0487
     atom  39 (R=0.032)  charge=  1.5185  magn= -0.0082
     atom  40 (R=0.032)  charge=  1.5206  magn=  0.0144
     atom  41 (R=0.032)  charge=  1.5248  magn= -0.0039
     atom  42 (R=0.032)  charge=  1.5258  magn=  0.0020
     atom  43 (R=0.032)  charge=  1.5283  magn= -0.0021
     atom  44 (R=0.032)  charge=  1.5270  magn=  0.0040
     atom  45 (R=0.032)  charge=  1.5285  magn= -0.0035
     atom  46 (R=0.032)  charge=  1.5252  magn=  0.0058
     atom  47 (R=0.032)  charge=  1.5402  magn= -0.0030
     atom  48 (R=0.032)  charge=  1.4055  magn=  0.0690
     atom  49 (R=0.032)  charge=  1.4998  magn=  0.3531
     atom  50 (R=0.032)  charge=  1.5511  magn= -0.0087
     atom  51 (R=0.032)  charge=  1.5349  magn=  0.0253
     atom  52 (R=0.032)  charge=  1.5351  magn= -0.0015
     atom  53 (R=0.032)  charge=  1.5307  magn=  0.0052
     atom  54 (R=0.032)  charge=  1.5288  magn= -0.0020
     atom  55 (R=0.032)  charge=  1.5289  magn=  0.0051
     atom  56 (R=0.032)  charge=  1.5250  magn= -0.0023
     atom  57 (R=0.032)  charge=  1.5210  magn=  0.0073
     atom  58 (R=0.032)  charge=  1.5255  magn= -0.0023
     atom  59 (R=0.032)  charge=  1.4926  magn=  0.0035
     atom  60 (R=0.032)  charge=  1.4717  magn= -0.0109
     atom  61 (R=0.032)  charge=  1.5182  magn=  0.0487
     atom  62 (R=0.032)  charge=  1.5511  magn= -0.0087
     atom  63 (R=0.032)  charge=  1.5349  magn=  0.0253
     atom  64 (R=0.032)  charge=  1.5373  magn= -0.0087
     atom  65 (R=0.032)  charge=  1.5317  magn=  0.0086
     atom  66 (R=0.032)  charge=  1.5304  magn= -0.0034
     atom  67 (R=0.032)  charge=  1.5299  magn=  0.0021
     atom  68 (R=0.032)  charge=  1.5268  magn= -0.0020
     atom  69 (R=0.032)  charge=  1.5275  magn=  0.0017
     atom  70 (R=0.032)  charge=  1.5234  magn= -0.0024
     atom  71 (R=0.032)  charge=  1.5116  magn=  0.0040
     atom  72 (R=0.032)  charge=  1.5064  magn= -0.0045
     atom  73 (R=0.032)  charge=  1.5225  magn=  0.0116
     atom  74 (R=0.032)  charge=  1.5185  magn= -0.0082
     atom  75 (R=0.032)  charge=  1.5206  magn=  0.0144
     atom  76 (R=0.032)  charge=  1.5351  magn= -0.0015
     atom  77 (R=0.032)  charge=  1.5307  magn=  0.0052
     atom  78 (R=0.032)  charge=  1.5304  magn= -0.0034
     atom  79 (R=0.032)  charge=  1.5299  magn=  0.0021
     atom  80 (R=0.032)  charge=  1.5276  magn= -0.0019
     atom  81 (R=0.032)  charge=  1.5282  magn=  0.0038
     atom  82 (R=0.032)  charge=  1.5257  magn= -0.0016
     atom  83 (R=0.032)  charge=  1.5230  magn=  0.0017
     atom  84 (R=0.032)  charge=  1.5145  magn= -0.0022
     atom  85 (R=0.032)  charge=  1.5220  magn=  0.0013
     atom  86 (R=0.032)  charge=  1.5202  magn= -0.0032
     atom  87 (R=0.032)  charge=  1.5230  magn=  0.0102
     atom  88 (R=0.032)  charge=  1.5248  magn= -0.0039
     atom  89 (R=0.032)  charge=  1.5258  magn=  0.0020
     atom  90 (R=0.032)  charge=  1.5288  magn= -0.0020
     atom  91 (R=0.032)  charge=  1.5289  magn=  0.0051
     atom  92 (R=0.032)  charge=  1.5268  magn= -0.0020
     atom  93 (R=0.032)  charge=  1.5275  magn=  0.0017
     atom  94 (R=0.032)  charge=  1.5257  magn= -0.0016
     atom  95 (R=0.032)  charge=  1.5230  magn=  0.0017
     atom  96 (R=0.032)  charge=  1.5229  magn= -0.0018
     atom  97 (R=0.032)  charge=  1.5154  magn=  0.0044

     total cpu time spent up to now is     1280.6 secs

     End of self-consistent calculation

 ------ SPIN UP ------------


          k = 0.0000 0.0000 0.0000 (233409 PWs)   bands (ev):

   -23.7939 -23.4099 -23.3506 -23.3298 -23.3057 -23.2643 -23.1481 -22.4252
   -22.3912 -22.3843 -22.3761 -22.3064 -22.2111 -21.9420 -21.9297 -21.9096
   -21.8746 -21.8322 -21.5825 -20.5520 -20.5501 -20.5362 -20.5346 -20.5275
   -20.5090 -20.5077 -20.5012 -20.4811 -20.4670 -20.3736 -20.0615 -19.6560
   -19.6352 -19.6078 -19.5639 -19.5519 -19.2001 -18.3640 -18.3494 -18.3414
   -18.3357 -18.2840 -18.2808 -18.2708 -18.2637 -18.2460 -18.2138 -18.1786
   -17.6328 -17.2439 -17.2431 -17.2323 -17.1758 -17.0843 -16.8179 -16.3323
   -16.3297 -16.3049 -16.2253 -16.1859 -16.0994 -15.8239 -15.8091 -15.7959
   -15.7087 -15.6939 -15.0826 -14.4372 -14.4270 -14.4037 -14.3975 -14.3823
   -14.3795 -14.3668 -14.3469 -14.3342 -14.3069 -14.2735 -14.1892 -14.1886
   -14.1436 -14.1330 -13.8804 -13.7592 -13.1753 -12.7126 -12.7003 -12.6466
   -12.5770 -12.5321 -12.2823 -12.1427 -12.1378 -12.1177 -11.9867 -11.9606
   -11.8802 -11.8661 -11.6720 -11.6452 -11.6243 -11.6139 -11.5992 -11.5931
   -11.5821 -11.5365 -11.5322 -11.4429 -11.3907 -11.3535 -11.3440 -11.3289
   -11.3260 -11.3067 -11.2758 -11.2054 -11.1765 -11.1667 -11.1396 -10.9924
   -10.9099 -10.6448 -10.5943 -10.5672 -10.5575 -10.3330 -10.3149 -10.2455
   -10.2127 -10.2076 -10.2063 -10.1495 -10.1137 -10.0394  -9.9855  -9.9631
    -9.9546  -9.8712  -9.8285  -9.7288  -9.7166  -9.6958  -9.6947  -9.6783
    -9.6743  -9.6354  -9.6321  -9.6190  -9.6121  -9.3734  -9.2981  -9.2965
    -9.1095  -9.0997  -9.0730  -8.5706  -8.5415  -8.3345  -8.2615  -8.2238
    -8.2067  -8.1839  -8.1469  -8.1322  -8.1296  -8.1134  -8.1111  -8.0996
    -8.0987  -8.0858  -8.0681  -8.0611  -8.0191  -7.7145  -7.4839  -7.4696
    -7.3312  -7.3027  -7.3014  -7.2800  -7.2411  -6.9021  -6.2166  -6.2136
    -6.1969  -6.1762  -6.1668  -6.0078  -5.8043  -5.8006  -5.7939  -5.7929
    -5.7258  -5.1083  -4.8719  -2.8736  -2.8333  -2.8160  -2.7911  -2.7857
    -2.7736  -2.7554  -2.7532  -2.7464  -2.7327  -2.7007  -2.6344  -2.1975
    -1.7953  -1.7661  -1.7505  -1.7181  -1.6561  -1.2095  -0.9773  -0.3607
    -0.3580  -0.3280  -0.3075  -0.2997  -0.2933  -0.2875  -0.2689  -0.2614

 ------ SPIN DOWN ----------


          k = 0.0000 0.0000 0.0000 (233409 PWs)   bands (ev):

   -23.7796 -23.3796 -23.3443 -23.3227 -23.2984 -23.2497 -23.0937 -22.3847
   -22.3750 -22.3720 -22.3617 -22.2961 -22.1886 -21.9142 -21.9138 -21.8894
   -21.8564 -21.8134 -21.5140 -20.5433 -20.5401 -20.5146 -20.5086 -20.4988
   -20.4937 -20.4909 -20.4803 -20.4602 -20.4382 -20.3496 -20.0215 -19.6276
   -19.6188 -19.5929 -19.5314 -19.5248 -19.1444 -18.3470 -18.3343 -18.3282
   -18.3269 -18.2766 -18.2704 -18.2497 -18.2446 -18.2156 -18.2019 -18.0947
   -17.5316 -17.2333 -17.2312 -17.2220 -17.1399 -17.0685 -16.7622 -16.3134
   -16.3098 -16.2907 -16.1945 -16.1669 -16.0812 -15.8076 -15.7938 -15.7869
   -15.6805 -15.6133 -15.0143 -14.4148 -14.4010 -14.3896 -14.3847 -14.3727
   -14.3676 -14.3475 -14.3299 -14.3170 -14.2882 -14.2352 -14.1807 -14.1799
   -14.1383 -14.1155 -13.8034 -13.7293 -13.0931 -12.6917 -12.6727 -12.6336
   -12.5610 -12.4932 -12.2529 -12.1289 -12.1239 -12.0949 -11.9803 -11.9463
   -11.8582 -11.8286 -11.6484 -11.6349 -11.6164 -11.6049 -11.5850 -11.5733
   -11.5631 -11.5226 -11.5207 -11.4153 -11.3517 -11.3325 -11.3315 -11.3149
   -11.2999 -11.2963 -11.2482 -11.1878 -11.1644 -11.1498 -11.0646 -10.9823
   -10.8643 -10.6372 -10.5742 -10.5624 -10.5401 -10.2996 -10.2890 -10.1939
   -10.1931 -10.1855 -10.1808 -10.1271 -10.0660 -10.0026  -9.9653  -9.9497
    -9.9423  -9.8666  -9.8181  -9.7043  -9.6819  -9.6697  -9.6562  -9.6557
    -9.6390  -9.6205  -9.6089  -9.5850  -9.5153  -9.2800  -9.2669  -9.2575
    -9.1014  -9.0853  -9.0603  -8.5526  -8.5037  -8.2454  -8.2282  -8.2154
    -8.1714  -8.1127  -8.1077  -8.0900  -8.0858  -8.0747  -8.0703  -8.0667
    -8.0606  -8.0461  -8.0243  -8.0211  -7.9765  -7.6633  -7.4714  -7.4168
    -7.2946  -7.2886  -7.2721  -7.2338  -7.1917  -6.8270  -6.1902  -6.1867
    -6.1741  -6.1401  -6.1158  -5.9675  -5.7819  -5.7817  -5.7504  -5.6952
    -5.6808  -4.5155  -2.8975  -2.8225  -2.7945  -2.7767  -2.7650  -2.7568
    -2.7362  -2.7336  -2.7226  -2.7167  -2.5904  -2.5461  -2.5401  -2.1530
    -1.7761  -1.7527  -1.7077  -1.6337  -1.6051  -1.1370  -0.9698  -0.3448
    -0.3408  -0.3032  -0.2816  -0.2723  -0.2624  -0.2615  -0.2314  -0.2272

     the Fermi energy is    -4.7494 ev

!    total energy              =   -1168.11409321 Ry
     estimated scf accuracy    <          8.0E-12 Ry
     smearing contrib. (-TS)   =       0.00090226 Ry
     internal energy E=F+TS    =   -1168.11499547 Ry

     The total energy is F=E-TS. E is the sum of the following terms:
     one-electron contribution =  -13175.39680054 Ry
     hartree contribution      =    6623.91568314 Ry
     xc contribution           =    -415.41025910 Ry
     ewald contribution        =    5798.77638103 Ry

     total magnetization       =     2.00 Bohr mag/cell
     absolute magnetization    =     2.83 Bohr mag/cell

     convergence has been achieved in  11 iterations

     Forces acting on atoms (cartesian axes, Ry/au):

     atom    1 type  1   force =    -0.00063222    0.00000031    0.00000000
     atom    2 type  1   force =    -0.00064253    0.00000088    0.00000000
     atom    3 type  1   force =    -0.00010854   -0.00008748   -0.00000000
     atom    4 type  1   force =    -0.00033328    0.00075648    0.00000000
     atom    5 type  1   force =     0.00039167   -0.00013953    0.00000000
     atom    6 type  1   force =    -0.00017170    0.00097716    0.00000000
     atom    7 type  1   force =    -0.00006172   -0.00061793    0.00000000
     atom    8 type  1   force =    -0.00013051    0.00034285    0.00000000
     atom    9 type  1   force =     0.00051839   -0.00096555    0.00000000
     atom   10 type  1   force =     0.00000315   -0.00064551    0.00000001
     atom   11 type  1   force =     0.00091388   -0.00119329    0.00000000
     atom   12 type  1   force =    -0.00004399    0.00049972    0.00000000
     atom   13 type  1   force =     0.00001418   -0.00013263   -0.00000001
     atom   14 type  1   force =    -0.00066618   -0.00037967    0.00000000
     atom   15 type  1   force =    -0.00010837    0.00008834   -0.00000000
     atom   16 type  1   force =    -0.00033283   -0.00075509   -0.00000001
     atom   17 type  1   force =     0.00031375    0.00000028   -0.00000000
     atom   18 type  1   force =     0.00018290    0.00000022    0.00000002
     atom   19 type  1   force =    -0.00100309   -0.00006283    0.00000000
     atom   20 type  1   force =     0.00035238   -0.00035173    0.00000000
     atom   21 type  1   force =    -0.00069823    0.00026547    0.00000000
     atom   22 type  1   force =    -0.00064710   -0.00072487   -0.00000001
     atom   23 type  1   force =     0.00044577   -0.00001191   -0.00000001
     atom   24 type  1   force =     0.00014918   -0.00004908   -0.00000001
     atom   25 type  1   force =     0.00038015    0.00011272    0.00000001
     atom   26 type  1   force =     0.00026489    0.00003287   -0.00000000
     atom   27 type  1   force =    -0.00017335   -0.00048408    0.00000001
     atom   28 type  1   force =    -0.00036406   -0.00028025    0.00000000
     atom   29 type  1   force =     0.00039111    0.00013924    0.00000000
     atom   30 type  1   force =    -0.00017137   -0.00097700    0.00000000
     atom   31 type  1   force =    -0.00100335    0.00006263   -0.00000000
     atom   32 type  1   force =     0.00035230    0.00035106    0.00000001
     atom   33 type  1   force =    -0.00054993   -0.00000043   -0.00000000
     atom   34 type  1   force =     0.00069440   -0.00000012   -0.00000001
     atom   35 type  1   force =    -0.00068963   -0.00023367   -0.00000002
     atom   36 type  2   force =     0.00122004    0.00110631    0.00000002
     atom   37 type  1   force =     0.00026736    0.00023667   -0.00000001
     atom   38 type  1   force =    -0.00028705   -0.00062440   -0.00000000
     atom   39 type  1   force =     0.00039121   -0.00037707    0.00000001
     atom   40 type  1   force =    -0.00025924    0.00066557    0.00000000
     atom   41 type  1   force =    -0.00037092    0.00005153    0.00000000
     atom   42 type  1   force =    -0.00021500   -0.00094310   -0.00000000
     atom   43 type  1   force =    -0.00006207    0.00061773    0.00000000
     atom   44 type  1   force =    -0.00013040   -0.00034343    0.00000000
     atom   45 type  1   force =    -0.00069866   -0.00026622   -0.00000001
     atom   46 type  1   force =    -0.00064739    0.00072389    0.00000001
     atom   47 type  1   force =    -0.00069001    0.00023183   -0.00000005
     atom   48 type  2   force =     0.00121837   -0.00110703   -0.00000000
     atom   49 type  2   force =    -0.00080343   -0.00000343    0.00000001
     atom   50 type  1   force =    -0.00033030    0.00002403   -0.00000001
     atom   51 type  1   force =     0.00025964    0.00028761    0.00000001
     atom   52 type  1   force =     0.00027974    0.00049298   -0.00000001
     atom   53 type  1   force =     0.00083050    0.00048278   -0.00000000
     atom   54 type  1   force =     0.00027857    0.00065250   -0.00000000
     atom   55 type  1   force =    -0.00007443   -0.00112609    0.00000001
     atom   56 type  1   force =     0.00051740    0.00096500    0.00000000
     atom   57 type  1   force =     0.00000271    0.00064464    0.00000000
     atom   58 type  1   force =     0.00044452    0.00001091    0.00000000
     atom   59 type  1   force =     0.00014917    0.00004895   -0.00000000
     atom   60 type  1   force =     0.00026548   -0.00023635    0.00000002
     atom   61 type  1   force =    -0.00028648    0.00062395    0.00000002
     atom   62 type  1   force =    -0.00033304   -0.00001742   -0.00000000
     atom   63 type  1   force =     0.00025799   -0.00029119   -0.00000000
     atom   64 type  1   force =     0.00025061    0.00000362    0.00000001
     atom   65 type  1   force =     0.00015261   -0.00000145   -0.00000001
     atom   66 type  1   force =    -0.00084505    0.00031788   -0.00000000
     atom   67 type  1   force =    -0.00037691   -0.00000385   -0.00000000
     atom   68 type  1   force =     0.00065144    0.00074759   -0.00000000
     atom   69 type  1   force =    -0.00005807    0.00028079    0.00000000
     atom   70 type  1   force =     0.00091270    0.00119232    0.00000000
     atom   71 type  1   force =    -0.00004480   -0.00049969    0.00000000
     atom   72 type  1   force =     0.00037824   -0.00011356   -0.00000001
     atom   73 type  1   force =     0.00026464   -0.00003091    0.00000001
     atom   74 type  1   force =     0.00039002    0.00037611    0.00000001
     atom   75 type  1   force =    -0.00026037   -0.00066333   -0.00000001
     atom   76 type  1   force =     0.00028063   -0.00049088   -0.00000001
     atom   77 type  1   force =     0.00082798   -0.00048282    0.00000000
     atom   78 type  1   force =    -0.00084361   -0.00031562   -0.00000001
     atom   79 type  1   force =    -0.00037776    0.00000288    0.00000000
     atom   80 type  1   force =    -0.00000925   -0.00000010    0.00000000
     atom   81 type  1   force =    -0.00051575   -0.00000041   -0.00000001
     atom   82 type  1   force =     0.00057145    0.00072867    0.00000000
     atom   83 type  1   force =     0.00052754    0.00056422    0.00000001
     atom   84 type  1   force =     0.00001371    0.00013218    0.00000000
     atom   85 type  1   force =    -0.00066651    0.00038080   -0.00000001
     atom   86 type  1   force =    -0.00017412    0.00048353   -0.00000000
     atom   87 type  1   force =    -0.00036460    0.00028304    0.00000000
     atom   88 type  1   force =    -0.00037007   -0.00005253    0.00000000
     atom   89 type  1   force =    -0.00021630    0.00094472   -0.00000001
     atom   90 type  1   force =     0.00027986   -0.00065267   -0.00000000
     atom   91 type  1   force =    -0.00007580    0.00112609    0.00000000
     atom   92 type  1   force =     0.00065254   -0.00074807    0.00000000
     atom   93 type  1   force =    -0.00005807   -0.00028184    0.00000001
     atom   94 type  1   force =     0.00057200   -0.00072989   -0.00000001
     atom   95 type  1   force =     0.00052802   -0.00056494    0.00000000
     atom   96 type  1   force =     0.00033041   -0.00000058   -0.00000000
     atom   97 type  1   force =    -0.00035775   -0.00000004   -0.00000001

     Total force =     0.007037     Total SCF correction =     0.000002
     Energy error            =      5.6E-05 Ry
     Gradient error          =      1.2E-03 Ry/Bohr

     number of scf cycles    =  16
     number of bfgs steps    =  15

     energy             old  =   -1168.1140374739 Ry
     energy             new  =   -1168.1140932076 Ry

     CASE: energy            _new < energy            _old

     new trust radius        =       0.0026674877 bohr
     new conv_thr            =            5.6E-12 Ry


ATOMIC_POSITIONS (crystal)
C                0.0471322999        0.0471319361       -0.0000000012
C                0.0946859451        0.0946854139        0.0000000009
C                0.0466609654        0.1901575694        0.0000000028
C                0.0943512976        0.2376178719        0.0000000021
C                0.0468142600        0.3329783383        0.0000000014
C                0.0944245370        0.3805094991       -0.0000000003
C                0.0478435643        0.4758205841       -0.0000000009
C                0.0956556875        0.5232386043       -0.0000000001
C                0.0487314891        0.6185614301       -0.0000000017
C                0.0969667623        0.6655150573        0.0000000005
C                0.0491027504        0.7607828113       -0.0000000013
C                0.0977858392        0.8071504792       -0.0000000014
C                0.0486561234        0.9034012620       -0.0000000017
C                0.0956690890        0.9513994417       -0.0000000021
C                0.1901580788        0.0466603600        0.0000000018
C                0.2376182677        0.0943508407        0.0000000031
C                0.1896659993        0.1896656007        0.0000000015
C                0.2371731907        0.2371730748       -0.0000000004
C                0.1893347192        0.3324845569       -0.0000000016
C                0.2365925834        0.3799295781        0.0000000013
C                0.1907012356        0.4749940768        0.0000000038
C                0.2390967887        0.5219108859        0.0000000065
C                0.1930371083        0.6165953975        0.0000000054
C                0.2440372665        0.6606111091        0.0000000034
C                0.1942754397        0.7576539898       -0.0000000006
C                0.2397265964        0.8072548532       -0.0000000018
C                0.1912050015        0.9030505990       -0.0000000023
C                0.2383324850        0.9511831232       -0.0000000006
C                0.3329786630        0.0468139050        0.0000000028
C                0.3805095704        0.0944244898        0.0000000015
C                0.3324846061        0.1893347130        0.0000000005
C                0.3799294115        0.2365928138        0.0000000003
C                0.3314846625        0.3314848945        0.0000000017
C                0.3781012437        0.3781015304        0.0000000033
C                0.3346854293        0.4725787734        0.0000000068
C1               0.3891286224        0.5111237229        0.0000000042
C                0.3426625487        0.6090702344        0.0000000028
C                0.3837698977        0.6639482268        0.0000000013
C                0.3350981360        0.7593205526       -0.0000000009
C                0.3819560623        0.8084237189       -0.0000000003
C                0.3337419583        0.9036689379        0.0000000001
C                0.3810661681        0.9517236160        0.0000000025
C                0.4758205620        0.0478436720        0.0000000002
C                0.5232383908        0.0956560617       -0.0000000024
C                0.4749938804        0.1907016288       -0.0000000016
C                0.5219106608        0.2390972770       -0.0000000030
C                0.4725785294        0.3346859171       -0.0000000022
C1               0.5111235787        0.3891290801       -0.0000000014
C1               0.5292212807        0.5292208161       -0.0000000024
C                0.4786236651        0.6205253486        0.0000000014
C                0.5257598166        0.6685052506        0.0000000009
C                0.4771901454        0.7628910791        0.0000000010
C                0.5246282821        0.8104064819        0.0000000021
C                0.4764205385        0.9052270933        0.0000000019
C                0.5239459949        0.9528447480        0.0000000007
C                0.6185611701        0.0487319938       -0.0000000045
C                0.6655148166        0.0969672994       -0.0000000054
C                0.6165952029        0.1930376152       -0.0000000042
C                0.6606111096        0.2440376133       -0.0000000031
C                0.6090702727        0.3426628140       -0.0000000012
C                0.6639485955        0.3837698272       -0.0000000027
C                0.6205257210        0.4786235445       -0.0000000018
C                0.6685057081        0.5257595543        0.0000000004
C                0.6206153597        0.6206151453        0.0000000008
C                0.6680264289        0.6680262886        0.0000000030
C                0.6199421437        0.7630349650        0.0000000033
C                0.6674171362        0.8105347889        0.0000000017
C                0.6193203865        0.9056556454        0.0000000001
C                0.6667375114        0.9533599448       -0.0000000027
C                0.7607825840        0.0491032868       -0.0000000046
C                0.8071504782        0.0977861737       -0.0000000021
C                0.7576540959        0.1942757044       -0.0000000010
C                0.8072552294        0.2397265854       -0.0000000008
C                0.7593209489        0.3350980369       -0.0000000015
C                0.8084242040        0.3819558253        0.0000000013
C                0.7628915039        0.4771899204        0.0000000017
C                0.8104067426        0.5246281344        0.0000000010
C                0.7630350320        0.6199421011        0.0000000021
C                0.8105345834        0.6674173142        0.0000000004
C                0.7627094464        0.7627097252       -0.0000000000
C                0.8102121151        0.8102126007       -0.0000000024
C                0.7621036675        0.9056291818       -0.0000000039
C                0.8094359712        0.9533478494       -0.0000000049
C                0.9034013103        0.0486562647       -0.0000000014
C                0.9513997682        0.0956689451       -0.0000000001
C                0.9030510485        0.1912048147        0.0000000012
C                0.9511837035        0.2383321301        0.0000000029
C                0.9036694693        0.3337416060        0.0000000030
C                0.9517239737        0.3810659126        0.0000000029
C                0.9052273387        0.4764203679        0.0000000009
C                0.9528446707        0.5239460554       -0.0000000015
C                0.9056553887        0.6193205547       -0.0000000020
C                0.9533594544        0.6667378489       -0.0000000037
C                0.9056286430        0.7621040712       -0.0000000026
C                0.9533472993        0.8094363597       -0.0000000020
C                0.9050089155        0.9050093145       -0.0000000028
C                0.9525126977        0.9525128707       -0.0000000019



     Writing config-only to output data dir /home/gregb26/links/scratch/qe_tmp/vacancy_relaxed/series/7x7/nspin2/vac_7x7_relax_nspin2.save/ :
     XML data file
     NEW-OLD atomic charge density approx. for the potential

     negative rho (up, down):  2.821E-07 2.952E-07
     Generating pointlists ...

     total cpu time spent up to now is     1282.9 secs

     per-process dynamical memory:   262.1 Mb

     Self-consistent Calculation

     iteration #  1     ecut=   100.00 Ry     beta= 0.30
     Davidson diagonalization with overlap
     ethr =  1.00E-06,  avg # of iterations =  3.0

     Threshold (ethr) on eigenvalues was too large:
     Diagonalizing with lowered threshold

     Davidson diagonalization with overlap
     ethr =  3.23E-09,  avg # of iterations =  6.0

     negative rho (up, down):  2.204E-07 2.299E-07

     total cpu time spent up to now is     1294.3 secs

     total energy              =   -1168.11412662 Ry
     estimated scf accuracy    <       0.00002337 Ry

     total magnetization       =     2.00 Bohr mag/cell
     absolute magnetization    =     2.83 Bohr mag/cell

     iteration #  2     ecut=   100.00 Ry     beta= 0.30
     Davidson diagonalization with overlap
     ethr =  6.02E-09,  avg # of iterations =  2.0

     negative rho (up, down):  1.270E-07 1.338E-07

     total cpu time spent up to now is     1297.7 secs

     total energy              =   -1168.11412682 Ry
     estimated scf accuracy    <       0.00000719 Ry

     total magnetization       =     2.00 Bohr mag/cell
     absolute magnetization    =     2.83 Bohr mag/cell

     iteration #  3     ecut=   100.00 Ry     beta= 0.30
     Davidson diagonalization with overlap
     ethr =  1.85E-09,  avg # of iterations =  1.5

     negative rho (up, down):  3.903E-08 4.211E-08

     total cpu time spent up to now is     1300.9 secs

     total energy              =   -1168.11412683 Ry
     estimated scf accuracy    <       0.00000229 Ry

     total magnetization       =     2.00 Bohr mag/cell
     absolute magnetization    =     2.83 Bohr mag/cell

     iteration #  4     ecut=   100.00 Ry     beta= 0.30
     Davidson diagonalization with overlap
     ethr =  5.90E-10,  avg # of iterations =  3.0

     negative rho (up, down):  1.337E-08 1.486E-08

     total cpu time spent up to now is     1304.7 secs

     total energy              =   -1168.11412710 Ry
     estimated scf accuracy    <       0.00000026 Ry

     total magnetization       =     2.00 Bohr mag/cell
     absolute magnetization    =     2.83 Bohr mag/cell

     iteration #  5     ecut=   100.00 Ry     beta= 0.30
     Davidson diagonalization with overlap
     ethr =  6.65E-11,  avg # of iterations =  4.0

     total cpu time spent up to now is     1308.9 secs

     total energy              =   -1168.11412715 Ry
     estimated scf accuracy    <       0.00000005 Ry

     total magnetization       =     2.00 Bohr mag/cell
     absolute magnetization    =     2.83 Bohr mag/cell

     iteration #  6     ecut=   100.00 Ry     beta= 0.30
     Davidson diagonalization with overlap
     ethr =  1.41E-11,  avg # of iterations =  4.0

     total cpu time spent up to now is     1313.0 secs

     total energy              =   -1168.11412716 Ry
     estimated scf accuracy    <       0.00000001 Ry

     total magnetization       =     2.00 Bohr mag/cell
     absolute magnetization    =     2.83 Bohr mag/cell

     iteration #  7     ecut=   100.00 Ry     beta= 0.30
     Davidson diagonalization with overlap
     ethr =  2.85E-12,  avg # of iterations =  2.5

     total cpu time spent up to now is     1316.4 secs

     total energy              =   -1168.11412716 Ry
     estimated scf accuracy    <          2.9E-09 Ry

     total magnetization       =     2.00 Bohr mag/cell
     absolute magnetization    =     2.83 Bohr mag/cell

     iteration #  8     ecut=   100.00 Ry     beta= 0.30
     Davidson diagonalization with overlap
     ethr =  7.47E-13,  avg # of iterations =  4.0

     total cpu time spent up to now is     1320.6 secs

     total energy              =   -1168.11412716 Ry
     estimated scf accuracy    <          3.3E-10 Ry

     total magnetization       =     2.00 Bohr mag/cell
     absolute magnetization    =     2.83 Bohr mag/cell

     iteration #  9     ecut=   100.00 Ry     beta= 0.30
     Davidson diagonalization with overlap
     ethr =  1.00E-13,  avg # of iterations =  4.0

     total cpu time spent up to now is     1325.4 secs

     total energy              =   -1168.11412716 Ry
     estimated scf accuracy    <          6.2E-11 Ry

     total magnetization       =     2.00 Bohr mag/cell
     absolute magnetization    =     2.83 Bohr mag/cell

     iteration # 10     ecut=   100.00 Ry     beta= 0.30
     Davidson diagonalization with overlap
     ethr =  1.00E-13,  avg # of iterations =  1.5

     total cpu time spent up to now is     1328.6 secs

     total energy              =   -1168.11412716 Ry
     estimated scf accuracy    <          2.0E-11 Ry

     total magnetization       =     2.00 Bohr mag/cell
     absolute magnetization    =     2.83 Bohr mag/cell

     iteration # 11     ecut=   100.00 Ry     beta= 0.30
     Davidson diagonalization with overlap
     ethr =  1.00E-13,  avg # of iterations =  1.5

     Magnetic moment per site  (integrated on atomic sphere of radius R)
     atom   1 (R=0.032)  charge=  1.5210  magn= -0.0017
     atom   2 (R=0.032)  charge=  1.5237  magn=  0.0025
     atom   3 (R=0.032)  charge=  1.5253  magn= -0.0023
     atom   4 (R=0.032)  charge=  1.5253  magn=  0.0042
     atom   5 (R=0.032)  charge=  1.5289  magn= -0.0021
     atom   6 (R=0.032)  charge=  1.5287  magn=  0.0016
     atom   7 (R=0.032)  charge=  1.5282  magn= -0.0021
     atom   8 (R=0.032)  charge=  1.5271  magn=  0.0040
     atom   9 (R=0.032)  charge=  1.5250  magn= -0.0023
     atom  10 (R=0.032)  charge=  1.5212  magn=  0.0073
     atom  11 (R=0.032)  charge=  1.5236  magn= -0.0024
     atom  12 (R=0.032)  charge=  1.5119  magn=  0.0040
     atom  13 (R=0.032)  charge=  1.5147  magn= -0.0022
     atom  14 (R=0.032)  charge=  1.5221  magn=  0.0013
     atom  15 (R=0.032)  charge=  1.5253  magn= -0.0023
     atom  16 (R=0.032)  charge=  1.5253  magn=  0.0042
     atom  17 (R=0.032)  charge=  1.5289  magn= -0.0026
     atom  18 (R=0.032)  charge=  1.5272  magn=  0.0129
     atom  19 (R=0.032)  charge=  1.5325  magn= -0.0036
     atom  20 (R=0.032)  charge=  1.5351  magn=  0.0142
     atom  21 (R=0.032)  charge=  1.5285  magn= -0.0035
     atom  22 (R=0.032)  charge=  1.5251  magn=  0.0058
     atom  23 (R=0.032)  charge=  1.5257  magn= -0.0023
     atom  24 (R=0.032)  charge=  1.4929  magn=  0.0036
     atom  25 (R=0.032)  charge=  1.5066  magn= -0.0045
     atom  26 (R=0.032)  charge=  1.5229  magn=  0.0116
     atom  27 (R=0.032)  charge=  1.5204  magn= -0.0032
     atom  28 (R=0.032)  charge=  1.5230  magn=  0.0102
     atom  29 (R=0.032)  charge=  1.5289  magn= -0.0021
     atom  30 (R=0.032)  charge=  1.5287  magn=  0.0016
     atom  31 (R=0.032)  charge=  1.5325  magn= -0.0036
     atom  32 (R=0.032)  charge=  1.5351  magn=  0.0142
     atom  33 (R=0.032)  charge=  1.5446  magn= -0.0067
     atom  34 (R=0.032)  charge=  1.5516  magn=  0.0400
     atom  35 (R=0.032)  charge=  1.5402  magn= -0.0030
     atom  36 (R=0.032)  charge=  1.4057  magn=  0.0692
     atom  37 (R=0.032)  charge=  1.4724  magn= -0.0109
     atom  38 (R=0.032)  charge=  1.5186  magn=  0.0487
     atom  39 (R=0.032)  charge=  1.5187  magn= -0.0082
     atom  40 (R=0.032)  charge=  1.5208  magn=  0.0144
     atom  41 (R=0.032)  charge=  1.5249  magn= -0.0038
     atom  42 (R=0.032)  charge=  1.5257  magn=  0.0020
     atom  43 (R=0.032)  charge=  1.5282  magn= -0.0021
     atom  44 (R=0.032)  charge=  1.5271  magn=  0.0040
     atom  45 (R=0.032)  charge=  1.5285  magn= -0.0035
     atom  46 (R=0.032)  charge=  1.5251  magn=  0.0058
     atom  47 (R=0.032)  charge=  1.5402  magn= -0.0030
     atom  48 (R=0.032)  charge=  1.4057  magn=  0.0691
     atom  49 (R=0.032)  charge=  1.4999  magn=  0.3533
     atom  50 (R=0.032)  charge=  1.5511  magn= -0.0088
     atom  51 (R=0.032)  charge=  1.5347  magn=  0.0253
     atom  52 (R=0.032)  charge=  1.5350  magn= -0.0015
     atom  53 (R=0.032)  charge=  1.5307  magn=  0.0052
     atom  54 (R=0.032)  charge=  1.5289  magn= -0.0020
     atom  55 (R=0.032)  charge=  1.5288  magn=  0.0051
     atom  56 (R=0.032)  charge=  1.5250  magn= -0.0023
     atom  57 (R=0.032)  charge=  1.5212  magn=  0.0073
     atom  58 (R=0.032)  charge=  1.5257  magn= -0.0023
     atom  59 (R=0.032)  charge=  1.4929  magn=  0.0036
     atom  60 (R=0.032)  charge=  1.4724  magn= -0.0109
     atom  61 (R=0.032)  charge=  1.5186  magn=  0.0487
     atom  62 (R=0.032)  charge=  1.5511  magn= -0.0088
     atom  63 (R=0.032)  charge=  1.5347  magn=  0.0253
     atom  64 (R=0.032)  charge=  1.5373  magn= -0.0087
     atom  65 (R=0.032)  charge=  1.5317  magn=  0.0086
     atom  66 (R=0.032)  charge=  1.5304  magn= -0.0034
     atom  67 (R=0.032)  charge=  1.5295  magn=  0.0021
     atom  68 (R=0.032)  charge=  1.5268  magn= -0.0020
     atom  69 (R=0.032)  charge=  1.5273  magn=  0.0017
     atom  70 (R=0.032)  charge=  1.5236  magn= -0.0024
     atom  71 (R=0.032)  charge=  1.5119  magn=  0.0040
     atom  72 (R=0.032)  charge=  1.5066  magn= -0.0045
     atom  73 (R=0.032)  charge=  1.5229  magn=  0.0116
     atom  74 (R=0.032)  charge=  1.5187  magn= -0.0082
     atom  75 (R=0.032)  charge=  1.5208  magn=  0.0144
     atom  76 (R=0.032)  charge=  1.5350  magn= -0.0015
     atom  77 (R=0.032)  charge=  1.5307  magn=  0.0052
     atom  78 (R=0.032)  charge=  1.5304  magn= -0.0034
     atom  79 (R=0.032)  charge=  1.5295  magn=  0.0021
     atom  80 (R=0.032)  charge=  1.5274  magn= -0.0019
     atom  81 (R=0.032)  charge=  1.5275  magn=  0.0038
     atom  82 (R=0.032)  charge=  1.5253  magn= -0.0016
     atom  83 (R=0.032)  charge=  1.5228  magn=  0.0017
     atom  84 (R=0.032)  charge=  1.5147  magn= -0.0022
     atom  85 (R=0.032)  charge=  1.5221  magn=  0.0013
     atom  86 (R=0.032)  charge=  1.5204  magn= -0.0032
     atom  87 (R=0.032)  charge=  1.5230  magn=  0.0102
     atom  88 (R=0.032)  charge=  1.5249  magn= -0.0038
     atom  89 (R=0.032)  charge=  1.5257  magn=  0.0020
     atom  90 (R=0.032)  charge=  1.5289  magn= -0.0020
     atom  91 (R=0.032)  charge=  1.5288  magn=  0.0051
     atom  92 (R=0.032)  charge=  1.5268  magn= -0.0020
     atom  93 (R=0.032)  charge=  1.5273  magn=  0.0017
     atom  94 (R=0.032)  charge=  1.5253  magn= -0.0016
     atom  95 (R=0.032)  charge=  1.5228  magn=  0.0017
     atom  96 (R=0.032)  charge=  1.5228  magn= -0.0018
     atom  97 (R=0.032)  charge=  1.5154  magn=  0.0044

     total cpu time spent up to now is     1331.7 secs

     End of self-consistent calculation

 ------ SPIN UP ------------


          k = 0.0000 0.0000 0.0000 (233409 PWs)   bands (ev):

   -23.7933 -23.4092 -23.3505 -23.3277 -23.3061 -23.2663 -23.1476 -22.4237
   -22.3913 -22.3848 -22.3772 -22.3069 -22.2096 -21.9414 -21.9289 -21.9097
   -21.8746 -21.8337 -21.5833 -20.5507 -20.5489 -20.5365 -20.5352 -20.5277
   -20.5082 -20.5081 -20.5023 -20.4802 -20.4674 -20.3755 -20.0602 -19.6562
   -19.6348 -19.6082 -19.5641 -19.5527 -19.2008 -18.3652 -18.3494 -18.3407
   -18.3338 -18.2844 -18.2814 -18.2711 -18.2624 -18.2455 -18.2148 -18.1781
   -17.6331 -17.2442 -17.2431 -17.2336 -17.1748 -17.0845 -16.8175 -16.3328
   -16.3288 -16.3052 -16.2251 -16.1867 -16.1002 -15.8246 -15.8078 -15.7945
   -15.7096 -15.6940 -15.0814 -14.4376 -14.4268 -14.4042 -14.3976 -14.3827
   -14.3809 -14.3662 -14.3473 -14.3342 -14.3077 -14.2733 -14.1881 -14.1877
   -14.1436 -14.1334 -13.8795 -13.7604 -13.1745 -12.7121 -12.6999 -12.6466
   -12.5773 -12.5335 -12.2821 -12.1425 -12.1378 -12.1174 -11.9872 -11.9610
   -11.8799 -11.8660 -11.6714 -11.6456 -11.6237 -11.6126 -11.5991 -11.5934
   -11.5826 -11.5371 -11.5323 -11.4420 -11.3901 -11.3547 -11.3439 -11.3272
   -11.3260 -11.3070 -11.2775 -11.2064 -11.1769 -11.1674 -11.1394 -10.9938
   -10.9095 -10.6434 -10.5950 -10.5675 -10.5571 -10.3333 -10.3157 -10.2444
   -10.2128 -10.2079 -10.2071 -10.1500 -10.1127 -10.0382  -9.9854  -9.9631
    -9.9562  -9.8705  -9.8271  -9.7284  -9.7159  -9.6954  -9.6946  -9.6778
    -9.6743  -9.6358  -9.6319  -9.6202  -9.6111  -9.3741  -9.2981  -9.2975
    -9.1104  -9.1004  -9.0745  -8.5724  -8.5391  -8.3306  -8.2600  -8.2247
    -8.2055  -8.1848  -8.1461  -8.1320  -8.1300  -8.1129  -8.1112  -8.0990
    -8.0989  -8.0864  -8.0674  -8.0612  -8.0209  -7.7136  -7.4834  -7.4707
    -7.3318  -7.3028  -7.3021  -7.2794  -7.2412  -6.9022  -6.2167  -6.2142
    -6.1965  -6.1759  -6.1671  -6.0060  -5.8053  -5.8018  -5.7931  -5.7923
    -5.7254  -5.1017  -4.8717  -2.8818  -2.8335  -2.8171  -2.7905  -2.7845
    -2.7746  -2.7547  -2.7546  -2.7471  -2.7322  -2.6998  -2.6347  -2.1969
    -1.7950  -1.7652  -1.7506  -1.7175  -1.6571  -1.2089  -0.9772  -0.3603
    -0.3585  -0.3286  -0.3075  -0.2995  -0.2935  -0.2875  -0.2692  -0.2617

 ------ SPIN DOWN ----------


          k = 0.0000 0.0000 0.0000 (233409 PWs)   bands (ev):

   -23.7791 -23.3787 -23.3441 -23.3209 -23.2987 -23.2518 -23.0932 -22.3840
   -22.3757 -22.3714 -22.3625 -22.2964 -22.1871 -21.9138 -21.9130 -21.8894
   -21.8562 -21.8150 -21.5147 -20.5425 -20.5388 -20.5150 -20.5088 -20.4997
   -20.4934 -20.4917 -20.4797 -20.4606 -20.4372 -20.3514 -20.0201 -19.6279
   -19.6185 -19.5934 -19.5321 -19.5247 -19.1453 -18.3482 -18.3329 -18.3290
   -18.3249 -18.2771 -18.2712 -18.2497 -18.2426 -18.2153 -18.2028 -18.0948
   -17.5316 -17.2335 -17.2312 -17.2235 -17.1388 -17.0686 -16.7620 -16.3125
   -16.3105 -16.2912 -16.1943 -16.1677 -16.0821 -15.8081 -15.7925 -15.7856
   -15.6815 -15.6132 -15.0130 -14.4152 -14.4015 -14.3900 -14.3849 -14.3740
   -14.3679 -14.3472 -14.3296 -14.3170 -14.2890 -14.2351 -14.1797 -14.1788
   -14.1383 -14.1163 -13.8024 -13.7305 -13.0924 -12.6911 -12.6724 -12.6336
   -12.5614 -12.4946 -12.2527 -12.1288 -12.1240 -12.0946 -11.9808 -11.9467
   -11.8578 -11.8286 -11.6474 -11.6353 -11.6157 -11.6034 -11.5849 -11.5737
   -11.5637 -11.5231 -11.5208 -11.4143 -11.3509 -11.3327 -11.3325 -11.3136
   -11.2999 -11.2967 -11.2499 -11.1888 -11.1649 -11.1505 -11.0644 -10.9838
   -10.8640 -10.6356 -10.5750 -10.5628 -10.5396 -10.2998 -10.2896 -10.1937
   -10.1933 -10.1852 -10.1815 -10.1274 -10.0655 -10.0014  -9.9652  -9.9495
    -9.9437  -9.8659  -9.8166  -9.7041  -9.6821  -9.6695  -9.6556  -9.6555
    -9.6390  -9.6209  -9.6088  -9.5863  -9.5132  -9.2808  -9.2664  -9.2589
    -9.1021  -9.0860  -9.0618  -8.5543  -8.5015  -8.2442  -8.2266  -8.2159
    -8.1724  -8.1122  -8.1068  -8.0899  -8.0860  -8.0750  -8.0709  -8.0662
    -8.0604  -8.0462  -8.0207  -8.0190  -7.9783  -7.6624  -7.4709  -7.4176
    -7.2954  -7.2891  -7.2723  -7.2335  -7.1915  -6.8273  -6.1910  -6.1870
    -6.1739  -6.1401  -6.1151  -5.9658  -5.7832  -5.7828  -5.7494  -5.6953
    -5.6804  -4.5151  -2.8914  -2.8231  -2.7959  -2.7761  -2.7652  -2.7565
    -2.7373  -2.7347  -2.7216  -2.7162  -2.5977  -2.5464  -2.5390  -2.1526
    -1.7758  -1.7519  -1.7080  -1.6329  -1.6060  -1.1363  -0.9697  -0.3450
    -0.3414  -0.3034  -0.2822  -0.2729  -0.2625  -0.2612  -0.2315  -0.2272

     the Fermi energy is    -4.7496 ev

!    total energy              =   -1168.11412716 Ry
     estimated scf accuracy    <          5.2E-12 Ry
     smearing contrib. (-TS)   =       0.00092461 Ry
     internal energy E=F+TS    =   -1168.11505177 Ry

     The total energy is F=E-TS. E is the sum of the following terms:
     one-electron contribution =  -13175.36294616 Ry
     hartree contribution      =    6623.89929155 Ry
     xc contribution           =    -415.41036091 Ry
     ewald contribution        =    5798.75896376 Ry

     total magnetization       =     2.00 Bohr mag/cell
     absolute magnetization    =     2.83 Bohr mag/cell

     convergence has been achieved in  11 iterations

     Forces acting on atoms (cartesian axes, Ry/au):

     atom    1 type  1   force =    -0.00034255    0.00000062    0.00000001
     atom    2 type  1   force =    -0.00010223    0.00000061    0.00000000
     atom    3 type  1   force =    -0.00021503    0.00002510   -0.00000000
     atom    4 type  1   force =     0.00020317   -0.00016660    0.00000000
     atom    5 type  1   force =    -0.00004777    0.00043225    0.00000001
     atom    6 type  1   force =    -0.00023841    0.00025624   -0.00000000
     atom    7 type  1   force =    -0.00021602    0.00057732   -0.00000000
     atom    8 type  1   force =    -0.00006109    0.00006561    0.00000000
     atom    9 type  1   force =    -0.00028917   -0.00003541    0.00000000
     atom   10 type  1   force =     0.00013900   -0.00026239    0.00000001
     atom   11 type  1   force =     0.00012300   -0.00024988    0.00000000
     atom   12 type  1   force =     0.00023965    0.00021878    0.00000001
     atom   13 type  1   force =    -0.00016497    0.00027668   -0.00000000
     atom   14 type  1   force =    -0.00010308    0.00002778   -0.00000000
     atom   15 type  1   force =    -0.00021448   -0.00002303   -0.00000000
     atom   16 type  1   force =     0.00020327    0.00016733   -0.00000000
     atom   17 type  1   force =    -0.00002253    0.00000052    0.00000000
     atom   18 type  1   force =    -0.00044916   -0.00000001    0.00000001
     atom   19 type  1   force =    -0.00012610    0.00021967    0.00000001
     atom   20 type  1   force =    -0.00038356   -0.00010159    0.00000001
     atom   21 type  1   force =    -0.00038271    0.00010325   -0.00000001
     atom   22 type  1   force =    -0.00048135   -0.00031282    0.00000000
     atom   23 type  1   force =     0.00006635   -0.00022488   -0.00000001
     atom   24 type  1   force =     0.00019997    0.00013001   -0.00000000
     atom   25 type  1   force =     0.00005414    0.00001635    0.00000001
     atom   26 type  1   force =     0.00030209   -0.00013037    0.00000000
     atom   27 type  1   force =    -0.00004438    0.00001950    0.00000000
     atom   28 type  1   force =     0.00006625    0.00016826    0.00000000
     atom   29 type  1   force =    -0.00004735   -0.00043076   -0.00000000
     atom   30 type  1   force =    -0.00023877   -0.00025633    0.00000000
     atom   31 type  1   force =    -0.00012608   -0.00021959    0.00000001
     atom   32 type  1   force =    -0.00038359    0.00010090    0.00000001
     atom   33 type  1   force =     0.00024451   -0.00000017    0.00000000
     atom   34 type  1   force =     0.00018871   -0.00000030   -0.00000002
     atom   35 type  1   force =    -0.00029998    0.00026841   -0.00000001
     atom   36 type  2   force =     0.00014208    0.00028750    0.00000000
     atom   37 type  1   force =     0.00011334    0.00055926    0.00000000
     atom   38 type  1   force =     0.00008382   -0.00052814   -0.00000001
     atom   39 type  1   force =     0.00001328   -0.00033195    0.00000001
     atom   40 type  1   force =     0.00009239    0.00023135   -0.00000000
     atom   41 type  1   force =    -0.00017022    0.00032232    0.00000000
     atom   42 type  1   force =     0.00012945    0.00017951   -0.00000001
     atom   43 type  1   force =    -0.00021556   -0.00057715   -0.00000001
     atom   44 type  1   force =    -0.00006124   -0.00006634    0.00000000
     atom   45 type  1   force =    -0.00038277   -0.00010377   -0.00000000
     atom   46 type  1   force =    -0.00048156    0.00031196   -0.00000001
     atom   47 type  1   force =    -0.00030013   -0.00026897    0.00000001
     atom   48 type  2   force =     0.00014156   -0.00028772    0.00000000
     atom   49 type  2   force =    -0.00075113    0.00000265    0.00000001
     atom   50 type  1   force =     0.00062008   -0.00021557   -0.00000001
     atom   51 type  1   force =    -0.00016554    0.00020912    0.00000000
     atom   52 type  1   force =     0.00018838    0.00051223    0.00000000
     atom   53 type  1   force =     0.00023356    0.00045824   -0.00000000
     atom   54 type  1   force =     0.00036815    0.00035894    0.00000000
     atom   55 type  1   force =     0.00004860    0.00007156    0.00000000
     atom   56 type  1   force =    -0.00028948    0.00003459    0.00000001
     atom   57 type  1   force =     0.00013837    0.00026168    0.00000000
     atom   58 type  1   force =     0.00006615    0.00022421   -0.00000000
     atom   59 type  1   force =     0.00019926   -0.00013013    0.00000000
     atom   60 type  1   force =     0.00011326   -0.00055945   -0.00000001
     atom   61 type  1   force =     0.00008288    0.00052886    0.00000001
     atom   62 type  1   force =     0.00062110    0.00021264   -0.00000001
     atom   63 type  1   force =    -0.00016563   -0.00020624   -0.00000000
     atom   64 type  1   force =     0.00049399   -0.00000125    0.00000000
     atom   65 type  1   force =    -0.00003974    0.00000109   -0.00000000
     atom   66 type  1   force =    -0.00004616    0.00026508   -0.00000001
     atom   67 type  1   force =    -0.00053642    0.00012505    0.00000000
     atom   68 type  1   force =     0.00019083   -0.00002679   -0.00000000
     atom   69 type  1   force =     0.00060900    0.00043767   -0.00000000
     atom   70 type  1   force =     0.00012214    0.00024918   -0.00000000
     atom   71 type  1   force =     0.00023846   -0.00021930    0.00000000
     atom   72 type  1   force =     0.00005362   -0.00001623   -0.00000001
     atom   73 type  1   force =     0.00030070    0.00012983    0.00000001
     atom   74 type  1   force =     0.00001342    0.00033247    0.00000001
     atom   75 type  1   force =     0.00009244   -0.00023118   -0.00000000
     atom   76 type  1   force =     0.00018770   -0.00051217   -0.00000000
     atom   77 type  1   force =     0.00023461   -0.00045738    0.00000001
     atom   78 type  1   force =    -0.00004675   -0.00026624   -0.00000001
     atom   79 type  1   force =    -0.00053558   -0.00012513    0.00000000
     atom   80 type  1   force =     0.00001787   -0.00000052   -0.00000000
     atom   81 type  1   force =     0.00018604   -0.00000066   -0.00000000
     atom   82 type  1   force =    -0.00028733   -0.00010204    0.00000001
     atom   83 type  1   force =     0.00045849    0.00053821    0.00000001
     atom   84 type  1   force =    -0.00016547   -0.00027651    0.00000000
     atom   85 type  1   force =    -0.00010376   -0.00002774   -0.00000000
     atom   86 type  1   force =    -0.00004495   -0.00001829   -0.00000000
     atom   87 type  1   force =     0.00006565   -0.00016786   -0.00000000
     atom   88 type  1   force =    -0.00017075   -0.00032029   -0.00000000
     atom   89 type  1   force =     0.00013022   -0.00017953   -0.00000001
     atom   90 type  1   force =     0.00036704   -0.00035803   -0.00000000
     atom   91 type  1   force =     0.00004931   -0.00007187    0.00000001
     atom   92 type  1   force =     0.00019053    0.00002607   -0.00000001
     atom   93 type  1   force =     0.00060968   -0.00043862    0.00000001
     atom   94 type  1   force =    -0.00028695    0.00010096   -0.00000000
     atom   95 type  1   force =     0.00045909   -0.00053950   -0.00000000
     atom   96 type  1   force =    -0.00022275   -0.00000041   -0.00000000
     atom   97 type  1   force =    -0.00004641   -0.00000029   -0.00000000

     Total force =     0.003754     Total SCF correction =     0.000001
     Energy error            =      3.4E-05 Ry
     Gradient error          =      7.5E-04 Ry/Bohr

     number of scf cycles    =  17
     number of bfgs steps    =  16

     energy             old  =   -1168.1140932076 Ry
     energy             new  =   -1168.1141271579 Ry

     CASE: energy            _new < energy            _old

     new trust radius        =       0.0017916996 bohr
     new conv_thr            =            3.4E-12 Ry


ATOMIC_POSITIONS (crystal)
C                0.0471172568        0.0471169520       -0.0000000009
C                0.0946751722        0.0946747083        0.0000000011
C                0.0466510164        0.1901510483        0.0000000026
C                0.0943476500        0.2376207945        0.0000000021
C                0.0467936591        0.3329973491        0.0000000016
C                0.0944030609        0.3805191941       -0.0000000004
C                0.0478241254        0.4758326662       -0.0000000008
C                0.0956555424        0.5232370043        0.0000000001
C                0.0487489811        0.6185447779       -0.0000000014
C                0.0970047112        0.6654951314        0.0000000008
C                0.0491393746        0.7607636934       -0.0000000012
C                0.0977912856        0.8071599709       -0.0000000012
C                0.0486466084        0.9034001633       -0.0000000019
C                0.0956676277        0.9513840933       -0.0000000021
C                0.1901514791        0.0466505174        0.0000000016
C                0.2376211542        0.0943472402        0.0000000027
C                0.1896639243        0.1896635744        0.0000000016
C                0.2371632064        0.2371630972        0.0000000004
C                0.1893207766        0.3324857979       -0.0000000013
C                0.2365899253        0.3799161320        0.0000000017
C                0.1906896893        0.4749822805        0.0000000033
C                0.2390988704        0.5218870210        0.0000000064
C                0.1930620117        0.6165803916        0.0000000048
C                0.2440292417        0.6606307588        0.0000000031
C                0.1942772424        0.7576632907       -0.0000000001
C                0.2397417150        0.8072523735       -0.0000000016
C                0.1912070660        0.9030408473       -0.0000000021
C                0.2383281929        0.9511797569       -0.0000000006
C                0.3329976265        0.0467933670        0.0000000026
C                0.3805192614        0.0944030041        0.0000000015
C                0.3324858422        0.1893207688        0.0000000008
C                0.3799159978        0.2365901142        0.0000000009
C                0.3314890383        0.3314892396        0.0000000019
C                0.3781095696        0.3781098126        0.0000000026
C                0.3346804671        0.4725808581        0.0000000061
C1               0.3890840356        0.5111850513        0.0000000045
C                0.3426397935        0.6091066981        0.0000000028
C                0.3837840491        0.6639397874        0.0000000010
C                0.3351130815        0.7593095865       -0.0000000007
C                0.3819446784        0.8084332323       -0.0000000004
C                0.3337282075        0.9036709908        0.0000000002
C                0.3810709061        0.9517175598        0.0000000022
C                0.4758326465        0.0478242424       -0.0000000001
C                0.5232368204        0.0956558699       -0.0000000022
C                0.4749821075        0.1906900378       -0.0000000018
C                0.5218868413        0.2390992812       -0.0000000033
C                0.4725806487        0.3346808820       -0.0000000025
C1               0.5111849157        0.3890844288       -0.0000000013
C1               0.5292015215        0.5292012254       -0.0000000019
C                0.4786367710        0.6205154290        0.0000000008
C                0.5257480507        0.6685134109        0.0000000011
C                0.4771695214        0.7629213853        0.0000000009
C                0.5246151434        0.8104291788        0.0000000020
C                0.4764172991        0.9052486556        0.0000000020
C                0.5239517481        0.9528429058        0.0000000009
C                0.6185445429        0.0487494265       -0.0000000043
C                0.6654949153        0.0970051773       -0.0000000052
C                0.6165802251        0.1930624516       -0.0000000042
C                0.6606307500        0.2440295458       -0.0000000029
C                0.6091067296        0.3426400294       -0.0000000013
C                0.6639400903        0.3837839896       -0.0000000021
C                0.6205158342        0.4786366143       -0.0000000021
C                0.6685137475        0.5257478768        0.0000000004
C                0.6206195696        0.6206193222        0.0000000011
C                0.6680197631        0.6680196862        0.0000000026
C                0.6199259666        0.7630402219        0.0000000031
C                0.6673981520        0.8105282032        0.0000000017
C                0.6193237415        0.9056665736       -0.0000000001
C                0.6667278801        0.9533997902       -0.0000000027
C                0.7607634823        0.0491398415       -0.0000000047
C                0.8071599639        0.0977915611       -0.0000000020
C                0.7576633772        0.1942774758       -0.0000000016
C                0.8072527104        0.2397416692       -0.0000000004
C                0.7593099443        0.3351130019       -0.0000000011
C                0.8084336725        0.3819444674        0.0000000010
C                0.7629217566        0.4771693133        0.0000000016
C                0.8104294093        0.5246150428        0.0000000013
C                0.7630403077        0.6199258910        0.0000000016
C                0.8105280283        0.6673983302        0.0000000005
C                0.7627089377        0.7627091703       -0.0000000000
C                0.8102175325        0.8102179558       -0.0000000026
C                0.7620969666        0.9056365850       -0.0000000036
C                0.8094232263        0.9533932049       -0.0000000046
C                0.9034001972        0.0486467375       -0.0000000012
C                0.9513843859        0.0956674858       -0.0000000003
C                0.9030412242        0.1912069150        0.0000000010
C                0.9511802742        0.2383278663        0.0000000029
C                0.9036714274        0.3337279245        0.0000000030
C                0.9517179119        0.3810706729        0.0000000023
C                0.9052488421        0.4764171442        0.0000000007
C                0.9528428502        0.5239518048       -0.0000000012
C                0.9056663502        0.6193238761       -0.0000000023
C                0.9533993683        0.6667281843       -0.0000000033
C                0.9056361133        0.7620973257       -0.0000000029
C                0.9533927326        0.8094235695       -0.0000000021
C                0.9050078961        0.9050082516       -0.0000000030
C                0.9525115695        0.9525117171       -0.0000000021



     Writing config-only to output data dir /home/gregb26/links/scratch/qe_tmp/vacancy_relaxed/series/7x7/nspin2/vac_7x7_relax_nspin2.save/ :
     XML data file
     NEW-OLD atomic charge density approx. for the potential

     negative rho (up, down):  1.082E-07 1.153E-07
     Generating pointlists ...

     total cpu time spent up to now is     1334.0 secs

     per-process dynamical memory:   263.2 Mb

     Self-consistent Calculation

     iteration #  1     ecut=   100.00 Ry     beta= 0.30
     Davidson diagonalization with overlap
     ethr =  1.00E-06,  avg # of iterations =  2.0

     Threshold (ethr) on eigenvalues was too large:
     Diagonalizing with lowered threshold

     Davidson diagonalization with overlap
     ethr =  4.14E-10,  avg # of iterations =  7.0

     negative rho (up, down):  9.985E-08 9.888E-08

     total cpu time spent up to now is     1346.1 secs

     total energy              =   -1168.11413625 Ry
     estimated scf accuracy    <       0.00000559 Ry

     total magnetization       =     2.00 Bohr mag/cell
     absolute magnetization    =     2.83 Bohr mag/cell

     iteration #  2     ecut=   100.00 Ry     beta= 0.30
     Davidson diagonalization with overlap
     ethr =  1.44E-09,  avg # of iterations =  2.0

     negative rho (up, down):  6.023E-08 6.024E-08

     total cpu time spent up to now is     1349.7 secs

     total energy              =   -1168.11413664 Ry
     estimated scf accuracy    <       0.00000127 Ry

     total magnetization       =     2.00 Bohr mag/cell
     absolute magnetization    =     2.83 Bohr mag/cell

     iteration #  3     ecut=   100.00 Ry     beta= 0.30
     Davidson diagonalization with overlap
     ethr =  3.26E-10,  avg # of iterations =  2.0
     Minimization algorithm failed to find Fermi energy: reverting to bisection
     Possible cause: smearing is larger than the electronic band-gap.

     negative rho (up, down):  2.224E-08 2.277E-08

     total cpu time spent up to now is     1353.1 secs

     total energy              =   -1168.11413667 Ry
     estimated scf accuracy    <       0.00000043 Ry

     total magnetization       =     2.00 Bohr mag/cell
     absolute magnetization    =     2.83 Bohr mag/cell

     iteration #  4     ecut=   100.00 Ry     beta= 0.30
     Davidson diagonalization with overlap
     ethr =  1.11E-10,  avg # of iterations =  3.0

     total cpu time spent up to now is     1356.8 secs

     total energy              =   -1168.11413672 Ry
     estimated scf accuracy    <       0.00000008 Ry

     total magnetization       =     2.00 Bohr mag/cell
     absolute magnetization    =     2.83 Bohr mag/cell

     iteration #  5     ecut=   100.00 Ry     beta= 0.30
     Davidson diagonalization with overlap
     ethr =  1.95E-11,  avg # of iterations =  2.0

     total cpu time spent up to now is     1360.6 secs

     total energy              =   -1168.11413673 Ry
     estimated scf accuracy    <       0.00000001 Ry

     total magnetization       =     2.00 Bohr mag/cell
     absolute magnetization    =     2.83 Bohr mag/cell

     iteration #  6     ecut=   100.00 Ry     beta= 0.30
     Davidson diagonalization with overlap
     ethr =  3.38E-12,  avg # of iterations =  4.0

     total cpu time spent up to now is     1364.8 secs

     total energy              =   -1168.11413673 Ry
     estimated scf accuracy    <          2.4E-09 Ry

     total magnetization       =     2.00 Bohr mag/cell
     absolute magnetization    =     2.83 Bohr mag/cell

     iteration #  7     ecut=   100.00 Ry     beta= 0.30
     Davidson diagonalization with overlap
     ethr =  6.14E-13,  avg # of iterations =  4.5

     total cpu time spent up to now is     1369.1 secs

     total energy              =   -1168.11413674 Ry
     estimated scf accuracy    <          5.3E-10 Ry

     total magnetization       =     2.00 Bohr mag/cell
     absolute magnetization    =     2.83 Bohr mag/cell

     iteration #  8     ecut=   100.00 Ry     beta= 0.30
     Davidson diagonalization with overlap
     ethr =  1.37E-13,  avg # of iterations =  4.0

     total cpu time spent up to now is     1373.2 secs

     total energy              =   -1168.11413674 Ry
     estimated scf accuracy    <          9.5E-11 Ry

     total magnetization       =     2.00 Bohr mag/cell
     absolute magnetization    =     2.83 Bohr mag/cell

     iteration #  9     ecut=   100.00 Ry     beta= 0.30
     Davidson diagonalization with overlap
     ethr =  1.00E-13,  avg # of iterations =  2.0

     total cpu time spent up to now is     1376.6 secs

     total energy              =   -1168.11413674 Ry
     estimated scf accuracy    <          1.9E-11 Ry

     total magnetization       =     2.00 Bohr mag/cell
     absolute magnetization    =     2.83 Bohr mag/cell

     iteration # 10     ecut=   100.00 Ry     beta= 0.30
     Davidson diagonalization with overlap
     ethr =  1.00E-13,  avg # of iterations =  1.5

     total cpu time spent up to now is     1379.9 secs

     total energy              =   -1168.11413674 Ry
     estimated scf accuracy    <          6.1E-12 Ry

     total magnetization       =     2.00 Bohr mag/cell
     absolute magnetization    =     2.83 Bohr mag/cell

     iteration # 11     ecut=   100.00 Ry     beta= 0.30
     Davidson diagonalization with overlap
     ethr =  1.00E-13,  avg # of iterations =  1.5
     Minimization algorithm failed to find Fermi energy: reverting to bisection
     Possible cause: smearing is larger than the electronic band-gap.

     Magnetic moment per site  (integrated on atomic sphere of radius R)
     atom   1 (R=0.032)  charge=  1.5210  magn= -0.0017
     atom   2 (R=0.032)  charge=  1.5236  magn=  0.0025
     atom   3 (R=0.032)  charge=  1.5252  magn= -0.0023
     atom   4 (R=0.032)  charge=  1.5251  magn=  0.0042
     atom   5 (R=0.032)  charge=  1.5290  magn= -0.0021
     atom   6 (R=0.032)  charge=  1.5287  magn=  0.0016
     atom   7 (R=0.032)  charge=  1.5283  magn= -0.0021
     atom   8 (R=0.032)  charge=  1.5272  magn=  0.0040
     atom   9 (R=0.032)  charge=  1.5251  magn= -0.0023
     atom  10 (R=0.032)  charge=  1.5212  magn=  0.0073
     atom  11 (R=0.032)  charge=  1.5237  magn= -0.0024
     atom  12 (R=0.032)  charge=  1.5121  magn=  0.0040
     atom  13 (R=0.032)  charge=  1.5148  magn= -0.0022
     atom  14 (R=0.032)  charge=  1.5221  magn=  0.0013
     atom  15 (R=0.032)  charge=  1.5252  magn= -0.0023
     atom  16 (R=0.032)  charge=  1.5251  magn=  0.0042
     atom  17 (R=0.032)  charge=  1.5290  magn= -0.0026
     atom  18 (R=0.032)  charge=  1.5272  magn=  0.0129
     atom  19 (R=0.032)  charge=  1.5324  magn= -0.0036
     atom  20 (R=0.032)  charge=  1.5351  magn=  0.0142
     atom  21 (R=0.032)  charge=  1.5286  magn= -0.0035
     atom  22 (R=0.032)  charge=  1.5251  magn=  0.0058
     atom  23 (R=0.032)  charge=  1.5257  magn= -0.0023
     atom  24 (R=0.032)  charge=  1.4930  magn=  0.0036
     atom  25 (R=0.032)  charge=  1.5067  magn= -0.0045
     atom  26 (R=0.032)  charge=  1.5229  magn=  0.0117
     atom  27 (R=0.032)  charge=  1.5205  magn= -0.0032
     atom  28 (R=0.032)  charge=  1.5231  magn=  0.0102
     atom  29 (R=0.032)  charge=  1.5290  magn= -0.0021
     atom  30 (R=0.032)  charge=  1.5287  magn=  0.0016
     atom  31 (R=0.032)  charge=  1.5324  magn= -0.0036
     atom  32 (R=0.032)  charge=  1.5351  magn=  0.0142
     atom  33 (R=0.032)  charge=  1.5445  magn= -0.0066
     atom  34 (R=0.032)  charge=  1.5516  magn=  0.0399
     atom  35 (R=0.032)  charge=  1.5402  magn= -0.0030
     atom  36 (R=0.032)  charge=  1.4057  magn=  0.0693
     atom  37 (R=0.032)  charge=  1.4727  magn= -0.0109
     atom  38 (R=0.032)  charge=  1.5187  magn=  0.0487
     atom  39 (R=0.032)  charge=  1.5188  magn= -0.0082
     atom  40 (R=0.032)  charge=  1.5209  magn=  0.0144
     atom  41 (R=0.032)  charge=  1.5250  magn= -0.0038
     atom  42 (R=0.032)  charge=  1.5257  magn=  0.0020
     atom  43 (R=0.032)  charge=  1.5283  magn= -0.0021
     atom  44 (R=0.032)  charge=  1.5272  magn=  0.0040
     atom  45 (R=0.032)  charge=  1.5286  magn= -0.0035
     atom  46 (R=0.032)  charge=  1.5251  magn=  0.0058
     atom  47 (R=0.032)  charge=  1.5402  magn= -0.0030
     atom  48 (R=0.032)  charge=  1.4057  magn=  0.0693
     atom  49 (R=0.032)  charge=  1.4998  magn=  0.3533
     atom  50 (R=0.032)  charge=  1.5511  magn= -0.0088
     atom  51 (R=0.032)  charge=  1.5345  magn=  0.0253
     atom  52 (R=0.032)  charge=  1.5350  magn= -0.0016
     atom  53 (R=0.032)  charge=  1.5307  magn=  0.0052
     atom  54 (R=0.032)  charge=  1.5291  magn= -0.0020
     atom  55 (R=0.032)  charge=  1.5290  magn=  0.0051
     atom  56 (R=0.032)  charge=  1.5251  magn= -0.0023
     atom  57 (R=0.032)  charge=  1.5212  magn=  0.0073
     atom  58 (R=0.032)  charge=  1.5257  magn= -0.0023
     atom  59 (R=0.032)  charge=  1.4930  magn=  0.0036
     atom  60 (R=0.032)  charge=  1.4727  magn= -0.0109
     atom  61 (R=0.032)  charge=  1.5187  magn=  0.0487
     atom  62 (R=0.032)  charge=  1.5511  magn= -0.0088
     atom  63 (R=0.032)  charge=  1.5345  magn=  0.0253
     atom  64 (R=0.032)  charge=  1.5372  magn= -0.0087
     atom  65 (R=0.032)  charge=  1.5317  magn=  0.0086
     atom  66 (R=0.032)  charge=  1.5304  magn= -0.0034
     atom  67 (R=0.032)  charge=  1.5294  magn=  0.0021
     atom  68 (R=0.032)  charge=  1.5266  magn= -0.0020
     atom  69 (R=0.032)  charge=  1.5274  magn=  0.0017
     atom  70 (R=0.032)  charge=  1.5237  magn= -0.0024
     atom  71 (R=0.032)  charge=  1.5121  magn=  0.0040
     atom  72 (R=0.032)  charge=  1.5067  magn= -0.0045
     atom  73 (R=0.032)  charge=  1.5229  magn=  0.0117
     atom  74 (R=0.032)  charge=  1.5188  magn= -0.0082
     atom  75 (R=0.032)  charge=  1.5209  magn=  0.0144
     atom  76 (R=0.032)  charge=  1.5350  magn= -0.0016
     atom  77 (R=0.032)  charge=  1.5307  magn=  0.0052
     atom  78 (R=0.032)  charge=  1.5304  magn= -0.0034
     atom  79 (R=0.032)  charge=  1.5294  magn=  0.0021
     atom  80 (R=0.032)  charge=  1.5271  magn= -0.0019
     atom  81 (R=0.032)  charge=  1.5274  magn=  0.0038
     atom  82 (R=0.032)  charge=  1.5250  magn= -0.0016
     atom  83 (R=0.032)  charge=  1.5226  magn=  0.0017
     atom  84 (R=0.032)  charge=  1.5148  magn= -0.0022
     atom  85 (R=0.032)  charge=  1.5221  magn=  0.0013
     atom  86 (R=0.032)  charge=  1.5205  magn= -0.0032
     atom  87 (R=0.032)  charge=  1.5231  magn=  0.0102
     atom  88 (R=0.032)  charge=  1.5250  magn= -0.0038
     atom  89 (R=0.032)  charge=  1.5257  magn=  0.0020
     atom  90 (R=0.032)  charge=  1.5291  magn= -0.0020
     atom  91 (R=0.032)  charge=  1.5290  magn=  0.0051
     atom  92 (R=0.032)  charge=  1.5266  magn= -0.0020
     atom  93 (R=0.032)  charge=  1.5274  magn=  0.0017
     atom  94 (R=0.032)  charge=  1.5250  magn= -0.0016
     atom  95 (R=0.032)  charge=  1.5226  magn=  0.0017
     atom  96 (R=0.032)  charge=  1.5227  magn= -0.0018
     atom  97 (R=0.032)  charge=  1.5155  magn=  0.0044

     total cpu time spent up to now is     1383.1 secs

     End of self-consistent calculation

 ------ SPIN UP ------------


          k = 0.0000 0.0000 0.0000 (233409 PWs)   bands (ev):

   -23.7933 -23.4087 -23.3513 -23.3268 -23.3063 -23.2671 -23.1473 -22.4229
   -22.3917 -22.3849 -22.3779 -22.3074 -22.2092 -21.9412 -21.9285 -21.9092
   -21.8747 -21.8343 -21.5838 -20.5505 -20.5487 -20.5363 -20.5356 -20.5275
   -20.5090 -20.5076 -20.5026 -20.4797 -20.4677 -20.3760 -20.0595 -19.6561
   -19.6349 -19.6081 -19.5645 -19.5526 -19.2011 -18.3650 -18.3492 -18.3406
   -18.3342 -18.2840 -18.2812 -18.2718 -18.2624 -18.2449 -18.2159 -18.1776
   -17.6332 -17.2445 -17.2433 -17.2338 -17.1742 -17.0847 -16.8170 -16.3329
   -16.3287 -16.3050 -16.2253 -16.1871 -16.1004 -15.8242 -15.8079 -15.7946
   -15.7102 -15.6944 -15.0814 -14.4368 -14.4264 -14.4043 -14.3978 -14.3823
   -14.3812 -14.3666 -14.3475 -14.3349 -14.3081 -14.2734 -14.1878 -14.1874
   -14.1435 -14.1335 -13.8795 -13.7613 -13.1735 -12.7125 -12.7000 -12.6470
   -12.5774 -12.5338 -12.2817 -12.1422 -12.1380 -12.1176 -11.9873 -11.9613
   -11.8799 -11.8664 -11.6709 -11.6455 -11.6234 -11.6126 -11.5991 -11.5933
   -11.5832 -11.5374 -11.5331 -11.4412 -11.3898 -11.3553 -11.3445 -11.3265
   -11.3260 -11.3072 -11.2781 -11.2061 -11.1773 -11.1678 -11.1392 -10.9944
   -10.9092 -10.6430 -10.5954 -10.5677 -10.5569 -10.3333 -10.3157 -10.2439
   -10.2129 -10.2082 -10.2075 -10.1505 -10.1120 -10.0379  -9.9854  -9.9635
    -9.9563  -9.8717  -9.8272  -9.7281  -9.7154  -9.6952  -9.6950  -9.6774
    -9.6739  -9.6360  -9.6321  -9.6206  -9.6112  -9.3745  -9.2985  -9.2975
    -9.1100  -9.0999  -9.0737  -8.5721  -8.5386  -8.3293  -8.2609  -8.2245
    -8.2057  -8.1851  -8.1458  -8.1322  -8.1298  -8.1125  -8.1115  -8.0994
    -8.0988  -8.0867  -8.0671  -8.0613  -8.0215  -7.7130  -7.4835  -7.4699
    -7.3317  -7.3025  -7.3019  -7.2795  -7.2418  -6.9023  -6.2170  -6.2144
    -6.1958  -6.1757  -6.1681  -6.0061  -5.8050  -5.8014  -5.7930  -5.7921
    -5.7260  -5.1012  -4.8715  -2.8901  -2.8333  -2.8169  -2.7906  -2.7848
    -2.7741  -2.7548  -2.7545  -2.7471  -2.7319  -2.6998  -2.6358  -2.1963
    -1.7945  -1.7656  -1.7505  -1.7177  -1.6571  -1.2092  -0.9772  -0.3602
    -0.3581  -0.3284  -0.3070  -0.2989  -0.2935  -0.2874  -0.2692  -0.2620

 ------ SPIN DOWN ----------


          k = 0.0000 0.0000 0.0000 (233409 PWs)   bands (ev):

   -23.7790 -23.3782 -23.3449 -23.3201 -23.2990 -23.2525 -23.0929 -22.3838
   -22.3760 -22.3711 -22.3632 -22.2969 -22.1868 -21.9135 -21.9126 -21.8890
   -21.8565 -21.8155 -21.5153 -20.5423 -20.5385 -20.5151 -20.5085 -20.5006
   -20.4933 -20.4921 -20.4798 -20.4610 -20.4362 -20.3519 -20.0195 -19.6278
   -19.6186 -19.5935 -19.5321 -19.5251 -19.1456 -18.3479 -18.3330 -18.3287
   -18.3253 -18.2769 -18.2710 -18.2500 -18.2425 -18.2150 -18.2036 -18.0945
   -17.5315 -17.2338 -17.2316 -17.2237 -17.1382 -17.0688 -16.7616 -16.3124
   -16.3106 -16.2910 -16.1946 -16.1681 -16.0824 -15.8078 -15.7926 -15.7857
   -15.6820 -15.6135 -15.0130 -14.4145 -14.4014 -14.3901 -14.3849 -14.3742
   -14.3675 -14.3473 -14.3299 -14.3177 -14.2894 -14.2352 -14.1794 -14.1785
   -14.1382 -14.1165 -13.8024 -13.7314 -13.0916 -12.6916 -12.6725 -12.6339
   -12.5615 -12.4950 -12.2523 -12.1284 -12.1242 -12.0947 -11.9809 -11.9469
   -11.8578 -11.8290 -11.6471 -11.6352 -11.6153 -11.6033 -11.5851 -11.5743
   -11.5638 -11.5233 -11.5215 -11.4136 -11.3504 -11.3334 -11.3331 -11.3130
   -11.2999 -11.2969 -11.2505 -11.1889 -11.1650 -11.1510 -11.0642 -10.9843
   -10.8638 -10.6353 -10.5751 -10.5629 -10.5397 -10.2998 -10.2895 -10.1940
   -10.1932 -10.1849 -10.1820 -10.1277 -10.0649 -10.0012  -9.9653  -9.9499
    -9.9438  -9.8671  -9.8168  -9.7036  -9.6818  -9.6701  -9.6553  -9.6552
    -9.6388  -9.6211  -9.6090  -9.5867  -9.5131  -9.2812  -9.2664  -9.2595
    -9.1018  -9.0854  -9.0610  -8.5540  -8.5009  -8.2450  -8.2265  -8.2159
    -8.1726  -8.1121  -8.1065  -8.0898  -8.0866  -8.0748  -8.0713  -8.0666
    -8.0604  -8.0464  -8.0200  -8.0162  -7.9787  -7.6619  -7.4709  -7.4169
    -7.2952  -7.2890  -7.2723  -7.2335  -7.1920  -6.8274  -6.1909  -6.1873
    -6.1733  -6.1410  -6.1151  -5.9659  -5.7828  -5.7824  -5.7497  -5.6954
    -5.6802  -4.5147  -2.8919  -2.8228  -2.7956  -2.7762  -2.7651  -2.7564
    -2.7372  -2.7342  -2.7222  -2.7162  -2.6054  -2.5474  -2.5390  -2.1520
    -1.7754  -1.7523  -1.7082  -1.6327  -1.6062  -1.1367  -0.9697  -0.3450
    -0.3410  -0.3032  -0.2817  -0.2729  -0.2620  -0.2611  -0.2314  -0.2275

     the Fermi energy is    -4.7494 ev

!    total energy              =   -1168.11413674 Ry
     estimated scf accuracy    <          1.5E-12 Ry
     smearing contrib. (-TS)   =       0.00092629 Ry
     internal energy E=F+TS    =   -1168.11506302 Ry

     The total energy is F=E-TS. E is the sum of the following terms:
     one-electron contribution =  -13175.36847800 Ry
     hartree contribution      =    6623.90200405 Ry
     xc contribution           =    -415.41079948 Ry
     ewald contribution        =    5798.76221041 Ry

     total magnetization       =     2.00 Bohr mag/cell
     absolute magnetization    =     2.83 Bohr mag/cell

     convergence has been achieved in  11 iterations

     Forces acting on atoms (cartesian axes, Ry/au):

     atom    1 type  1   force =     0.00005515    0.00000012    0.00000000
     atom    2 type  1   force =    -0.00007799    0.00000082   -0.00000000
     atom    3 type  1   force =     0.00015064   -0.00014082   -0.00000000
     atom    4 type  1   force =    -0.00007028   -0.00000113    0.00000000
     atom    5 type  1   force =    -0.00027760   -0.00021758   -0.00000000
     atom    6 type  1   force =     0.00007287    0.00015167   -0.00000000
     atom    7 type  1   force =     0.00004018    0.00011341   -0.00000000
     atom    8 type  1   force =    -0.00040571    0.00001819   -0.00000000
     atom    9 type  1   force =     0.00039461   -0.00007586    0.00000000
     atom   10 type  1   force =    -0.00021524   -0.00001831    0.00000000
     atom   11 type  1   force =     0.00012344   -0.00008008    0.00000000
     atom   12 type  1   force =     0.00006404   -0.00002904   -0.00000000
     atom   13 type  1   force =    -0.00000136    0.00014059   -0.00000001
     atom   14 type  1   force =     0.00002355    0.00015750   -0.00000000
     atom   15 type  1   force =     0.00015057    0.00014152   -0.00000000
     atom   16 type  1   force =    -0.00007003    0.00000250   -0.00000000
     atom   17 type  1   force =    -0.00031576    0.00000034    0.00000001
     atom   18 type  1   force =     0.00003933    0.00000013   -0.00000000
     atom   19 type  1   force =    -0.00028708   -0.00000197    0.00000001
     atom   20 type  1   force =    -0.00018105   -0.00001968   -0.00000001
     atom   21 type  1   force =    -0.00009875   -0.00012038    0.00000000
     atom   22 type  1   force =    -0.00017407   -0.00004639   -0.00000000
     atom   23 type  1   force =    -0.00010847   -0.00015049   -0.00000001
     atom   24 type  1   force =     0.00007788    0.00000180   -0.00000000
     atom   25 type  1   force =     0.00010360    0.00007891    0.00000000
     atom   26 type  1   force =     0.00006754   -0.00013874    0.00000000
     atom   27 type  1   force =     0.00003346    0.00011041    0.00000001
     atom   28 type  1   force =    -0.00000886    0.00024057   -0.00000000
     atom   29 type  1   force =    -0.00027817    0.00021750    0.00000000
     atom   30 type  1   force =     0.00007320   -0.00015125   -0.00000000
     atom   31 type  1   force =    -0.00028713    0.00000177   -0.00000001
     atom   32 type  1   force =    -0.00018104    0.00001953   -0.00000001
     atom   33 type  1   force =    -0.00004008   -0.00000029   -0.00000000
     atom   34 type  1   force =    -0.00008138   -0.00000020   -0.00000000
     atom   35 type  1   force =     0.00011585    0.00024926    0.00000001
     atom   36 type  2   force =    -0.00037483    0.00014939    0.00000003
     atom   37 type  1   force =     0.00004809    0.00028227   -0.00000001
     atom   38 type  1   force =     0.00028363   -0.00019701   -0.00000001
     atom   39 type  1   force =     0.00001580   -0.00015153    0.00000001
     atom   40 type  1   force =     0.00011915    0.00013894    0.00000000
     atom   41 type  1   force =     0.00014222    0.00019209    0.00000001
     atom   42 type  1   force =    -0.00004675    0.00025661   -0.00000000
     atom   43 type  1   force =     0.00003963   -0.00011403    0.00000001
     atom   44 type  1   force =    -0.00040569   -0.00001855   -0.00000000
     atom   45 type  1   force =    -0.00009882    0.00011955    0.00000001
     atom   46 type  1   force =    -0.00017434    0.00004614   -0.00000000
     atom   47 type  1   force =     0.00011572   -0.00024986    0.00000001
     atom   48 type  2   force =    -0.00037502   -0.00014977   -0.00000001
     atom   49 type  2   force =    -0.00024382   -0.00000167    0.00000001
     atom   50 type  1   force =     0.00033601   -0.00006235   -0.00000001
     atom   51 type  1   force =     0.00026207    0.00012413   -0.00000000
     atom   52 type  1   force =    -0.00006149   -0.00010507   -0.00000000
     atom   53 type  1   force =     0.00005860    0.00033929   -0.00000000
     atom   54 type  1   force =    -0.00009686    0.00002077    0.00000000
     atom   55 type  1   force =     0.00025406   -0.00000025   -0.00000000
     atom   56 type  1   force =     0.00039422    0.00007485    0.00000001
     atom   57 type  1   force =    -0.00021571    0.00001769    0.00000000
     atom   58 type  1   force =    -0.00010878    0.00014981   -0.00000000
     atom   59 type  1   force =     0.00007762   -0.00000198    0.00000001
     atom   60 type  1   force =     0.00004739   -0.00028222    0.00000002
     atom   61 type  1   force =     0.00028386    0.00019672   -0.00000000
     atom   62 type  1   force =     0.00033456    0.00006517    0.00000000
     atom   63 type  1   force =     0.00026198   -0.00012565   -0.00000000
     atom   64 type  1   force =    -0.00012939    0.00000148   -0.00000000
     atom   65 type  1   force =     0.00041401   -0.00000079   -0.00000000
     atom   66 type  1   force =    -0.00017597    0.00005039   -0.00000001
     atom   67 type  1   force =     0.00049371    0.00003533   -0.00000000
     atom   68 type  1   force =     0.00000497   -0.00014874    0.00000000
     atom   69 type  1   force =    -0.00019827   -0.00029305   -0.00000001
     atom   70 type  1   force =     0.00012263    0.00007916    0.00000000
     atom   71 type  1   force =     0.00006345    0.00002899   -0.00000001
     atom   72 type  1   force =     0.00010250   -0.00007915   -0.00000001
     atom   73 type  1   force =     0.00006741    0.00013953   -0.00000000
     atom   74 type  1   force =     0.00001477    0.00015156    0.00000000
     atom   75 type  1   force =     0.00011882   -0.00013785    0.00000000
     atom   76 type  1   force =    -0.00006146    0.00010624   -0.00000000
     atom   77 type  1   force =     0.00005747   -0.00033928   -0.00000000
     atom   78 type  1   force =    -0.00017539   -0.00004890    0.00000000
     atom   79 type  1   force =     0.00049309   -0.00003624   -0.00000000
     atom   80 type  1   force =    -0.00033008    0.00000001    0.00000000
     atom   81 type  1   force =    -0.00012268   -0.00000053    0.00000000
     atom   82 type  1   force =     0.00052882    0.00013398   -0.00000000
     atom   83 type  1   force =    -0.00053217   -0.00015685    0.00000000
     atom   84 type  1   force =    -0.00000204   -0.00014082   -0.00000000
     atom   85 type  1   force =     0.00002319   -0.00015658    0.00000000
     atom   86 type  1   force =     0.00003267   -0.00011046    0.00000000
     atom   87 type  1   force =    -0.00000934   -0.00023863   -0.00000000
     atom   88 type  1   force =     0.00014241   -0.00019220   -0.00000001
     atom   89 type  1   force =    -0.00004763   -0.00025507   -0.00000000
     atom   90 type  1   force =    -0.00009596   -0.00002076   -0.00000000
     atom   91 type  1   force =     0.00025316    0.00000041    0.00000000
     atom   92 type  1   force =     0.00000576    0.00014837    0.00000001
     atom   93 type  1   force =    -0.00019831    0.00029225    0.00000001
     atom   94 type  1   force =     0.00052929   -0.00013504   -0.00000000
     atom   95 type  1   force =    -0.00053181    0.00015596   -0.00000000
     atom   96 type  1   force =     0.00006893   -0.00000049   -0.00000000
     atom   97 type  1   force =    -0.00022491   -0.00000006   -0.00000000

     Total force =     0.002575     Total SCF correction =     0.000001
     Energy error            =      9.6E-06 Ry
     Gradient error          =      5.3E-04 Ry/Bohr

     number of scf cycles    =  18
     number of bfgs steps    =  17

     energy             old  =   -1168.1141271579 Ry
     energy             new  =   -1168.1141367357 Ry

     CASE: energy            _new < energy            _old

     new trust radius        =       0.0008510817 bohr
     new conv_thr            =            1.0E-12 Ry


ATOMIC_POSITIONS (crystal)
C                0.0471165137        0.0471162325       -0.0000000007
C                0.0946727305        0.0946723381        0.0000000010
C                0.0466600697        0.1901489259        0.0000000024
C                0.0943487055        0.2376214089        0.0000000022
C                0.0467926850        0.3329927648        0.0000000017
C                0.0943927337        0.3805308886       -0.0000000005
C                0.0478136809        0.4758416034       -0.0000000008
C                0.0956439621        0.5232344231        0.0000000001
C                0.0487595094        0.6185450400       -0.0000000012
C                0.0970091352        0.6654884417        0.0000000010
C                0.0491504467        0.7607594885       -0.0000000011
C                0.0977920458        0.8071656664       -0.0000000011
C                0.0486366386        0.9034082274       -0.0000000022
C                0.0956632116        0.9513854034       -0.0000000020
C                0.1901493101        0.0466596234        0.0000000014
C                0.2376217193        0.0943483567        0.0000000026
C                0.1896610968        0.1896607835        0.0000000019
C                0.2371624966        0.2371623968        0.0000000005
C                0.1893138230        0.3324831286       -0.0000000008
C                0.2365868342        0.3799112643        0.0000000015
C                0.1906858171        0.4749734077        0.0000000032
C                0.2390958178        0.5218789173        0.0000000063
C                0.1930659944        0.6165722337        0.0000000044
C                0.2440234964        0.6606430354        0.0000000029
C                0.1942731247        0.7576750415        0.0000000002
C                0.2397498197        0.8072507728       -0.0000000015
C                0.1912034532        0.9030473331       -0.0000000019
C                0.2383190070        0.9511877521       -0.0000000006
C                0.3329930197        0.0467924003        0.0000000026
C                0.3805309488        0.0943926924        0.0000000014
C                0.3324831779        0.1893138085        0.0000000006
C                0.3799111456        0.2365870078        0.0000000008
C                0.3314894538        0.3314896299        0.0000000019
C                0.3781121264        0.3781123461        0.0000000023
C                0.3346719201        0.4725887932        0.0000000062
C1               0.3890560856        0.5112087342        0.0000000057
C                0.3426248451        0.6091270244        0.0000000025
C                0.3837969794        0.6639383647        0.0000000008
C                0.3351212559        0.7593038235       -0.0000000004
C                0.3819364825        0.8084447877       -0.0000000004
C                0.3337186471        0.9036851769        0.0000000005
C                0.3810629620        0.9517229038        0.0000000020
C                0.4758415932        0.0478137750        0.0000000000
C                0.5232342615        0.0956442675       -0.0000000022
C                0.4749732647        0.1906861336       -0.0000000016
C                0.5218787540        0.2390962049       -0.0000000034
C                0.4725886048        0.3346723057       -0.0000000022
C1               0.5112086039        0.3890564619       -0.0000000017
C1               0.5291924501        0.5291920849       -0.0000000015
C                0.4786451147        0.6205141696        0.0000000002
C                0.5257453852        0.6685233903        0.0000000011
C                0.4771617236        0.7629292980        0.0000000008
C                0.5245998513        0.8104465792        0.0000000019
C                0.4764116615        0.9052584738        0.0000000020
C                0.5239577450        0.9528450379        0.0000000009
C                0.6185448359        0.0487599031       -0.0000000041
C                0.6654882429        0.0970095573       -0.0000000052
C                0.6165720860        0.1930663970       -0.0000000043
C                0.6606430236        0.2440237863       -0.0000000025
C                0.6091270417        0.3426250686       -0.0000000009
C                0.6639386706        0.3837969148       -0.0000000020
C                0.6205144854        0.4786450039       -0.0000000021
C                0.6685237442        0.5257451868        0.0000000003
C                0.6206188039        0.6206186330        0.0000000012
C                0.6680240317        0.6680239281        0.0000000023
C                0.6199144797        0.7630402720        0.0000000029
C                0.6673971360        0.8105313130        0.0000000017
C                0.6193276437        0.9056636002       -0.0000000001
C                0.6667309555        0.9533976841       -0.0000000029
C                0.7607592945        0.0491508524       -0.0000000046
C                0.8071656468        0.0977922928       -0.0000000022
C                0.7576751105        0.1942733246       -0.0000000019
C                0.8072510757        0.2397497819       -0.0000000003
C                0.7593041609        0.3351211607       -0.0000000008
C                0.8084451819        0.3819363042        0.0000000010
C                0.7629296271        0.4771615543        0.0000000015
C                0.8104467844        0.5245997461        0.0000000014
C                0.7630403306        0.6199144480        0.0000000015
C                0.8105311645        0.6673972770        0.0000000004
C                0.7627009214        0.7627011404        0.0000000001
C                0.8102146172        0.8102149882       -0.0000000026
C                0.7620997212        0.9056468862       -0.0000000036
C                0.8094132131        0.9533920534       -0.0000000044
C                0.9034082505        0.0486367457       -0.0000000013
C                0.9513856537        0.0956630887       -0.0000000003
C                0.9030476782        0.1912032961        0.0000000010
C                0.9511881862        0.2383187369        0.0000000027
C                0.9036855936        0.3337183850        0.0000000028
C                0.9517231963        0.3810627664        0.0000000021
C                0.9052586564        0.4764115291        0.0000000007
C                0.9528449687        0.5239577901       -0.0000000010
C                0.9056634101        0.6193277713       -0.0000000022
C                0.9533973045        0.6667312249       -0.0000000030
C                0.9056464752        0.7621000428       -0.0000000030
C                0.9533916375        0.8094135226       -0.0000000023
C                0.9050074641        0.9050077783       -0.0000000031
C                0.9525070758        0.9525072117       -0.0000000021



     Writing config-only to output data dir /home/gregb26/links/scratch/qe_tmp/vacancy_relaxed/series/7x7/nspin2/vac_7x7_relax_nspin2.save/ :
     XML data file
     NEW-OLD atomic charge density approx. for the potential

     negative rho (up, down):  4.441E-08 4.951E-08
     Generating pointlists ...

     total cpu time spent up to now is     1385.4 secs

     per-process dynamical memory:   263.2 Mb

     Self-consistent Calculation

     iteration #  1     ecut=   100.00 Ry     beta= 0.30
     Davidson diagonalization with overlap
     ethr =  1.00E-06,  avg # of iterations =  2.0

     Threshold (ethr) on eigenvalues was too large:
     Diagonalizing with lowered threshold

     Davidson diagonalization with overlap
     ethr =  1.21E-10,  avg # of iterations =  7.0

     negative rho (up, down):  4.904E-08 5.066E-08

     total cpu time spent up to now is     1397.7 secs

     total energy              =   -1168.11413959 Ry
     estimated scf accuracy    <       0.00000134 Ry

     total magnetization       =     2.00 Bohr mag/cell
     absolute magnetization    =     2.83 Bohr mag/cell

     iteration #  2     ecut=   100.00 Ry     beta= 0.30
     Davidson diagonalization with overlap
     ethr =  3.44E-10,  avg # of iterations =  2.0

     negative rho (up, down):  2.485E-08 2.616E-08

     total cpu time spent up to now is     1401.2 secs

     total energy              =   -1168.11413963 Ry
     estimated scf accuracy    <       0.00000031 Ry

     total magnetization       =     2.00 Bohr mag/cell
     absolute magnetization    =     2.83 Bohr mag/cell

     iteration #  3     ecut=   100.00 Ry     beta= 0.30
     Davidson diagonalization with overlap
     ethr =  7.92E-11,  avg # of iterations =  2.0

     negative rho (up, down):  1.165E-08 1.259E-08

     total cpu time spent up to now is     1404.8 secs

     total energy              =   -1168.11413966 Ry
     estimated scf accuracy    <       0.00000008 Ry

     total magnetization       =     2.00 Bohr mag/cell
     absolute magnetization    =     2.83 Bohr mag/cell

     iteration #  4     ecut=   100.00 Ry     beta= 0.30
     Davidson diagonalization with overlap
     ethr =  2.09E-11,  avg # of iterations =  2.0
     Minimization algorithm failed to find Fermi energy: reverting to bisection
     Possible cause: smearing is larger than the electronic band-gap.

     total cpu time spent up to now is     1408.2 secs

     total energy              =   -1168.11413966 Ry
     estimated scf accuracy    <       0.00000002 Ry

     total magnetization       =     2.00 Bohr mag/cell
     absolute magnetization    =     2.83 Bohr mag/cell

     iteration #  5     ecut=   100.00 Ry     beta= 0.30
     Davidson diagonalization with overlap
     ethr =  5.99E-12,  avg # of iterations =  3.0

     total cpu time spent up to now is     1412.1 secs

     total energy              =   -1168.11413967 Ry
     estimated scf accuracy    <          1.8E-09 Ry

     total magnetization       =     2.00 Bohr mag/cell
     absolute magnetization    =     2.83 Bohr mag/cell

     iteration #  6     ecut=   100.00 Ry     beta= 0.30
     Davidson diagonalization with overlap
     ethr =  4.67E-13,  avg # of iterations =  4.5

     total cpu time spent up to now is     1416.8 secs

     total energy              =   -1168.11413967 Ry
     estimated scf accuracy    <          6.3E-10 Ry

     total magnetization       =     2.00 Bohr mag/cell
     absolute magnetization    =     2.83 Bohr mag/cell

     iteration #  7     ecut=   100.00 Ry     beta= 0.30
     Davidson diagonalization with overlap
     ethr =  1.63E-13,  avg # of iterations =  3.0

     total cpu time spent up to now is     1420.6 secs

     total energy              =   -1168.11413967 Ry
     estimated scf accuracy    <          1.6E-10 Ry

     total magnetization       =     2.00 Bohr mag/cell
     absolute magnetization    =     2.83 Bohr mag/cell

     iteration #  8     ecut=   100.00 Ry     beta= 0.30
     Davidson diagonalization with overlap
     ethr =  1.00E-13,  avg # of iterations =  3.0

     total cpu time spent up to now is     1424.0 secs

     total energy              =   -1168.11413967 Ry
     estimated scf accuracy    <          2.2E-11 Ry

     total magnetization       =     2.00 Bohr mag/cell
     absolute magnetization    =     2.83 Bohr mag/cell

     iteration #  9     ecut=   100.00 Ry     beta= 0.30
     Davidson diagonalization with overlap
     ethr =  1.00E-13,  avg # of iterations =  1.5

     total cpu time spent up to now is     1427.1 secs

     total energy              =   -1168.11413967 Ry
     estimated scf accuracy    <          6.4E-12 Ry

     total magnetization       =     2.00 Bohr mag/cell
     absolute magnetization    =     2.83 Bohr mag/cell

     iteration # 10     ecut=   100.00 Ry     beta= 0.30
     Davidson diagonalization with overlap
     ethr =  1.00E-13,  avg # of iterations =  1.0

     total cpu time spent up to now is     1430.2 secs

     total energy              =   -1168.11413967 Ry
     estimated scf accuracy    <          2.0E-12 Ry

     total magnetization       =     2.00 Bohr mag/cell
     absolute magnetization    =     2.83 Bohr mag/cell

     iteration # 11     ecut=   100.00 Ry     beta= 0.30
     Davidson diagonalization with overlap
     ethr =  1.00E-13,  avg # of iterations =  1.0

     Magnetic moment per site  (integrated on atomic sphere of radius R)
     atom   1 (R=0.032)  charge=  1.5210  magn= -0.0017
     atom   2 (R=0.032)  charge=  1.5236  magn=  0.0025
     atom   3 (R=0.032)  charge=  1.5253  magn= -0.0023
     atom   4 (R=0.032)  charge=  1.5252  magn=  0.0042
     atom   5 (R=0.032)  charge=  1.5291  magn= -0.0021
     atom   6 (R=0.032)  charge=  1.5286  magn=  0.0016
     atom   7 (R=0.032)  charge=  1.5284  magn= -0.0021
     atom   8 (R=0.032)  charge=  1.5272  magn=  0.0040
     atom   9 (R=0.032)  charge=  1.5251  magn= -0.0023
     atom  10 (R=0.032)  charge=  1.5213  magn=  0.0073
     atom  11 (R=0.032)  charge=  1.5236  magn= -0.0024
     atom  12 (R=0.032)  charge=  1.5121  magn=  0.0040
     atom  13 (R=0.032)  charge=  1.5148  magn= -0.0022
     atom  14 (R=0.032)  charge=  1.5221  magn=  0.0013
     atom  15 (R=0.032)  charge=  1.5253  magn= -0.0023
     atom  16 (R=0.032)  charge=  1.5252  magn=  0.0042
     atom  17 (R=0.032)  charge=  1.5290  magn= -0.0026
     atom  18 (R=0.032)  charge=  1.5272  magn=  0.0129
     atom  19 (R=0.032)  charge=  1.5323  magn= -0.0036
     atom  20 (R=0.032)  charge=  1.5351  magn=  0.0142
     atom  21 (R=0.032)  charge=  1.5285  magn= -0.0035
     atom  22 (R=0.032)  charge=  1.5251  magn=  0.0058
     atom  23 (R=0.032)  charge=  1.5257  magn= -0.0023
     atom  24 (R=0.032)  charge=  1.4930  magn=  0.0036
     atom  25 (R=0.032)  charge=  1.5067  magn= -0.0045
     atom  26 (R=0.032)  charge=  1.5229  magn=  0.0117
     atom  27 (R=0.032)  charge=  1.5204  magn= -0.0032
     atom  28 (R=0.032)  charge=  1.5231  magn=  0.0102
     atom  29 (R=0.032)  charge=  1.5291  magn= -0.0021
     atom  30 (R=0.032)  charge=  1.5286  magn=  0.0016
     atom  31 (R=0.032)  charge=  1.5323  magn= -0.0036
     atom  32 (R=0.032)  charge=  1.5351  magn=  0.0142
     atom  33 (R=0.032)  charge=  1.5444  magn= -0.0067
     atom  34 (R=0.032)  charge=  1.5515  magn=  0.0400
     atom  35 (R=0.032)  charge=  1.5402  magn= -0.0030
     atom  36 (R=0.032)  charge=  1.4058  magn=  0.0693
     atom  37 (R=0.032)  charge=  1.4727  magn= -0.0109
     atom  38 (R=0.032)  charge=  1.5187  magn=  0.0487
     atom  39 (R=0.032)  charge=  1.5188  magn= -0.0082
     atom  40 (R=0.032)  charge=  1.5209  magn=  0.0144
     atom  41 (R=0.032)  charge=  1.5250  magn= -0.0038
     atom  42 (R=0.032)  charge=  1.5258  magn=  0.0020
     atom  43 (R=0.032)  charge=  1.5284  magn= -0.0021
     atom  44 (R=0.032)  charge=  1.5272  magn=  0.0040
     atom  45 (R=0.032)  charge=  1.5285  magn= -0.0035
     atom  46 (R=0.032)  charge=  1.5251  magn=  0.0058
     atom  47 (R=0.032)  charge=  1.5402  magn= -0.0030
     atom  48 (R=0.032)  charge=  1.4058  magn=  0.0693
     atom  49 (R=0.032)  charge=  1.4997  magn=  0.3533
     atom  50 (R=0.032)  charge=  1.5510  magn= -0.0088
     atom  51 (R=0.032)  charge=  1.5345  magn=  0.0253
     atom  52 (R=0.032)  charge=  1.5350  magn= -0.0016
     atom  53 (R=0.032)  charge=  1.5308  magn=  0.0052
     atom  54 (R=0.032)  charge=  1.5291  magn= -0.0020
     atom  55 (R=0.032)  charge=  1.5291  magn=  0.0051
     atom  56 (R=0.032)  charge=  1.5251  magn= -0.0023
     atom  57 (R=0.032)  charge=  1.5213  magn=  0.0073
     atom  58 (R=0.032)  charge=  1.5257  magn= -0.0023
     atom  59 (R=0.032)  charge=  1.4930  magn=  0.0036
     atom  60 (R=0.032)  charge=  1.4727  magn= -0.0109
     atom  61 (R=0.032)  charge=  1.5187  magn=  0.0487
     atom  62 (R=0.032)  charge=  1.5510  magn= -0.0088
     atom  63 (R=0.032)  charge=  1.5345  magn=  0.0253
     atom  64 (R=0.032)  charge=  1.5371  magn= -0.0087
     atom  65 (R=0.032)  charge=  1.5316  magn=  0.0086
     atom  66 (R=0.032)  charge=  1.5303  magn= -0.0034
     atom  67 (R=0.032)  charge=  1.5293  magn=  0.0021
     atom  68 (R=0.032)  charge=  1.5267  magn= -0.0020
     atom  69 (R=0.032)  charge=  1.5273  magn=  0.0017
     atom  70 (R=0.032)  charge=  1.5236  magn= -0.0024
     atom  71 (R=0.032)  charge=  1.5121  magn=  0.0040
     atom  72 (R=0.032)  charge=  1.5067  magn= -0.0045
     atom  73 (R=0.032)  charge=  1.5229  magn=  0.0117
     atom  74 (R=0.032)  charge=  1.5188  magn= -0.0082
     atom  75 (R=0.032)  charge=  1.5209  magn=  0.0144
     atom  76 (R=0.032)  charge=  1.5350  magn= -0.0016
     atom  77 (R=0.032)  charge=  1.5308  magn=  0.0052
     atom  78 (R=0.032)  charge=  1.5303  magn= -0.0034
     atom  79 (R=0.032)  charge=  1.5293  magn=  0.0021
     atom  80 (R=0.032)  charge=  1.5271  magn= -0.0019
     atom  81 (R=0.032)  charge=  1.5271  magn=  0.0038
     atom  82 (R=0.032)  charge=  1.5251  magn= -0.0016
     atom  83 (R=0.032)  charge=  1.5226  magn=  0.0017
     atom  84 (R=0.032)  charge=  1.5148  magn= -0.0022
     atom  85 (R=0.032)  charge=  1.5221  magn=  0.0013
     atom  86 (R=0.032)  charge=  1.5204  magn= -0.0032
     atom  87 (R=0.032)  charge=  1.5231  magn=  0.0102
     atom  88 (R=0.032)  charge=  1.5250  magn= -0.0038
     atom  89 (R=0.032)  charge=  1.5258  magn=  0.0020
     atom  90 (R=0.032)  charge=  1.5291  magn= -0.0020
     atom  91 (R=0.032)  charge=  1.5291  magn=  0.0051
     atom  92 (R=0.032)  charge=  1.5267  magn= -0.0020
     atom  93 (R=0.032)  charge=  1.5273  magn=  0.0017
     atom  94 (R=0.032)  charge=  1.5251  magn= -0.0016
     atom  95 (R=0.032)  charge=  1.5226  magn=  0.0017
     atom  96 (R=0.032)  charge=  1.5226  magn= -0.0018
     atom  97 (R=0.032)  charge=  1.5156  magn=  0.0044

     total cpu time spent up to now is     1433.2 secs

     End of self-consistent calculation

 ------ SPIN UP ------------


          k = 0.0000 0.0000 0.0000 (233409 PWs)   bands (ev):

   -23.7933 -23.4085 -23.3516 -23.3269 -23.3063 -23.2671 -23.1473 -22.4227
   -22.3917 -22.3849 -22.3780 -22.3077 -22.2094 -21.9412 -21.9287 -21.9091
   -21.8747 -21.8343 -21.5839 -20.5505 -20.5488 -20.5366 -20.5355 -20.5273
   -20.5087 -20.5073 -20.5026 -20.4801 -20.4684 -20.3761 -20.0592 -19.6560
   -19.6350 -19.6082 -19.5645 -19.5528 -19.2009 -18.3650 -18.3494 -18.3408
   -18.3343 -18.2842 -18.2814 -18.2719 -18.2621 -18.2448 -18.2160 -18.1774
   -17.6330 -17.2446 -17.2434 -17.2340 -17.1742 -17.0846 -16.8170 -16.3328
   -16.3286 -16.3051 -16.2255 -16.1871 -16.1006 -15.8242 -15.8079 -15.7946
   -15.7102 -15.6945 -15.0811 -14.4368 -14.4264 -14.4042 -14.3978 -14.3825
   -14.3811 -14.3670 -14.3477 -14.3350 -14.3081 -14.2733 -14.1880 -14.1877
   -14.1437 -14.1334 -13.8794 -13.7611 -13.1732 -12.7120 -12.6997 -12.6469
   -12.5777 -12.5342 -12.2818 -12.1422 -12.1379 -12.1178 -11.9879 -11.9614
   -11.8799 -11.8665 -11.6705 -11.6454 -11.6233 -11.6124 -11.5989 -11.5933
   -11.5837 -11.5372 -11.5333 -11.4416 -11.3896 -11.3554 -11.3448 -11.3265
   -11.3264 -11.3072 -11.2781 -11.2063 -11.1775 -11.1677 -11.1392 -10.9942
   -10.9094 -10.6432 -10.5956 -10.5677 -10.5572 -10.3333 -10.3157 -10.2438
   -10.2129 -10.2083 -10.2075 -10.1508 -10.1112 -10.0380  -9.9855  -9.9632
    -9.9566  -9.8713  -9.8271  -9.7281  -9.7154  -9.6953  -9.6948  -9.6776
    -9.6737  -9.6365  -9.6321  -9.6206  -9.6109  -9.3746  -9.2984  -9.2972
    -9.1100  -9.1005  -9.0745  -8.5724  -8.5380  -8.3285  -8.2599  -8.2252
    -8.2051  -8.1852  -8.1456  -8.1322  -8.1296  -8.1127  -8.1115  -8.0990
    -8.0985  -8.0868  -8.0674  -8.0618  -8.0217  -7.7129  -7.4834  -7.4704
    -7.3316  -7.3027  -7.3021  -7.2796  -7.2417  -6.9021  -6.2169  -6.2143
    -6.1963  -6.1756  -6.1681  -6.0059  -5.8051  -5.8016  -5.7931  -5.7923
    -5.7260  -5.1018  -4.8711  -2.8940  -2.8334  -2.8170  -2.7905  -2.7847
    -2.7742  -2.7547  -2.7546  -2.7471  -2.7319  -2.7000  -2.6355  -2.1963
    -1.7946  -1.7652  -1.7505  -1.7176  -1.6572  -1.2091  -0.9772  -0.3599
    -0.3578  -0.3282  -0.3074  -0.2994  -0.2936  -0.2876  -0.2692  -0.2622

 ------ SPIN DOWN ----------


          k = 0.0000 0.0000 0.0000 (233409 PWs)   bands (ev):

   -23.7791 -23.3780 -23.3452 -23.3202 -23.2990 -23.2525 -23.0928 -22.3838
   -22.3760 -22.3710 -22.3633 -22.2972 -22.1870 -21.9134 -21.9127 -21.8890
   -21.8565 -21.8156 -21.5153 -20.5423 -20.5387 -20.5151 -20.5088 -20.5003
   -20.4931 -20.4921 -20.4798 -20.4616 -20.4363 -20.3519 -20.0193 -19.6278
   -19.6187 -19.5936 -19.5322 -19.5251 -19.1454 -18.3479 -18.3330 -18.3289
   -18.3254 -18.2772 -18.2712 -18.2503 -18.2423 -18.2149 -18.2038 -18.0942
   -17.5314 -17.2339 -17.2316 -17.2239 -17.1382 -17.0687 -16.7616 -16.3123
   -16.3104 -16.2911 -16.1947 -16.1681 -16.0826 -15.8078 -15.7926 -15.7857
   -15.6820 -15.6136 -15.0127 -14.4145 -14.4014 -14.3901 -14.3849 -14.3742
   -14.3677 -14.3477 -14.3300 -14.3178 -14.2895 -14.2352 -14.1796 -14.1787
   -14.1383 -14.1165 -13.8024 -13.7312 -13.0914 -12.6911 -12.6721 -12.6338
   -12.5618 -12.4954 -12.2523 -12.1285 -12.1241 -12.0950 -11.9814 -11.9470
   -11.8578 -11.8292 -11.6466 -11.6351 -11.6151 -11.6028 -11.5851 -11.5749
   -11.5639 -11.5232 -11.5218 -11.4139 -11.3502 -11.3335 -11.3334 -11.3131
   -11.3003 -11.2970 -11.2505 -11.1890 -11.1653 -11.1509 -11.0641 -10.9840
   -10.8641 -10.6355 -10.5756 -10.5630 -10.5398 -10.2998 -10.2895 -10.1940
   -10.1932 -10.1849 -10.1821 -10.1279 -10.0644 -10.0013  -9.9653  -9.9497
    -9.9440  -9.8667  -9.8166  -9.7037  -9.6822  -9.6699  -9.6554  -9.6552
    -9.6388  -9.6217  -9.6090  -9.5867  -9.5123  -9.2812  -9.2660  -9.2594
    -9.1018  -9.0860  -9.0618  -8.5543  -8.5005  -8.2443  -8.2260  -8.2163
    -8.1727  -8.1119  -8.1066  -8.0898  -8.0862  -8.0750  -8.0714  -8.0666
    -8.0601  -8.0470  -8.0202  -8.0146  -7.9788  -7.6617  -7.4709  -7.4173
    -7.2951  -7.2892  -7.2724  -7.2337  -7.1919  -6.8271  -6.1910  -6.1873
    -6.1737  -6.1410  -6.1151  -5.9657  -5.7829  -5.7826  -5.7497  -5.6954
    -5.6801  -4.5142  -2.8931  -2.8229  -2.7957  -2.7762  -2.7651  -2.7564
    -2.7372  -2.7344  -2.7219  -2.7161  -2.6090  -2.5472  -2.5391  -2.1521
    -1.7754  -1.7519  -1.7080  -1.6327  -1.6062  -1.1365  -0.9697  -0.3445
    -0.3407  -0.3031  -0.2823  -0.2731  -0.2623  -0.2612  -0.2315  -0.2278

     the Fermi energy is    -4.7490 ev

!    total energy              =   -1168.11413967 Ry
     estimated scf accuracy    <          6.6E-13 Ry
     smearing contrib. (-TS)   =       0.00092273 Ry
     internal energy E=F+TS    =   -1168.11506240 Ry

     The total energy is F=E-TS. E is the sum of the following terms:
     one-electron contribution =  -13175.38154850 Ry
     hartree contribution      =    6623.90840084 Ry
     xc contribution           =    -415.41125725 Ry
     ewald contribution        =    5798.76934250 Ry

     total magnetization       =     2.00 Bohr mag/cell
     absolute magnetization    =     2.83 Bohr mag/cell

     convergence has been achieved in  11 iterations

     Forces acting on atoms (cartesian axes, Ry/au):

     atom    1 type  1   force =     0.00005103    0.00000050    0.00000000
     atom    2 type  1   force =     0.00015745    0.00000030   -0.00000000
     atom    3 type  1   force =    -0.00011185   -0.00006230    0.00000000
     atom    4 type  1   force =    -0.00010210   -0.00009254    0.00000000
     atom    5 type  1   force =     0.00000281   -0.00015766   -0.00000000
     atom    6 type  1   force =    -0.00014733   -0.00013565    0.00000000
     atom    7 type  1   force =     0.00001462   -0.00005519   -0.00000000
     atom    8 type  1   force =     0.00008687   -0.00013303    0.00000000
     atom    9 type  1   force =    -0.00015010    0.00014793    0.00000000
     atom   10 type  1   force =     0.00007817   -0.00001922   -0.00000000
     atom   11 type  1   force =    -0.00008842    0.00010330    0.00000000
     atom   12 type  1   force =    -0.00001497    0.00005769   -0.00000000
     atom   13 type  1   force =    -0.00000804   -0.00010725    0.00000000
     atom   14 type  1   force =     0.00005524    0.00015134    0.00000000
     atom   15 type  1   force =    -0.00011166    0.00006379   -0.00000000
     atom   16 type  1   force =    -0.00010218    0.00009304   -0.00000000
     atom   17 type  1   force =    -0.00007533    0.00000051   -0.00000000
     atom   18 type  1   force =    -0.00019502    0.00000004   -0.00000000
     atom   19 type  1   force =    -0.00014246    0.00006558    0.00000000
     atom   20 type  1   force =    -0.00013814   -0.00006879    0.00000000
     atom   21 type  1   force =    -0.00009907    0.00003302   -0.00000001
     atom   22 type  1   force =    -0.00011963    0.00010135   -0.00000001
     atom   23 type  1   force =     0.00004303   -0.00004637   -0.00000000
     atom   24 type  1   force =    -0.00013199   -0.00001259   -0.00000000
     atom   25 type  1   force =     0.00007504   -0.00004369   -0.00000001
     atom   26 type  1   force =     0.00005777    0.00005034    0.00000000
     atom   27 type  1   force =    -0.00007382   -0.00004543   -0.00000000
     atom   28 type  1   force =     0.00013105    0.00024157    0.00000000
     atom   29 type  1   force =     0.00000322    0.00015879   -0.00000000
     atom   30 type  1   force =    -0.00014766    0.00013546    0.00000000
     atom   31 type  1   force =    -0.00014241   -0.00006541    0.00000000
     atom   32 type  1   force =    -0.00013816    0.00006836   -0.00000001
     atom   33 type  1   force =    -0.00007649   -0.00000015   -0.00000001
     atom   34 type  1   force =    -0.00014387   -0.00000019    0.00000001
     atom   35 type  1   force =     0.00004334   -0.00000392    0.00000000
     atom   36 type  2   force =    -0.00026192    0.00018083    0.00000001
     atom   37 type  1   force =     0.00009320    0.00006768    0.00000001
     atom   38 type  1   force =     0.00011037   -0.00000247    0.00000000
     atom   39 type  1   force =     0.00014858    0.00005189    0.00000000
     atom   40 type  1   force =     0.00008740    0.00002728   -0.00000000
     atom   41 type  1   force =    -0.00006666    0.00002846   -0.00000000
     atom   42 type  1   force =     0.00006596    0.00020717   -0.00000000
     atom   43 type  1   force =     0.00001481    0.00005532   -0.00000000
     atom   44 type  1   force =     0.00008651    0.00013240    0.00000000
     atom   45 type  1   force =    -0.00009924   -0.00003343    0.00000000
     atom   46 type  1   force =    -0.00011994   -0.00010185    0.00000000
     atom   47 type  1   force =     0.00004320    0.00000353    0.00000000
     atom   48 type  2   force =    -0.00026209   -0.00018114   -0.00000001
     atom   49 type  2   force =     0.00012075    0.00000160    0.00000000
     atom   50 type  1   force =     0.00015127   -0.00008337    0.00000001
     atom   51 type  1   force =     0.00015821   -0.00011213   -0.00000000
     atom   52 type  1   force =     0.00002935    0.00001073    0.00000000
     atom   53 type  1   force =    -0.00006164   -0.00001332    0.00000000
     atom   54 type  1   force =    -0.00005480    0.00004209   -0.00000000
     atom   55 type  1   force =    -0.00004898   -0.00010510    0.00000000
     atom   56 type  1   force =    -0.00015038   -0.00014854    0.00000000
     atom   57 type  1   force =     0.00007778    0.00001857    0.00000000
     atom   58 type  1   force =     0.00004273    0.00004586   -0.00000000
     atom   59 type  1   force =    -0.00013265    0.00001229    0.00000000
     atom   60 type  1   force =     0.00009322   -0.00006796   -0.00000001
     atom   61 type  1   force =     0.00010965    0.00000299    0.00000000
     atom   62 type  1   force =     0.00015184    0.00008175    0.00000000
     atom   63 type  1   force =     0.00015810    0.00011401    0.00000000
     atom   64 type  1   force =     0.00013557   -0.00000076    0.00000001
     atom   65 type  1   force =    -0.00004758    0.00000063   -0.00000000
     atom   66 type  1   force =     0.00029019    0.00011794    0.00000000
     atom   67 type  1   force =     0.00005180    0.00002497   -0.00000000
     atom   68 type  1   force =     0.00013908   -0.00009414   -0.00000000
     atom   69 type  1   force =    -0.00000660   -0.00006750    0.00000000
     atom   70 type  1   force =    -0.00008888   -0.00010394    0.00000000
     atom   71 type  1   force =    -0.00001562   -0.00005802   -0.00000000
     atom   72 type  1   force =     0.00007477    0.00004368    0.00000000
     atom   73 type  1   force =     0.00005689   -0.00005029    0.00000000
     atom   74 type  1   force =     0.00014849   -0.00005129   -0.00000000
     atom   75 type  1   force =     0.00008699   -0.00002698    0.00000000
     atom   76 type  1   force =     0.00002901   -0.00001070   -0.00000001
     atom   77 type  1   force =    -0.00006125    0.00001401    0.00000000
     atom   78 type  1   force =     0.00028981   -0.00011860    0.00000000
     atom   79 type  1   force =     0.00005218   -0.00002496   -0.00000001
     atom   80 type  1   force =     0.00020991   -0.00000051    0.00000000
     atom   81 type  1   force =     0.00007035   -0.00000042    0.00000000
     atom   82 type  1   force =    -0.00019858   -0.00007882    0.00000000
     atom   83 type  1   force =     0.00019440   -0.00017041    0.00000000
     atom   84 type  1   force =    -0.00000834    0.00010734   -0.00000000
     atom   85 type  1   force =     0.00005477   -0.00015125    0.00000000
     atom   86 type  1   force =    -0.00007411    0.00004625   -0.00000000
     atom   87 type  1   force =     0.00013067   -0.00024122   -0.00000000
     atom   88 type  1   force =    -0.00006713   -0.00002717   -0.00000000
     atom   89 type  1   force =     0.00006622   -0.00020706    0.00000000
     atom   90 type  1   force =    -0.00005535   -0.00004153   -0.00000000
     atom   91 type  1   force =    -0.00004828    0.00010479   -0.00000000
     atom   92 type  1   force =     0.00013885    0.00009376    0.00000001
     atom   93 type  1   force =    -0.00000611    0.00006665    0.00000000
     atom   94 type  1   force =    -0.00019842    0.00007792    0.00000000
     atom   95 type  1   force =     0.00019472    0.00016948   -0.00000000
     atom   96 type  1   force =    -0.00027446   -0.00000035   -0.00000000
     atom   97 type  1   force =    -0.00008750   -0.00000019   -0.00000000

     Total force =     0.001500     Total SCF correction =     0.000000
     Energy error            =      2.9E-06 Ry
     Gradient error          =      2.9E-04 Ry/Bohr

     number of scf cycles    =  19
     number of bfgs steps    =  18

     energy             old  =   -1168.1141367357 Ry
     energy             new  =   -1168.1141396661 Ry

     CASE: energy            _new < energy            _old

     new trust radius        =       0.0003288582 bohr
     new conv_thr            =            1.0E-12 Ry


ATOMIC_POSITIONS (crystal)
C                0.0471168471        0.0471166015       -0.0000000006
C                0.0946738535        0.0946735012        0.0000000010
C                0.0466617724        0.1901437524        0.0000000025
C                0.0943481798        0.2376156926        0.0000000023
C                0.0467971257        0.3329845461        0.0000000015
C                0.0943903534        0.3805269324       -0.0000000005
C                0.0478131978        0.4758414286       -0.0000000009
C                0.0956456238        0.5232303382        0.0000000001
C                0.0487572847        0.6185464847       -0.0000000011
C                0.0970120860        0.6654865846        0.0000000009
C                0.0491502890        0.7607589741       -0.0000000010
C                0.0977915424        0.8071669103       -0.0000000011
C                0.0486372549        0.9034068177       -0.0000000022
C                0.0956588885        0.9513899284       -0.0000000020
C                0.1901440831        0.0466613871        0.0000000013
C                0.2376159711        0.0943478634        0.0000000025
C                0.1896572343        0.1896569619        0.0000000020
C                0.2371576628        0.2371575685        0.0000000004
C                0.1893063228        0.3324794600       -0.0000000007
C                0.2365852494        0.3799037043        0.0000000014
C                0.1906823668        0.4749685881        0.0000000029
C                0.2390922906        0.5218743985        0.0000000059
C                0.1930692642        0.6165680542        0.0000000043
C                0.2440262052        0.6606381063        0.0000000028
C                0.1942776060        0.7576745464        0.0000000000
C                0.2397533726        0.8072504363       -0.0000000014
C                0.1912032458        0.9030450382       -0.0000000019
C                0.2383116686        0.9511973288       -0.0000000005
C                0.3329847684        0.0467968816        0.0000000025
C                0.3805269907        0.0943903064        0.0000000014
C                0.3324795068        0.1893063120        0.0000000007
C                0.3799036020        0.2365854058        0.0000000005
C                0.3314859893        0.3314861488        0.0000000016
C                0.3781089269        0.3781091282        0.0000000025
C                0.3346692448        0.4725877453        0.0000000063
C1               0.3890497013        0.5112056846        0.0000000066
C                0.3426271772        0.6091279729        0.0000000027
C                0.3838071307        0.6639351675        0.0000000007
C                0.3351271322        0.7593037589       -0.0000000002
C                0.3819359706        0.8084495831       -0.0000000004
C                0.3337146505        0.9036880985        0.0000000005
C                0.3810553883        0.9517304410        0.0000000019
C                0.4758414206        0.0478132900        0.0000000001
C                0.5232301957        0.0956458970       -0.0000000022
C                0.4749684636        0.1906826570       -0.0000000015
C                0.5218742488        0.2390926504       -0.0000000034
C                0.4725875743        0.3346696050       -0.0000000020
C1               0.5112055620        0.3890500567       -0.0000000021
C1               0.5291946096        0.5291943131       -0.0000000012
C                0.4786534933        0.6205169660        0.0000000003
C                0.5257533857        0.6685267075        0.0000000010
C                0.4771623822        0.7629317924        0.0000000008
C                0.5245964284        0.8104513391        0.0000000019
C                0.4764080137        0.9052623942        0.0000000019
C                0.5239622972        0.9528421605        0.0000000009
C                0.6185463034        0.0487576392       -0.0000000039
C                0.6654864045        0.0970124681       -0.0000000051
C                0.6165679218        0.1930696339       -0.0000000044
C                0.6606380923        0.2440264701       -0.0000000023
C                0.6091279946        0.3426273867       -0.0000000011
C                0.6639354469        0.3838070678       -0.0000000020
C                0.6205173018        0.4786533638       -0.0000000021
C                0.6685270135        0.5257532284        0.0000000003
C                0.6206233476        0.6206231628        0.0000000013
C                0.6680273736        0.6680272948        0.0000000022
C                0.6199145569        0.7630501472        0.0000000028
C                0.6673993578        0.8105355774        0.0000000016
C                0.6193342260        0.9056638422       -0.0000000001
C                0.6667344992        0.9533953242       -0.0000000029
C                0.7607587969        0.0491506489       -0.0000000045
C                0.8071668855        0.0977917609       -0.0000000025
C                0.7576746062        0.1942777894       -0.0000000020
C                0.8072507103        0.2397533275       -0.0000000002
C                0.7593040694        0.3351270480       -0.0000000008
C                0.8084499446        0.3819358052        0.0000000011
C                0.7629321004        0.4771622221        0.0000000013
C                0.8104515216        0.5245963458        0.0000000015
C                0.7630502082        0.6199145164        0.0000000015
C                0.8105354427        0.6673994922        0.0000000002
C                0.7627036801        0.7627038660        0.0000000002
C                0.8102160688        0.8102163992       -0.0000000025
C                0.7621004618        0.9056459987       -0.0000000035
C                0.8094184133        0.9533902483       -0.0000000043
C                0.9034068299        0.0486373523       -0.0000000014
C                0.9513901542        0.0956587674       -0.0000000002
C                0.9030453456        0.1912031048        0.0000000010
C                0.9511977189        0.2383114212        0.0000000026
C                0.9036884654        0.3337144228        0.0000000025
C                0.9517307135        0.3810552123        0.0000000020
C                0.9052625515        0.4764078959        0.0000000007
C                0.9528421069        0.5239623408       -0.0000000010
C                0.9056636700        0.6193343373       -0.0000000019
C                0.9533949903        0.6667347410       -0.0000000030
C                0.9056456357        0.7621007481       -0.0000000030
C                0.9533898819        0.8094186907       -0.0000000026
C                0.9050032857        0.9050035663       -0.0000000032
C                0.9525043275        0.9525044491       -0.0000000021



     Writing config-only to output data dir /home/gregb26/links/scratch/qe_tmp/vacancy_relaxed/series/7x7/nspin2/vac_7x7_relax_nspin2.save/ :
     XML data file
     NEW-OLD atomic charge density approx. for the potential

     negative rho (up, down):  2.166E-08 2.517E-08
     Generating pointlists ...

     total cpu time spent up to now is     1435.5 secs

     per-process dynamical memory:   263.2 Mb

     Self-consistent Calculation

     iteration #  1     ecut=   100.00 Ry     beta= 0.30
     Davidson diagonalization with overlap
     ethr =  1.00E-06,  avg # of iterations =  1.0

     Threshold (ethr) on eigenvalues was too large:
     Diagonalizing with lowered threshold

     Davidson diagonalization with overlap
     ethr =  7.22E-11,  avg # of iterations =  7.0

     negative rho (up, down):  3.172E-08 3.463E-08

     total cpu time spent up to now is     1446.9 secs

     total energy              =   -1168.11414103 Ry
     estimated scf accuracy    <       0.00000047 Ry

     total magnetization       =     2.00 Bohr mag/cell
     absolute magnetization    =     2.83 Bohr mag/cell

     iteration #  2     ecut=   100.00 Ry     beta= 0.30
     Davidson diagonalization with overlap
     ethr =  1.20E-10,  avg # of iterations =  2.0

     negative rho (up, down):  1.767E-08 1.962E-08

     total cpu time spent up to now is     1450.4 secs

     total energy              =   -1168.11414104 Ry
     estimated scf accuracy    <       0.00000012 Ry

     total magnetization       =     2.00 Bohr mag/cell
     absolute magnetization    =     2.83 Bohr mag/cell

     iteration #  3     ecut=   100.00 Ry     beta= 0.30
     Davidson diagonalization with overlap
     ethr =  3.06E-11,  avg # of iterations =  2.0

     total cpu time spent up to now is     1453.7 secs

     total energy              =   -1168.11414104 Ry
     estimated scf accuracy    <       0.00000004 Ry

     total magnetization       =     2.00 Bohr mag/cell
     absolute magnetization    =     2.83 Bohr mag/cell

     iteration #  4     ecut=   100.00 Ry     beta= 0.30
     Davidson diagonalization with overlap
     ethr =  9.64E-12,  avg # of iterations =  3.0
     Minimization algorithm failed to find Fermi energy: reverting to bisection
     Possible cause: smearing is larger than the electronic band-gap.

     total cpu time spent up to now is     1457.5 secs

     total energy              =   -1168.11414105 Ry
     estimated scf accuracy    <          6.6E-09 Ry

     total magnetization       =     2.00 Bohr mag/cell
     absolute magnetization    =     2.83 Bohr mag/cell

     iteration #  5     ecut=   100.00 Ry     beta= 0.30
     Davidson diagonalization with overlap
     ethr =  1.70E-12,  avg # of iterations =  3.5
     Minimization algorithm failed to find Fermi energy: reverting to bisection
     Possible cause: smearing is larger than the electronic band-gap.

     total cpu time spent up to now is     1461.4 secs

     total energy              =   -1168.11414105 Ry
     estimated scf accuracy    <          7.9E-10 Ry

     total magnetization       =     2.00 Bohr mag/cell
     absolute magnetization    =     2.83 Bohr mag/cell

     iteration #  6     ecut=   100.00 Ry     beta= 0.30
     Davidson diagonalization with overlap
     ethr =  2.05E-13,  avg # of iterations =  4.0

     total cpu time spent up to now is     1465.8 secs

     total energy              =   -1168.11414105 Ry
     estimated scf accuracy    <          1.9E-10 Ry

     total magnetization       =     2.00 Bohr mag/cell
     absolute magnetization    =     2.83 Bohr mag/cell

     iteration #  7     ecut=   100.00 Ry     beta= 0.30
     Davidson diagonalization with overlap
     ethr =  1.00E-13,  avg # of iterations =  2.0

     total cpu time spent up to now is     1469.3 secs

     total energy              =   -1168.11414105 Ry
     estimated scf accuracy    <          4.6E-11 Ry

     total magnetization       =     2.00 Bohr mag/cell
     absolute magnetization    =     2.83 Bohr mag/cell

     iteration #  8     ecut=   100.00 Ry     beta= 0.30
     Davidson diagonalization with overlap
     ethr =  1.00E-13,  avg # of iterations =  1.0

     total cpu time spent up to now is     1472.4 secs

     total energy              =   -1168.11414105 Ry
     estimated scf accuracy    <          6.0E-12 Ry

     total magnetization       =     2.00 Bohr mag/cell
     absolute magnetization    =     2.83 Bohr mag/cell

     iteration #  9     ecut=   100.00 Ry     beta= 0.30
     Davidson diagonalization with overlap
     ethr =  1.00E-13,  avg # of iterations =  1.0

     total cpu time spent up to now is     1475.5 secs

     total energy              =   -1168.11414105 Ry
     estimated scf accuracy    <          1.4E-12 Ry

     total magnetization       =     2.00 Bohr mag/cell
     absolute magnetization    =     2.83 Bohr mag/cell

     iteration # 10     ecut=   100.00 Ry     beta= 0.30
     Davidson diagonalization with overlap
     ethr =  1.00E-13,  avg # of iterations =  1.0

     Magnetic moment per site  (integrated on atomic sphere of radius R)
     atom   1 (R=0.032)  charge=  1.5210  magn= -0.0017
     atom   2 (R=0.032)  charge=  1.5237  magn=  0.0025
     atom   3 (R=0.032)  charge=  1.5254  magn= -0.0023
     atom   4 (R=0.032)  charge=  1.5253  magn=  0.0042
     atom   5 (R=0.032)  charge=  1.5291  magn= -0.0021
     atom   6 (R=0.032)  charge=  1.5286  magn=  0.0016
     atom   7 (R=0.032)  charge=  1.5284  magn= -0.0021
     atom   8 (R=0.032)  charge=  1.5272  magn=  0.0040
     atom   9 (R=0.032)  charge=  1.5251  magn= -0.0023
     atom  10 (R=0.032)  charge=  1.5212  magn=  0.0073
     atom  11 (R=0.032)  charge=  1.5236  magn= -0.0024
     atom  12 (R=0.032)  charge=  1.5120  magn=  0.0040
     atom  13 (R=0.032)  charge=  1.5148  magn= -0.0022
     atom  14 (R=0.032)  charge=  1.5221  magn=  0.0013
     atom  15 (R=0.032)  charge=  1.5254  magn= -0.0023
     atom  16 (R=0.032)  charge=  1.5253  magn=  0.0042
     atom  17 (R=0.032)  charge=  1.5290  magn= -0.0026
     atom  18 (R=0.032)  charge=  1.5272  magn=  0.0129
     atom  19 (R=0.032)  charge=  1.5323  magn= -0.0036
     atom  20 (R=0.032)  charge=  1.5351  magn=  0.0142
     atom  21 (R=0.032)  charge=  1.5285  magn= -0.0035
     atom  22 (R=0.032)  charge=  1.5251  magn=  0.0058
     atom  23 (R=0.032)  charge=  1.5257  magn= -0.0024
     atom  24 (R=0.032)  charge=  1.4930  magn=  0.0036
     atom  25 (R=0.032)  charge=  1.5067  magn= -0.0045
     atom  26 (R=0.032)  charge=  1.5229  magn=  0.0117
     atom  27 (R=0.032)  charge=  1.5204  magn= -0.0032
     atom  28 (R=0.032)  charge=  1.5231  magn=  0.0102
     atom  29 (R=0.032)  charge=  1.5291  magn= -0.0021
     atom  30 (R=0.032)  charge=  1.5286  magn=  0.0016
     atom  31 (R=0.032)  charge=  1.5323  magn= -0.0036
     atom  32 (R=0.032)  charge=  1.5351  magn=  0.0142
     atom  33 (R=0.032)  charge=  1.5444  magn= -0.0067
     atom  34 (R=0.032)  charge=  1.5515  magn=  0.0400
     atom  35 (R=0.032)  charge=  1.5402  magn= -0.0030
     atom  36 (R=0.032)  charge=  1.4058  magn=  0.0693
     atom  37 (R=0.032)  charge=  1.4727  magn= -0.0109
     atom  38 (R=0.032)  charge=  1.5187  magn=  0.0487
     atom  39 (R=0.032)  charge=  1.5188  magn= -0.0082
     atom  40 (R=0.032)  charge=  1.5209  magn=  0.0144
     atom  41 (R=0.032)  charge=  1.5250  magn= -0.0039
     atom  42 (R=0.032)  charge=  1.5258  magn=  0.0020
     atom  43 (R=0.032)  charge=  1.5284  magn= -0.0021
     atom  44 (R=0.032)  charge=  1.5272  magn=  0.0040
     atom  45 (R=0.032)  charge=  1.5285  magn= -0.0035
     atom  46 (R=0.032)  charge=  1.5251  magn=  0.0058
     atom  47 (R=0.032)  charge=  1.5402  magn= -0.0030
     atom  48 (R=0.032)  charge=  1.4058  magn=  0.0693
     atom  49 (R=0.032)  charge=  1.4997  magn=  0.3532
     atom  50 (R=0.032)  charge=  1.5510  magn= -0.0088
     atom  51 (R=0.032)  charge=  1.5345  magn=  0.0253
     atom  52 (R=0.032)  charge=  1.5350  magn= -0.0016
     atom  53 (R=0.032)  charge=  1.5308  magn=  0.0052
     atom  54 (R=0.032)  charge=  1.5290  magn= -0.0020
     atom  55 (R=0.032)  charge=  1.5290  magn=  0.0051
     atom  56 (R=0.032)  charge=  1.5251  magn= -0.0023
     atom  57 (R=0.032)  charge=  1.5212  magn=  0.0073
     atom  58 (R=0.032)  charge=  1.5257  magn= -0.0024
     atom  59 (R=0.032)  charge=  1.4930  magn=  0.0036
     atom  60 (R=0.032)  charge=  1.4727  magn= -0.0109
     atom  61 (R=0.032)  charge=  1.5187  magn=  0.0487
     atom  62 (R=0.032)  charge=  1.5510  magn= -0.0088
     atom  63 (R=0.032)  charge=  1.5345  magn=  0.0253
     atom  64 (R=0.032)  charge=  1.5372  magn= -0.0087
     atom  65 (R=0.032)  charge=  1.5316  magn=  0.0086
     atom  66 (R=0.032)  charge=  1.5302  magn= -0.0034
     atom  67 (R=0.032)  charge=  1.5294  magn=  0.0021
     atom  68 (R=0.032)  charge=  1.5267  magn= -0.0020
     atom  69 (R=0.032)  charge=  1.5273  magn=  0.0017
     atom  70 (R=0.032)  charge=  1.5236  magn= -0.0024
     atom  71 (R=0.032)  charge=  1.5120  magn=  0.0040
     atom  72 (R=0.032)  charge=  1.5067  magn= -0.0045
     atom  73 (R=0.032)  charge=  1.5229  magn=  0.0117
     atom  74 (R=0.032)  charge=  1.5188  magn= -0.0082
     atom  75 (R=0.032)  charge=  1.5209  magn=  0.0144
     atom  76 (R=0.032)  charge=  1.5350  magn= -0.0016
     atom  77 (R=0.032)  charge=  1.5308  magn=  0.0052
     atom  78 (R=0.032)  charge=  1.5302  magn= -0.0034
     atom  79 (R=0.032)  charge=  1.5294  magn=  0.0021
     atom  80 (R=0.032)  charge=  1.5272  magn= -0.0019
     atom  81 (R=0.032)  charge=  1.5272  magn=  0.0038
     atom  82 (R=0.032)  charge=  1.5251  magn= -0.0016
     atom  83 (R=0.032)  charge=  1.5226  magn=  0.0017
     atom  84 (R=0.032)  charge=  1.5148  magn= -0.0022
     atom  85 (R=0.032)  charge=  1.5221  magn=  0.0013
     atom  86 (R=0.032)  charge=  1.5204  magn= -0.0032
     atom  87 (R=0.032)  charge=  1.5231  magn=  0.0102
     atom  88 (R=0.032)  charge=  1.5250  magn= -0.0039
     atom  89 (R=0.032)  charge=  1.5258  magn=  0.0020
     atom  90 (R=0.032)  charge=  1.5290  magn= -0.0020
     atom  91 (R=0.032)  charge=  1.5290  magn=  0.0051
     atom  92 (R=0.032)  charge=  1.5267  magn= -0.0020
     atom  93 (R=0.032)  charge=  1.5273  magn=  0.0017
     atom  94 (R=0.032)  charge=  1.5251  magn= -0.0016
     atom  95 (R=0.032)  charge=  1.5226  magn=  0.0017
     atom  96 (R=0.032)  charge=  1.5227  magn= -0.0018
     atom  97 (R=0.032)  charge=  1.5156  magn=  0.0044

     total cpu time spent up to now is     1478.5 secs

     End of self-consistent calculation

 ------ SPIN UP ------------


          k = 0.0000 0.0000 0.0000 (233409 PWs)   bands (ev):

   -23.7934 -23.4085 -23.3516 -23.3272 -23.3062 -23.2669 -23.1474 -22.4229
   -22.3916 -22.3849 -22.3779 -22.3077 -22.2096 -21.9413 -21.9288 -21.9091
   -21.8746 -21.8343 -21.5837 -20.5506 -20.5488 -20.5368 -20.5355 -20.5273
   -20.5086 -20.5077 -20.5027 -20.4801 -20.4682 -20.3761 -20.0592 -19.6560
   -19.6351 -19.6081 -19.5646 -19.5528 -19.2009 -18.3649 -18.3495 -18.3409
   -18.3346 -18.2844 -18.2814 -18.2718 -18.2622 -18.2448 -18.2159 -18.1774
   -17.6331 -17.2445 -17.2433 -17.2340 -17.1744 -17.0847 -16.8170 -16.3329
   -16.3287 -16.3052 -16.2254 -16.1870 -16.1004 -15.8241 -15.8081 -15.7949
   -15.7101 -15.6945 -15.0811 -14.4368 -14.4265 -14.4043 -14.3977 -14.3825
   -14.3809 -14.3670 -14.3478 -14.3351 -14.3081 -14.2733 -14.1881 -14.1879
   -14.1437 -14.1334 -13.8794 -13.7611 -13.1732 -12.7121 -12.6998 -12.6469
   -12.5775 -12.5342 -12.2818 -12.1423 -12.1380 -12.1178 -11.9878 -11.9613
   -11.8800 -11.8663 -11.6707 -11.6454 -11.6233 -11.6127 -11.5988 -11.5934
   -11.5839 -11.5373 -11.5335 -11.4416 -11.3896 -11.3555 -11.3448 -11.3268
   -11.3263 -11.3072 -11.2780 -11.2064 -11.1774 -11.1678 -11.1393 -10.9939
   -10.9093 -10.6434 -10.5957 -10.5677 -10.5571 -10.3333 -10.3156 -10.2439
   -10.2129 -10.2082 -10.2074 -10.1508 -10.1114 -10.0381  -9.9856  -9.9632
    -9.9567  -9.8715  -9.8271  -9.7280  -9.7154  -9.6954  -9.6949  -9.6776
    -9.6738  -9.6364  -9.6321  -9.6206  -9.6108  -9.3744  -9.2986  -9.2972
    -9.1100  -9.1005  -9.0742  -8.5724  -8.5379  -8.3283  -8.2604  -8.2252
    -8.2050  -8.1850  -8.1457  -8.1321  -8.1297  -8.1129  -8.1116  -8.0990
    -8.0987  -8.0868  -8.0674  -8.0617  -8.0216  -7.7128  -7.4835  -7.4702
    -7.3315  -7.3027  -7.3020  -7.2798  -7.2417  -6.9021  -6.2170  -6.2143
    -6.1963  -6.1757  -6.1680  -6.0061  -5.8049  -5.8015  -5.7933  -5.7923
    -5.7260  -5.1029  -4.8711  -2.8936  -2.8334  -2.8168  -2.7907  -2.7848
    -2.7742  -2.7546  -2.7544  -2.7470  -2.7320  -2.7002  -2.6354  -2.1962
    -1.7947  -1.7654  -1.7506  -1.7175  -1.6570  -1.2092  -0.9772  -0.3601
    -0.3578  -0.3281  -0.3074  -0.2993  -0.2934  -0.2877  -0.2693  -0.2621

 ------ SPIN DOWN ----------


          k = 0.0000 0.0000 0.0000 (233409 PWs)   bands (ev):

   -23.7791 -23.3780 -23.3452 -23.3205 -23.2990 -23.2523 -23.0930 -22.3837
   -22.3760 -22.3712 -22.3632 -22.2972 -22.1872 -21.9135 -21.9129 -21.8891
   -21.8564 -21.8155 -21.5151 -20.5424 -20.5387 -20.5152 -20.5089 -20.5002
   -20.4933 -20.4921 -20.4800 -20.4614 -20.4365 -20.3520 -20.0192 -19.6277
   -19.6187 -19.5935 -19.5322 -19.5251 -19.1454 -18.3478 -18.3334 -18.3288
   -18.3257 -18.2774 -18.2712 -18.2501 -18.2425 -18.2149 -18.2036 -18.0941
   -17.5315 -17.2338 -17.2315 -17.2238 -17.1384 -17.0688 -16.7615 -16.3124
   -16.3105 -16.2912 -16.1946 -16.1680 -16.0824 -15.8078 -15.7927 -15.7860
   -15.6819 -15.6136 -15.0128 -14.4146 -14.4013 -14.3903 -14.3847 -14.3740
   -14.3678 -14.3478 -14.3300 -14.3179 -14.2894 -14.2352 -14.1798 -14.1788
   -14.1383 -14.1165 -13.8025 -13.7312 -13.0914 -12.6912 -12.6723 -12.6338
   -12.5616 -12.4954 -12.2524 -12.1285 -12.1241 -12.0950 -11.9814 -11.9469
   -11.8579 -11.8290 -11.6468 -11.6351 -11.6151 -11.6030 -11.5851 -11.5750
   -11.5639 -11.5233 -11.5219 -11.4139 -11.3502 -11.3335 -11.3333 -11.3133
   -11.3002 -11.2969 -11.2504 -11.1891 -11.1652 -11.1510 -11.0642 -10.9838
   -10.8639 -10.6357 -10.5757 -10.5630 -10.5397 -10.2998 -10.2894 -10.1939
   -10.1931 -10.1850 -10.1820 -10.1280 -10.0646 -10.0015  -9.9654  -9.9497
    -9.9442  -9.8668  -9.8166  -9.7037  -9.6821  -9.6699  -9.6555  -9.6552
    -9.6388  -9.6216  -9.6089  -9.5867  -9.5122  -9.2811  -9.2660  -9.2596
    -9.1018  -9.0860  -9.0615  -8.5542  -8.5003  -8.2447  -8.2261  -8.2163
    -8.1726  -8.1120  -8.1066  -8.0899  -8.0862  -8.0751  -8.0714  -8.0666
    -8.0603  -8.0468  -8.0202  -8.0142  -7.9788  -7.6617  -7.4710  -7.4171
    -7.2951  -7.2890  -7.2724  -7.2339  -7.1919  -6.8272  -6.1909  -6.1873
    -6.1738  -6.1409  -6.1152  -5.9659  -5.7827  -5.7825  -5.7499  -5.6955
    -5.6801  -4.5140  -2.8944  -2.8229  -2.7955  -2.7763  -2.7651  -2.7564
    -2.7371  -2.7343  -2.7220  -2.7162  -2.6087  -2.5472  -2.5393  -2.1520
    -1.7755  -1.7521  -1.7080  -1.6326  -1.6060  -1.1365  -0.9697  -0.3447
    -0.3407  -0.3030  -0.2822  -0.2729  -0.2623  -0.2611  -0.2317  -0.2278

     the Fermi energy is    -4.7488 ev

!    total energy              =   -1168.11414105 Ry
     estimated scf accuracy    <          7.1E-13 Ry
     smearing contrib. (-TS)   =       0.00091872 Ry
     internal energy E=F+TS    =   -1168.11505977 Ry

     The total energy is F=E-TS. E is the sum of the following terms:
     one-electron contribution =  -13175.39000532 Ry
     hartree contribution      =    6623.91250766 Ry
     xc contribution           =    -415.41147074 Ry
     ewald contribution        =    5798.77390864 Ry

     total magnetization       =     2.00 Bohr mag/cell
     absolute magnetization    =     2.83 Bohr mag/cell

     convergence has been achieved in  10 iterations

     Forces acting on atoms (cartesian axes, Ry/au):

     atom    1 type  1   force =     0.00009301    0.00000025    0.00000000
     atom    2 type  1   force =    -0.00001687    0.00000053   -0.00000000
     atom    3 type  1   force =    -0.00003539   -0.00005355    0.00000000
     atom    4 type  1   force =    -0.00004569   -0.00008784    0.00000000
     atom    5 type  1   force =    -0.00001418   -0.00008191    0.00000000
     atom    6 type  1   force =    -0.00009228   -0.00005963   -0.00000000
     atom    7 type  1   force =    -0.00008023   -0.00004885    0.00000000
     atom    8 type  1   force =     0.00007845    0.00003778    0.00000000
     atom    9 type  1   force =    -0.00012101    0.00003048    0.00000000
     atom   10 type  1   force =     0.00001878    0.00004971    0.00000000
     atom   11 type  1   force =    -0.00002539    0.00011555   -0.00000000
     atom   12 type  1   force =    -0.00000091   -0.00006237    0.00000000
     atom   13 type  1   force =    -0.00003041    0.00002358    0.00000000
     atom   14 type  1   force =     0.00001278   -0.00004861   -0.00000000
     atom   15 type  1   force =    -0.00003529    0.00005426    0.00000000
     atom   16 type  1   force =    -0.00004559    0.00008872    0.00000000
     atom   17 type  1   force =    -0.00005082    0.00000023   -0.00000000
     atom   18 type  1   force =    -0.00016812    0.00000012    0.00000000
     atom   19 type  1   force =    -0.00001568   -0.00007629    0.00000001
     atom   20 type  1   force =    -0.00013674    0.00005064    0.00000000
     atom   21 type  1   force =    -0.00003648   -0.00006808   -0.00000001
     atom   22 type  1   force =    -0.00005125    0.00009083   -0.00000001
     atom   23 type  1   force =    -0.00001875   -0.00001491   -0.00000001
     atom   24 type  1   force =     0.00001085    0.00004517    0.00000000
     atom   25 type  1   force =    -0.00005078   -0.00001681    0.00000000
     atom   26 type  1   force =     0.00003563    0.00000528    0.00000000
     atom   27 type  1   force =     0.00004551    0.00010453    0.00000000
     atom   28 type  1   force =    -0.00005948   -0.00002362    0.00000000
     atom   29 type  1   force =    -0.00001424    0.00008237   -0.00000000
     atom   30 type  1   force =    -0.00009218    0.00005984    0.00000000
     atom   31 type  1   force =    -0.00001578    0.00007624   -0.00000000
     atom   32 type  1   force =    -0.00013679   -0.00005098   -0.00000001
     atom   33 type  1   force =    -0.00008122   -0.00000016    0.00000001
     atom   34 type  1   force =    -0.00009053   -0.00000017   -0.00000000
     atom   35 type  1   force =    -0.00011843   -0.00002972    0.00000000
     atom   36 type  2   force =    -0.00004542    0.00019275   -0.00000002
     atom   37 type  1   force =     0.00003692   -0.00001363    0.00000000
     atom   38 type  1   force =     0.00007223    0.00014649    0.00000000
     atom   39 type  1   force =     0.00008709    0.00006555   -0.00000001
     atom   40 type  1   force =     0.00004013   -0.00003654    0.00000000
     atom   41 type  1   force =     0.00000941    0.00012018   -0.00000000
     atom   42 type  1   force =     0.00003809    0.00005945    0.00000000
     atom   43 type  1   force =    -0.00008049    0.00004864    0.00000000
     atom   44 type  1   force =     0.00007832   -0.00003821   -0.00000000
     atom   45 type  1   force =    -0.00003675    0.00006767   -0.00000000
     atom   46 type  1   force =    -0.00005149   -0.00009138    0.00000000
     atom   47 type  1   force =    -0.00011864    0.00002935   -0.00000000
     atom   48 type  2   force =    -0.00004556   -0.00019315   -0.00000000
     atom   49 type  2   force =     0.00020652   -0.00000032   -0.00000000
     atom   50 type  1   force =     0.00005045   -0.00008820   -0.00000000
     atom   51 type  1   force =     0.00005549   -0.00003474   -0.00000000
     atom   52 type  1   force =     0.00006695    0.00002386    0.00000000
     atom   53 type  1   force =     0.00002447   -0.00006589    0.00000000
     atom   54 type  1   force =    -0.00003139    0.00006180    0.00000000
     atom   55 type  1   force =    -0.00003384   -0.00000274   -0.00000000
     atom   56 type  1   force =    -0.00012139   -0.00003110    0.00000000
     atom   57 type  1   force =     0.00001842   -0.00005028    0.00000000
     atom   58 type  1   force =    -0.00001922    0.00001445    0.00000000
     atom   59 type  1   force =     0.00001047   -0.00004542   -0.00000000
     atom   60 type  1   force =     0.00003649    0.00001352   -0.00000000
     atom   61 type  1   force =     0.00007201   -0.00014624    0.00000000
     atom   62 type  1   force =     0.00004998    0.00008917    0.00000001
     atom   63 type  1   force =     0.00005517    0.00003477   -0.00000000
     atom   64 type  1   force =     0.00019694    0.00000042    0.00000000
     atom   65 type  1   force =     0.00012877    0.00000000    0.00000000
     atom   66 type  1   force =     0.00009682    0.00000239   -0.00000001
     atom   67 type  1   force =     0.00006012   -0.00003727   -0.00000000
     atom   68 type  1   force =     0.00000712    0.00001100    0.00000000
     atom   69 type  1   force =     0.00007789    0.00000694    0.00000000
     atom   70 type  1   force =    -0.00002579   -0.00011613    0.00000000
     atom   71 type  1   force =    -0.00000131    0.00006213   -0.00000000
     atom   72 type  1   force =    -0.00005133    0.00001667    0.00000000
     atom   73 type  1   force =     0.00003526   -0.00000493   -0.00000000
     atom   74 type  1   force =     0.00008662   -0.00006528    0.00000000
     atom   75 type  1   force =     0.00003981    0.00003712   -0.00000000
     atom   76 type  1   force =     0.00006670   -0.00002331   -0.00000000
     atom   77 type  1   force =     0.00002433    0.00006604   -0.00000000
     atom   78 type  1   force =     0.00009682   -0.00000210   -0.00000000
     atom   79 type  1   force =     0.00006006    0.00003685   -0.00000000
     atom   80 type  1   force =     0.00013962   -0.00000015   -0.00000001
     atom   81 type  1   force =     0.00004960   -0.00000045    0.00000000
     atom   82 type  1   force =    -0.00007421   -0.00009280    0.00000000
     atom   83 type  1   force =    -0.00001729    0.00002963    0.00000000
     atom   84 type  1   force =    -0.00003070   -0.00002365   -0.00000000
     atom   85 type  1   force =     0.00001254    0.00004906   -0.00000000
     atom   86 type  1   force =     0.00004508   -0.00010409   -0.00000000
     atom   87 type  1   force =    -0.00005973    0.00002442   -0.00000000
     atom   88 type  1   force =     0.00000911   -0.00011959    0.00000000
     atom   89 type  1   force =     0.00003787   -0.00005885    0.00000000
     atom   90 type  1   force =    -0.00003135   -0.00006147    0.00000000
     atom   91 type  1   force =    -0.00003390    0.00000267    0.00000000
     atom   92 type  1   force =     0.00000735   -0.00001131    0.00000000
     atom   93 type  1   force =     0.00007799   -0.00000760    0.00000000
     atom   94 type  1   force =    -0.00007400    0.00009205    0.00000001
     atom   95 type  1   force =    -0.00001710   -0.00003041   -0.00000000
     atom   96 type  1   force =     0.00004248   -0.00000032    0.00000000
     atom   97 type  1   force =    -0.00002111   -0.00000012   -0.00000000

     Total force =     0.000927     Total SCF correction =     0.000001
     Energy error            =      1.4E-06 Ry
     Gradient error          =      2.1E-04 Ry/Bohr

     number of scf cycles    =  20
     number of bfgs steps    =  19

     energy             old  =   -1168.1141396661 Ry
     energy             new  =   -1168.1141410494 Ry

     CASE: energy            _new < energy            _old

     new trust radius        =       0.0004957720 bohr
     new conv_thr            =            1.0E-12 Ry


ATOMIC_POSITIONS (crystal)
C                0.0471176548        0.0471174558       -0.0000000005
C                0.0946720594        0.0946717872        0.0000000009
C                0.0466623916        0.1901360470        0.0000000025
C                0.0943479035        0.2376061313        0.0000000024
C                0.0468010639        0.3329735108        0.0000000015
C                0.0943874561        0.3805194607       -0.0000000004
C                0.0478128019        0.4758369110       -0.0000000009
C                0.0956469995        0.5232287863        0.0000000004
C                0.0487562268        0.6185448634       -0.0000000010
C                0.0970146432        0.6654848931        0.0000000009
C                0.0491496024        0.7607607985       -0.0000000010
C                0.0977961014        0.8071631860       -0.0000000010
C                0.0486363418        0.9034048126       -0.0000000023
C                0.0956583938        0.9513895008       -0.0000000021
C                0.1901363124        0.0466620816        0.0000000012
C                0.2376063484        0.0943476564        0.0000000026
C                0.1896507097        0.1896504858        0.0000000018
C                0.2371489494        0.2371488709        0.0000000006
C                0.1893020091        0.3324707215       -0.0000000001
C                0.2365779187        0.3798947565        0.0000000015
C                0.1906830500        0.4749597928        0.0000000024
C                0.2390870817        0.5218691982        0.0000000054
C                0.1930752136        0.6165613347        0.0000000039
C                0.2440318663        0.6606326728        0.0000000027
C                0.1942836458        0.7576684931        0.0000000001
C                0.2397590187        0.8072489934       -0.0000000012
C                0.1912006687        0.9030462092       -0.0000000017
C                0.2383061018        0.9511990319       -0.0000000004
C                0.3329736903        0.0468008617        0.0000000024
C                0.3805195098        0.0943874204        0.0000000014
C                0.3324707669        0.1893019942        0.0000000007
C                0.3798946790        0.2365780459       -0.0000000002
C                0.3314803853        0.3314805159        0.0000000018
C                0.3781033883        0.3781035594        0.0000000025
C                0.3346646126        0.4725816941        0.0000000065
C1               0.3890417734        0.5112036866        0.0000000064
C                0.3426335578        0.6091252963        0.0000000030
C                0.3838148894        0.6639368353        0.0000000008
C                0.3351332301        0.7593051768       -0.0000000003
C                0.3819391243        0.8084520554       -0.0000000003
C                0.3337075254        0.9036937806        0.0000000005
C                0.3810487149        0.9517379021        0.0000000019
C                0.4758369082        0.0478128718        0.0000000002
C                0.5232286730        0.0956472268       -0.0000000022
C                0.4749596951        0.1906832909       -0.0000000017
C                0.5218690764        0.2390873867       -0.0000000034
C                0.4725815511        0.3346649247       -0.0000000020
C1               0.5112035855        0.3890420834       -0.0000000025
C1               0.5292019113        0.5292016211       -0.0000000012
C                0.4786663381        0.6205193098        0.0000000001
C                0.5257628774        0.6685314865        0.0000000008
C                0.4771653965        0.7629354242        0.0000000008
C                0.5245982558        0.8104554010        0.0000000020
C                0.4764027529        0.9052666405        0.0000000019
C                0.5239654883        0.9528407699        0.0000000008
C                0.6185447176        0.0487565122       -0.0000000038
C                0.6654847432        0.0970149590       -0.0000000049
C                0.6165612238        0.1930755221       -0.0000000044
C                0.6606326595        0.2440320896       -0.0000000024
C                0.6091253118        0.3426337368       -0.0000000012
C                0.6639370792        0.3838148339       -0.0000000018
C                0.6205195784        0.4786662402       -0.0000000017
C                0.6685317565        0.5257627319        0.0000000003
C                0.6206320994        0.6206319613        0.0000000015
C                0.6680355711        0.6680354996        0.0000000023
C                0.6199173735        0.7630592870        0.0000000025
C                0.6674062552        0.8105412715        0.0000000015
C                0.6193390787        0.9056663031       -0.0000000000
C                0.6667386725        0.9533976405       -0.0000000027
C                0.7607606498        0.0491498901       -0.0000000042
C                0.8071631573        0.0977962787       -0.0000000027
C                0.7576685369        0.1942837930       -0.0000000019
C                0.8072492178        0.2397589799       -0.0000000001
C                0.7593054395        0.3351331514       -0.0000000007
C                0.8084523523        0.3819389903        0.0000000010
C                0.7629356783        0.4771652675        0.0000000011
C                0.8104555540        0.5245981868        0.0000000013
C                0.7630593305        0.6199173494        0.0000000015
C                0.8105411654        0.6674063585       -0.0000000001
C                0.7627097419        0.7627098945       -0.0000000000
C                0.8102196550        0.8102199157       -0.0000000023
C                0.7621041854        0.9056444301       -0.0000000034
C                0.8094187223        0.9533910363       -0.0000000042
C                0.9034048141        0.0486364192       -0.0000000017
C                0.9513896787        0.0956582926       -0.0000000002
C                0.9030464591        0.1912005451        0.0000000009
C                0.9511993409        0.2383059064        0.0000000023
C                0.9036940824        0.3337073384        0.0000000024
C                0.9517381187        0.3810485770        0.0000000020
C                0.9052667713        0.4764026617        0.0000000007
C                0.9528407246        0.5239655242       -0.0000000009
C                0.9056661660        0.6193391726       -0.0000000016
C                0.9533973712        0.6667388667       -0.0000000027
C                0.9056441420        0.7621044181       -0.0000000027
C                0.9533907454        0.8094189468       -0.0000000028
C                0.9050030013        0.9050032271       -0.0000000032
C                0.9525017100        0.9525018116       -0.0000000022



     Writing config-only to output data dir /home/gregb26/links/scratch/qe_tmp/vacancy_relaxed/series/7x7/nspin2/vac_7x7_relax_nspin2.save/ :
     XML data file
     NEW-OLD atomic charge density approx. for the potential

     negative rho (up, down):  3.302E-08 3.472E-08
     Generating pointlists ...

     total cpu time spent up to now is     1481.1 secs

     per-process dynamical memory:   263.2 Mb

     Self-consistent Calculation

     iteration #  1     ecut=   100.00 Ry     beta= 0.30
     Davidson diagonalization with overlap
     ethr =  1.00E-06,  avg # of iterations =  2.0

     Threshold (ethr) on eigenvalues was too large:
     Diagonalizing with lowered threshold

     Davidson diagonalization with overlap
     ethr =  1.06E-10,  avg # of iterations =  7.0

     negative rho (up, down):  2.291E-08 2.246E-08

     total cpu time spent up to now is     1492.8 secs

     total energy              =   -1168.11414191 Ry
     estimated scf accuracy    <       0.00000063 Ry

     total magnetization       =     2.00 Bohr mag/cell
     absolute magnetization    =     2.83 Bohr mag/cell

     iteration #  2     ecut=   100.00 Ry     beta= 0.30
     Davidson diagonalization with overlap
     ethr =  1.62E-10,  avg # of iterations =  1.5

     negative rho (up, down):  1.133E-08 1.124E-08

     total cpu time spent up to now is     1496.1 secs

     total energy              =   -1168.11414192 Ry
     estimated scf accuracy    <       0.00000020 Ry

     total magnetization       =     2.00 Bohr mag/cell
     absolute magnetization    =     2.83 Bohr mag/cell

     iteration #  3     ecut=   100.00 Ry     beta= 0.30
     Davidson diagonalization with overlap
     ethr =  5.07E-11,  avg # of iterations =  1.5

     total cpu time spent up to now is     1499.4 secs

     total energy              =   -1168.11414192 Ry
     estimated scf accuracy    <       0.00000006 Ry

     total magnetization       =     2.00 Bohr mag/cell
     absolute magnetization    =     2.83 Bohr mag/cell

     iteration #  4     ecut=   100.00 Ry     beta= 0.30
     Davidson diagonalization with overlap
     ethr =  1.56E-11,  avg # of iterations =  3.0

     total cpu time spent up to now is     1503.0 secs

     total energy              =   -1168.11414193 Ry
     estimated scf accuracy    <          6.5E-09 Ry

     total magnetization       =     2.00 Bohr mag/cell
     absolute magnetization    =     2.83 Bohr mag/cell

     iteration #  5     ecut=   100.00 Ry     beta= 0.30
     Davidson diagonalization with overlap
     ethr =  1.67E-12,  avg # of iterations =  4.5

     total cpu time spent up to now is     1507.4 secs

     total energy              =   -1168.11414193 Ry
     estimated scf accuracy    <          1.3E-09 Ry

     total magnetization       =     2.00 Bohr mag/cell
     absolute magnetization    =     2.83 Bohr mag/cell

     iteration #  6     ecut=   100.00 Ry     beta= 0.30
     Davidson diagonalization with overlap
     ethr =  3.35E-13,  avg # of iterations =  3.0

     total cpu time spent up to now is     1511.4 secs

     total energy              =   -1168.11414193 Ry
     estimated scf accuracy    <          2.7E-10 Ry

     total magnetization       =     2.00 Bohr mag/cell
     absolute magnetization    =     2.83 Bohr mag/cell

     iteration #  7     ecut=   100.00 Ry     beta= 0.30
     Davidson diagonalization with overlap
     ethr =  1.00E-13,  avg # of iterations =  2.0

     total cpu time spent up to now is     1514.8 secs

     total energy              =   -1168.11414193 Ry
     estimated scf accuracy    <          6.2E-11 Ry

     total magnetization       =     2.00 Bohr mag/cell
     absolute magnetization    =     2.83 Bohr mag/cell

     iteration #  8     ecut=   100.00 Ry     beta= 0.30
     Davidson diagonalization with overlap
     ethr =  1.00E-13,  avg # of iterations =  2.0

     total cpu time spent up to now is     1518.0 secs

     total energy              =   -1168.11414193 Ry
     estimated scf accuracy    <          7.3E-12 Ry

     total magnetization       =     2.00 Bohr mag/cell
     absolute magnetization    =     2.83 Bohr mag/cell

     iteration #  9     ecut=   100.00 Ry     beta= 0.30
     Davidson diagonalization with overlap
     ethr =  1.00E-13,  avg # of iterations =  1.0

     total cpu time spent up to now is     1521.1 secs

     total energy              =   -1168.11414193 Ry
     estimated scf accuracy    <          2.2E-12 Ry

     total magnetization       =     2.00 Bohr mag/cell
     absolute magnetization    =     2.84 Bohr mag/cell

     iteration # 10     ecut=   100.00 Ry     beta= 0.30
     Davidson diagonalization with overlap
     ethr =  1.00E-13,  avg # of iterations =  1.0

     total cpu time spent up to now is     1524.1 secs

     total energy              =   -1168.11414193 Ry
     estimated scf accuracy    <          1.0E-12 Ry

     total magnetization       =     2.00 Bohr mag/cell
     absolute magnetization    =     2.84 Bohr mag/cell

     iteration # 11     ecut=   100.00 Ry     beta= 0.30
     Davidson diagonalization with overlap
     ethr =  1.00E-13,  avg # of iterations =  1.0

     Magnetic moment per site  (integrated on atomic sphere of radius R)
     atom   1 (R=0.032)  charge=  1.5211  magn= -0.0017
     atom   2 (R=0.032)  charge=  1.5238  magn=  0.0025
     atom   3 (R=0.032)  charge=  1.5254  magn= -0.0023
     atom   4 (R=0.032)  charge=  1.5253  magn=  0.0042
     atom   5 (R=0.032)  charge=  1.5291  magn= -0.0021
     atom   6 (R=0.032)  charge=  1.5287  magn=  0.0016
     atom   7 (R=0.032)  charge=  1.5284  magn= -0.0021
     atom   8 (R=0.032)  charge=  1.5272  magn=  0.0040
     atom   9 (R=0.032)  charge=  1.5251  magn= -0.0023
     atom  10 (R=0.032)  charge=  1.5212  magn=  0.0073
     atom  11 (R=0.032)  charge=  1.5236  magn= -0.0024
     atom  12 (R=0.032)  charge=  1.5120  magn=  0.0040
     atom  13 (R=0.032)  charge=  1.5148  magn= -0.0022
     atom  14 (R=0.032)  charge=  1.5221  magn=  0.0013
     atom  15 (R=0.032)  charge=  1.5254  magn= -0.0023
     atom  16 (R=0.032)  charge=  1.5253  magn=  0.0042
     atom  17 (R=0.032)  charge=  1.5291  magn= -0.0026
     atom  18 (R=0.032)  charge=  1.5272  magn=  0.0129
     atom  19 (R=0.032)  charge=  1.5324  magn= -0.0036
     atom  20 (R=0.032)  charge=  1.5351  magn=  0.0142
     atom  21 (R=0.032)  charge=  1.5285  magn= -0.0035
     atom  22 (R=0.032)  charge=  1.5251  magn=  0.0058
     atom  23 (R=0.032)  charge=  1.5256  magn= -0.0024
     atom  24 (R=0.032)  charge=  1.4930  magn=  0.0036
     atom  25 (R=0.032)  charge=  1.5067  magn= -0.0045
     atom  26 (R=0.032)  charge=  1.5228  magn=  0.0117
     atom  27 (R=0.032)  charge=  1.5204  magn= -0.0032
     atom  28 (R=0.032)  charge=  1.5232  magn=  0.0102
     atom  29 (R=0.032)  charge=  1.5291  magn= -0.0021
     atom  30 (R=0.032)  charge=  1.5287  magn=  0.0016
     atom  31 (R=0.032)  charge=  1.5324  magn= -0.0036
     atom  32 (R=0.032)  charge=  1.5351  magn=  0.0142
     atom  33 (R=0.032)  charge=  1.5444  magn= -0.0067
     atom  34 (R=0.032)  charge=  1.5515  magn=  0.0400
     atom  35 (R=0.032)  charge=  1.5402  magn= -0.0030
     atom  36 (R=0.032)  charge=  1.4058  magn=  0.0693
     atom  37 (R=0.032)  charge=  1.4726  magn= -0.0110
     atom  38 (R=0.032)  charge=  1.5186  magn=  0.0487
     atom  39 (R=0.032)  charge=  1.5188  magn= -0.0082
     atom  40 (R=0.032)  charge=  1.5209  magn=  0.0144
     atom  41 (R=0.032)  charge=  1.5250  magn= -0.0039
     atom  42 (R=0.032)  charge=  1.5258  magn=  0.0020
     atom  43 (R=0.032)  charge=  1.5284  magn= -0.0021
     atom  44 (R=0.032)  charge=  1.5272  magn=  0.0040
     atom  45 (R=0.032)  charge=  1.5285  magn= -0.0035
     atom  46 (R=0.032)  charge=  1.5251  magn=  0.0058
     atom  47 (R=0.032)  charge=  1.5402  magn= -0.0030
     atom  48 (R=0.032)  charge=  1.4058  magn=  0.0693
     atom  49 (R=0.032)  charge=  1.4997  magn=  0.3532
     atom  50 (R=0.032)  charge=  1.5510  magn= -0.0087
     atom  51 (R=0.032)  charge=  1.5345  magn=  0.0253
     atom  52 (R=0.032)  charge=  1.5350  magn= -0.0016
     atom  53 (R=0.032)  charge=  1.5307  magn=  0.0052
     atom  54 (R=0.032)  charge=  1.5290  magn= -0.0020
     atom  55 (R=0.032)  charge=  1.5290  magn=  0.0051
     atom  56 (R=0.032)  charge=  1.5251  magn= -0.0023
     atom  57 (R=0.032)  charge=  1.5212  magn=  0.0073
     atom  58 (R=0.032)  charge=  1.5256  magn= -0.0024
     atom  59 (R=0.032)  charge=  1.4930  magn=  0.0036
     atom  60 (R=0.032)  charge=  1.4726  magn= -0.0110
     atom  61 (R=0.032)  charge=  1.5186  magn=  0.0487
     atom  62 (R=0.032)  charge=  1.5510  magn= -0.0087
     atom  63 (R=0.032)  charge=  1.5345  magn=  0.0253
     atom  64 (R=0.032)  charge=  1.5372  magn= -0.0087
     atom  65 (R=0.032)  charge=  1.5316  magn=  0.0086
     atom  66 (R=0.032)  charge=  1.5302  magn= -0.0034
     atom  67 (R=0.032)  charge=  1.5294  magn=  0.0021
     atom  68 (R=0.032)  charge=  1.5268  magn= -0.0020
     atom  69 (R=0.032)  charge=  1.5274  magn=  0.0017
     atom  70 (R=0.032)  charge=  1.5236  magn= -0.0024
     atom  71 (R=0.032)  charge=  1.5120  magn=  0.0040
     atom  72 (R=0.032)  charge=  1.5067  magn= -0.0045
     atom  73 (R=0.032)  charge=  1.5228  magn=  0.0117
     atom  74 (R=0.032)  charge=  1.5188  magn= -0.0082
     atom  75 (R=0.032)  charge=  1.5209  magn=  0.0144
     atom  76 (R=0.032)  charge=  1.5350  magn= -0.0016
     atom  77 (R=0.032)  charge=  1.5307  magn=  0.0052
     atom  78 (R=0.032)  charge=  1.5302  magn= -0.0034
     atom  79 (R=0.032)  charge=  1.5294  magn=  0.0021
     atom  80 (R=0.032)  charge=  1.5272  magn= -0.0019
     atom  81 (R=0.032)  charge=  1.5273  magn=  0.0038
     atom  82 (R=0.032)  charge=  1.5251  magn= -0.0016
     atom  83 (R=0.032)  charge=  1.5226  magn=  0.0017
     atom  84 (R=0.032)  charge=  1.5148  magn= -0.0022
     atom  85 (R=0.032)  charge=  1.5221  magn=  0.0013
     atom  86 (R=0.032)  charge=  1.5204  magn= -0.0032
     atom  87 (R=0.032)  charge=  1.5232  magn=  0.0102
     atom  88 (R=0.032)  charge=  1.5250  magn= -0.0039
     atom  89 (R=0.032)  charge=  1.5258  magn=  0.0020
     atom  90 (R=0.032)  charge=  1.5290  magn= -0.0020
     atom  91 (R=0.032)  charge=  1.5290  magn=  0.0051
     atom  92 (R=0.032)  charge=  1.5268  magn= -0.0020
     atom  93 (R=0.032)  charge=  1.5274  magn=  0.0017
     atom  94 (R=0.032)  charge=  1.5251  magn= -0.0016
     atom  95 (R=0.032)  charge=  1.5226  magn=  0.0017
     atom  96 (R=0.032)  charge=  1.5227  magn= -0.0018
     atom  97 (R=0.032)  charge=  1.5156  magn=  0.0044

     total cpu time spent up to now is     1527.1 secs

     End of self-consistent calculation

 ------ SPIN UP ------------


          k = 0.0000 0.0000 0.0000 (233409 PWs)   bands (ev):

   -23.7935 -23.4086 -23.3515 -23.3277 -23.3062 -23.2667 -23.1475 -22.4232
   -22.3915 -22.3849 -22.3777 -22.3077 -22.2098 -21.9414 -21.9289 -21.9092
   -21.8747 -21.8342 -21.5834 -20.5509 -20.5489 -20.5368 -20.5355 -20.5272
   -20.5085 -20.5079 -20.5026 -20.4804 -20.4681 -20.3760 -20.0593 -19.6561
   -19.6351 -19.6081 -19.5647 -19.5527 -19.2008 -18.3649 -18.3496 -18.3409
   -18.3348 -18.2846 -18.2814 -18.2717 -18.2623 -18.2447 -18.2157 -18.1775
   -17.6332 -17.2444 -17.2432 -17.2338 -17.1745 -17.0848 -16.8170 -16.3329
   -16.3288 -16.3052 -16.2253 -16.1869 -16.1002 -15.8241 -15.8082 -15.7950
   -15.7101 -15.6946 -15.0812 -14.4369 -14.4266 -14.4041 -14.3976 -14.3825
   -14.3807 -14.3670 -14.3478 -14.3351 -14.3081 -14.2736 -14.1883 -14.1882
   -14.1437 -14.1334 -13.8793 -13.7609 -13.1730 -12.7122 -12.6999 -12.6471
   -12.5774 -12.5340 -12.2819 -12.1424 -12.1379 -12.1179 -11.9878 -11.9614
   -11.8801 -11.8663 -11.6708 -11.6454 -11.6234 -11.6129 -11.5988 -11.5935
   -11.5839 -11.5375 -11.5337 -11.4418 -11.3897 -11.3555 -11.3447 -11.3272
   -11.3262 -11.3071 -11.2778 -11.2063 -11.1773 -11.1679 -11.1393 -10.9938
   -10.9089 -10.6437 -10.5956 -10.5680 -10.5571 -10.3334 -10.3156 -10.2441
   -10.2129 -10.2082 -10.2074 -10.1507 -10.1113 -10.0383  -9.9857  -9.9635
    -9.9566  -9.8717  -9.8269  -9.7280  -9.7153  -9.6955  -9.6950  -9.6777
    -9.6739  -9.6364  -9.6321  -9.6206  -9.6107  -9.3742  -9.2986  -9.2972
    -9.1103  -9.1004  -9.0742  -8.5725  -8.5377  -8.3276  -8.2605  -8.2249
    -8.2051  -8.1850  -8.1458  -8.1321  -8.1297  -8.1129  -8.1116  -8.0990
    -8.0989  -8.0868  -8.0676  -8.0616  -8.0216  -7.7129  -7.4837  -7.4701
    -7.3316  -7.3027  -7.3019  -7.2798  -7.2418  -6.9021  -6.2169  -6.2143
    -6.1964  -6.1758  -6.1679  -6.0062  -5.8049  -5.8014  -5.7934  -5.7923
    -5.7261  -5.1037  -4.8709  -2.8930  -2.8334  -2.8168  -2.7907  -2.7849
    -2.7741  -2.7546  -2.7544  -2.7469  -2.7321  -2.7002  -2.6355  -2.1961
    -1.7947  -1.7655  -1.7505  -1.7174  -1.6570  -1.2091  -0.9772  -0.3600
    -0.3577  -0.3281  -0.3073  -0.2993  -0.2935  -0.2877  -0.2693  -0.2620

 ------ SPIN DOWN ----------


          k = 0.0000 0.0000 0.0000 (233409 PWs)   bands (ev):

   -23.7792 -23.3781 -23.3451 -23.3209 -23.2989 -23.2521 -23.0931 -22.3837
   -22.3759 -22.3713 -22.3630 -22.2972 -22.1875 -21.9136 -21.9130 -21.8891
   -21.8565 -21.8154 -21.5149 -20.5425 -20.5388 -20.5150 -20.5089 -20.5001
   -20.4935 -20.4921 -20.4802 -20.4613 -20.4366 -20.3518 -20.0194 -19.6278
   -19.6187 -19.5935 -19.5321 -19.5252 -19.1453 -18.3478 -18.3336 -18.3288
   -18.3260 -18.2776 -18.2712 -18.2500 -18.2426 -18.2147 -18.2035 -18.0942
   -17.5317 -17.2338 -17.2314 -17.2237 -17.1386 -17.0690 -16.7616 -16.3125
   -16.3105 -16.2912 -16.1945 -16.1678 -16.0822 -15.8079 -15.7929 -15.7861
   -15.6819 -15.6137 -15.0129 -14.4146 -14.4013 -14.3901 -14.3847 -14.3739
   -14.3678 -14.3479 -14.3302 -14.3179 -14.2893 -14.2354 -14.1799 -14.1791
   -14.1384 -14.1164 -13.8024 -13.7310 -13.0912 -12.6912 -12.6724 -12.6339
   -12.5615 -12.4952 -12.2524 -12.1285 -12.1241 -12.0951 -11.9814 -11.9470
   -11.8580 -11.8290 -11.6469 -11.6351 -11.6152 -11.6032 -11.5852 -11.5750
   -11.5640 -11.5234 -11.5221 -11.4141 -11.3504 -11.3336 -11.3332 -11.3136
   -11.3001 -11.2968 -11.2502 -11.1890 -11.1651 -11.1510 -11.0643 -10.9837
   -10.8636 -10.6359 -10.5757 -10.5633 -10.5397 -10.2999 -10.2894 -10.1939
   -10.1931 -10.1851 -10.1818 -10.1280 -10.0645 -10.0016  -9.9656  -9.9499
    -9.9441  -9.8671  -9.8164  -9.7036  -9.6820  -9.6701  -9.6556  -9.6553
    -9.6388  -9.6216  -9.6090  -9.5866  -9.5122  -9.2808  -9.2660  -9.2596
    -9.1021  -9.0860  -9.0615  -8.5543  -8.5002  -8.2447  -8.2262  -8.2160
    -8.1726  -8.1121  -8.1067  -8.0899  -8.0862  -8.0750  -8.0714  -8.0667
    -8.0604  -8.0467  -8.0203  -8.0133  -7.9788  -7.6617  -7.4712  -7.4170
    -7.2951  -7.2889  -7.2723  -7.2339  -7.1920  -6.8272  -6.1909  -6.1872
    -6.1738  -6.1409  -6.1154  -5.9659  -5.7827  -5.7824  -5.7500  -5.6955
    -5.6802  -4.5139  -2.8954  -2.8229  -2.7955  -2.7763  -2.7650  -2.7564
    -2.7371  -2.7342  -2.7220  -2.7162  -2.6082  -2.5473  -2.5393  -2.1519
    -1.7755  -1.7522  -1.7079  -1.6325  -1.6060  -1.1365  -0.9698  -0.3447
    -0.3406  -0.3029  -0.2822  -0.2729  -0.2622  -0.2612  -0.2318  -0.2279

     the Fermi energy is    -4.7486 ev

!    total energy              =   -1168.11414193 Ry
     estimated scf accuracy    <          3.6E-13 Ry
     smearing contrib. (-TS)   =       0.00091547 Ry
     internal energy E=F+TS    =   -1168.11505740 Ry

     The total energy is F=E-TS. E is the sum of the following terms:
     one-electron contribution =  -13175.40282514 Ry
     hartree contribution      =    6623.91884649 Ry
     xc contribution           =    -415.41182298 Ry
     ewald contribution        =    5798.78074423 Ry

     total magnetization       =     2.00 Bohr mag/cell
     absolute magnetization    =     2.84 Bohr mag/cell

     convergence has been achieved in  11 iterations

     Forces acting on atoms (cartesian axes, Ry/au):

     atom    1 type  1   force =    -0.00007233    0.00000030   -0.00000000
     atom    2 type  1   force =    -0.00005567    0.00000021    0.00000000
     atom    3 type  1   force =     0.00000915    0.00004918   -0.00000000
     atom    4 type  1   force =    -0.00004741   -0.00000450   -0.00000000
     atom    5 type  1   force =    -0.00000085   -0.00000370   -0.00000000
     atom    6 type  1   force =     0.00000328   -0.00003545    0.00000000
     atom    7 type  1   force =    -0.00002188   -0.00001667    0.00000000
     atom    8 type  1   force =    -0.00008877    0.00001980   -0.00000000
     atom    9 type  1   force =     0.00004871   -0.00002374    0.00000000
     atom   10 type  1   force =     0.00000301    0.00005853   -0.00000000
     atom   11 type  1   force =    -0.00004953   -0.00002561   -0.00000000
     atom   12 type  1   force =     0.00000457   -0.00000344   -0.00000000
     atom   13 type  1   force =     0.00002099    0.00000244    0.00000000
     atom   14 type  1   force =    -0.00004227   -0.00000694    0.00000000
     atom   15 type  1   force =     0.00000923   -0.00004832    0.00000000
     atom   16 type  1   force =    -0.00004741    0.00000482   -0.00000001
     atom   17 type  1   force =    -0.00000782    0.00000038    0.00000000
     atom   18 type  1   force =    -0.00001213    0.00000002    0.00000000
     atom   19 type  1   force =    -0.00004629   -0.00005611   -0.00000000
     atom   20 type  1   force =     0.00002739   -0.00000708    0.00000000
     atom   21 type  1   force =    -0.00007664    0.00004783    0.00000000
     atom   22 type  1   force =     0.00003980   -0.00002866   -0.00000000
     atom   23 type  1   force =    -0.00007414    0.00012604   -0.00000000
     atom   24 type  1   force =     0.00003264    0.00003577    0.00000000
     atom   25 type  1   force =     0.00002025    0.00003246   -0.00000000
     atom   26 type  1   force =    -0.00005452    0.00005024   -0.00000000
     atom   27 type  1   force =     0.00000915    0.00000625    0.00000000
     atom   28 type  1   force =    -0.00003819   -0.00003542    0.00000000
     atom   29 type  1   force =    -0.00000067    0.00000437   -0.00000000
     atom   30 type  1   force =     0.00000311    0.00003543   -0.00000000
     atom   31 type  1   force =    -0.00004627    0.00005629   -0.00000000
     atom   32 type  1   force =     0.00002725    0.00000684    0.00000000
     atom   33 type  1   force =    -0.00016157   -0.00000017   -0.00000000
     atom   34 type  1   force =    -0.00007248   -0.00000020    0.00000000
     atom   35 type  1   force =    -0.00008412    0.00001475   -0.00000000
     atom   36 type  2   force =     0.00004395    0.00013719   -0.00000001
     atom   37 type  1   force =     0.00003245    0.00000565   -0.00000000
     atom   38 type  1   force =     0.00001687    0.00006074   -0.00000001
     atom   39 type  1   force =     0.00002785    0.00007156    0.00000000
     atom   40 type  1   force =     0.00005915    0.00003466   -0.00000000
     atom   41 type  1   force =     0.00006403   -0.00000896   -0.00000000
     atom   42 type  1   force =    -0.00007188   -0.00001749   -0.00000000
     atom   43 type  1   force =    -0.00002185    0.00001672   -0.00000000
     atom   44 type  1   force =    -0.00008909   -0.00002023    0.00000000
     atom   45 type  1   force =    -0.00007681   -0.00004814   -0.00000000
     atom   46 type  1   force =     0.00003954    0.00002830   -0.00000000
     atom   47 type  1   force =    -0.00008440   -0.00001514    0.00000001
     atom   48 type  2   force =     0.00004368   -0.00013745    0.00000001
     atom   49 type  2   force =     0.00013182    0.00000091    0.00000001
     atom   50 type  1   force =    -0.00004528    0.00012551    0.00000000
     atom   51 type  1   force =     0.00003031   -0.00001232   -0.00000000
     atom   52 type  1   force =     0.00009752    0.00002031    0.00000000
     atom   53 type  1   force =     0.00003612   -0.00002682   -0.00000000
     atom   54 type  1   force =     0.00006375    0.00000431    0.00000000
     atom   55 type  1   force =    -0.00006989    0.00009902    0.00000000
     atom   56 type  1   force =     0.00004854    0.00002333   -0.00000000
     atom   57 type  1   force =     0.00000261   -0.00005905    0.00000000
     atom   58 type  1   force =    -0.00007448   -0.00012647    0.00000000
     atom   59 type  1   force =     0.00003222   -0.00003597   -0.00000000
     atom   60 type  1   force =     0.00003230   -0.00000589   -0.00000000
     atom   61 type  1   force =     0.00001641   -0.00006036    0.00000001
     atom   62 type  1   force =    -0.00004515   -0.00012614    0.00000001
     atom   63 type  1   force =     0.00003024    0.00001333    0.00000000
     atom   64 type  1   force =     0.00015635   -0.00000028    0.00000000
     atom   65 type  1   force =     0.00010342    0.00000033   -0.00000000
     atom   66 type  1   force =     0.00009208   -0.00006523   -0.00000000
     atom   67 type  1   force =    -0.00002326   -0.00001662   -0.00000000
     atom   68 type  1   force =    -0.00001479    0.00006389    0.00000000
     atom   69 type  1   force =    -0.00001783    0.00000313    0.00000000
     atom   70 type  1   force =    -0.00004974    0.00002516   -0.00000000
     atom   71 type  1   force =     0.00000423    0.00000318    0.00000000
     atom   72 type  1   force =     0.00001999   -0.00003254    0.00000000
     atom   73 type  1   force =    -0.00005504   -0.00005012   -0.00000000
     atom   74 type  1   force =     0.00002766   -0.00007113    0.00000000
     atom   75 type  1   force =     0.00005885   -0.00003433    0.00000000
     atom   76 type  1   force =     0.00009731   -0.00002011   -0.00000000
     atom   77 type  1   force =     0.00003614    0.00002718    0.00000000
     atom   78 type  1   force =     0.00009194    0.00006494   -0.00000000
     atom   79 type  1   force =    -0.00002311    0.00001653    0.00000000
     atom   80 type  1   force =     0.00002766   -0.00000028   -0.00000000
     atom   81 type  1   force =     0.00001718   -0.00000029   -0.00000000
     atom   82 type  1   force =     0.00001661    0.00002759    0.00000000
     atom   83 type  1   force =    -0.00001461    0.00000094    0.00000000
     atom   84 type  1   force =     0.00002089   -0.00000248    0.00000000
     atom   85 type  1   force =    -0.00004245    0.00000718   -0.00000000
     atom   86 type  1   force =     0.00000901   -0.00000570   -0.00000000
     atom   87 type  1   force =    -0.00003848    0.00003576   -0.00000000
     atom   88 type  1   force =     0.00006378    0.00000968   -0.00000000
     atom   89 type  1   force =    -0.00007191    0.00001774   -0.00000000
     atom   90 type  1   force =     0.00006355   -0.00000403    0.00000000
     atom   91 type  1   force =    -0.00006966   -0.00009918   -0.00000000
     atom   92 type  1   force =    -0.00001485   -0.00006421   -0.00000000
     atom   93 type  1   force =    -0.00001757   -0.00000363    0.00000000
     atom   94 type  1   force =     0.00001665   -0.00002825   -0.00000000
     atom   95 type  1   force =    -0.00001447   -0.00000152    0.00000000
     atom   96 type  1   force =     0.00000897   -0.00000025    0.00000000
     atom   97 type  1   force =     0.00010742   -0.00000014   -0.00000000

     Total force =     0.000710     Total SCF correction =     0.000000
     Energy error            =      8.8E-07 Ry
     Gradient error          =      1.6E-04 Ry/Bohr

     number of scf cycles    =  21
     number of bfgs steps    =  20

     energy             old  =   -1168.1141410494 Ry
     energy             new  =   -1168.1141419275 Ry

     CASE: energy            _new < energy            _old

     new trust radius        =       0.0005020835 bohr
     new conv_thr            =            1.0E-12 Ry


ATOMIC_POSITIONS (crystal)
C                0.0471160039        0.0471158508       -0.0000000004
C                0.0946701623        0.0946699429        0.0000000010
C                0.0466607702        0.1901342423        0.0000000024
C                0.0943470390        0.2376008473        0.0000000024
C                0.0468026588        0.3329685837        0.0000000014
C                0.0943877643        0.3805148771       -0.0000000003
C                0.0478127222        0.4758345327       -0.0000000009
C                0.0956461044        0.5232260331        0.0000000003
C                0.0487576633        0.6185445309       -0.0000000008
C                0.0970145133        0.6654858754        0.0000000008
C                0.0491496575        0.7607596248       -0.0000000010
C                0.0977974095        0.8071628331       -0.0000000010
C                0.0486362280        0.9034042719       -0.0000000022
C                0.0956564216        0.9513893797       -0.0000000020
C                0.1901344446        0.0466605322        0.0000000013
C                0.2376010245        0.0943468354        0.0000000024
C                0.1896475211        0.1896473496        0.0000000018
C                0.2371449306        0.2371448605        0.0000000007
C                0.1893007265        0.3324644829        0.0000000002
C                0.2365762890        0.3798909161        0.0000000015
C                0.1906803124        0.4749564167        0.0000000023
C                0.2390860390        0.5218671322        0.0000000051
C                0.1930730003        0.6165615614        0.0000000036
C                0.2440303401        0.6606353442        0.0000000027
C                0.1942844490        0.7576696497        0.0000000001
C                0.2397580056        0.8072503914       -0.0000000010
C                0.1911992671        0.9030468376       -0.0000000016
C                0.2383032335        0.9511997106       -0.0000000002
C                0.3329687214        0.0468025070        0.0000000022
C                0.3805149193        0.0943877276        0.0000000014
C                0.3324645209        0.1893007172        0.0000000006
C                0.3798908564        0.2365763900       -0.0000000004
C                0.3314761408        0.3314762449        0.0000000018
C                0.3781005763        0.3781007170        0.0000000026
C                0.3346609053        0.4725817282        0.0000000066
C1               0.3890248961        0.5112168530        0.0000000059
C                0.3426309491        0.6091325834        0.0000000030
C                0.3838151368        0.6639423892        0.0000000005
C                0.3351332740        0.7593100339       -0.0000000003
C                0.3819400982        0.8084564852       -0.0000000003
C                0.3337055908        0.9036972405        0.0000000004
C                0.3810445252        0.9517402423        0.0000000019
C                0.4758345315        0.0478127847        0.0000000002
C                0.5232259426        0.0956462862       -0.0000000021
C                0.4749563403        0.1906805132       -0.0000000017
C                0.5218670317        0.2390862967       -0.0000000033
C                0.4725816076        0.3346611723       -0.0000000016
C1               0.5112167669        0.3890251670       -0.0000000024
C1               0.5292047123        0.5292045038       -0.0000000008
C                0.4786665896        0.6205226668        0.0000000002
C                0.5257664963        0.6685328914        0.0000000008
C                0.4771671786        0.7629387227        0.0000000008
C                0.5245996870        0.8104567484        0.0000000020
C                0.4764016118        0.9052690973        0.0000000019
C                0.5239623420        0.9528419683        0.0000000008
C                0.6185444138        0.0487578959       -0.0000000037
C                0.6654857507        0.0970147688       -0.0000000047
C                0.6165614708        0.1930732553       -0.0000000043
C                0.6606353294        0.2440305251       -0.0000000025
C                0.6091326017        0.3426311011       -0.0000000014
C                0.6639425893        0.3838150893       -0.0000000014
C                0.6205229352        0.4786664819       -0.0000000013
C                0.6685330987        0.5257663981        0.0000000004
C                0.6206374583        0.6206373164        0.0000000016
C                0.6680399805        0.6680399393        0.0000000022
C                0.6199218744        0.7630627823        0.0000000022
C                0.6674088541        0.8105428631        0.0000000013
C                0.6193394756        0.9056689517        0.0000000000
C                0.6667399311        0.9533981668       -0.0000000026
C                0.7607595015        0.0491498886       -0.0000000041
C                0.8071628050        0.0977975492       -0.0000000028
C                0.7576696829        0.1942845709       -0.0000000018
C                0.8072505758        0.2397579616       -0.0000000002
C                0.7593102521        0.3351332115       -0.0000000005
C                0.8084567321        0.3819399851        0.0000000010
C                0.7629389389        0.4771670663        0.0000000010
C                0.8104568729        0.5245996405        0.0000000013
C                0.7630628266        0.6199218422        0.0000000014
C                0.8105427767        0.6674089441       -0.0000000002
C                0.7627126994        0.7627128140       -0.0000000002
C                0.8102215753        0.8102217817       -0.0000000022
C                0.7621048336        0.9056455482       -0.0000000032
C                0.8094194133        0.9533908927       -0.0000000040
C                0.9034042669        0.0486362927       -0.0000000018
C                0.9513895224        0.0956563338       -0.0000000002
C                0.9030470355        0.1911991704        0.0000000008
C                0.9511999619        0.2383030689        0.0000000022
C                0.9036974768        0.3337054464        0.0000000023
C                0.9517404237        0.3810444139        0.0000000019
C                0.9052691993        0.4764015389        0.0000000007
C                0.9528419389        0.5239623737       -0.0000000009
C                0.9056688418        0.6193395472       -0.0000000016
C                0.9533979539        0.6667400897       -0.0000000024
C                0.9056453215        0.7621050171       -0.0000000026
C                0.9533906629        0.8094195941       -0.0000000028
C                0.9050025526        0.9050027338       -0.0000000032
C                0.9525024654        0.9525025470       -0.0000000024



     Writing config-only to output data dir /home/gregb26/links/scratch/qe_tmp/vacancy_relaxed/series/7x7/nspin2/vac_7x7_relax_nspin2.save/ :
     XML data file
     NEW-OLD atomic charge density approx. for the potential

     negative rho (up, down):  1.543E-08 1.666E-08
     Generating pointlists ...

     total cpu time spent up to now is     1529.5 secs

     per-process dynamical memory:   263.2 Mb

     Self-consistent Calculation

     iteration #  1     ecut=   100.00 Ry     beta= 0.30
     Davidson diagonalization with overlap
     ethr =  1.00E-06,  avg # of iterations =  1.0

     Threshold (ethr) on eigenvalues was too large:
     Diagonalizing with lowered threshold

     Davidson diagonalization with overlap
     ethr =  7.43E-11,  avg # of iterations =  6.0

     negative rho (up, down):  1.186E-08 1.155E-08

     total cpu time spent up to now is     1539.9 secs

     total energy              =   -1168.11414232 Ry
     estimated scf accuracy    <       0.00000023 Ry

     total magnetization       =     2.00 Bohr mag/cell
     absolute magnetization    =     2.84 Bohr mag/cell

     iteration #  2     ecut=   100.00 Ry     beta= 0.30
     Davidson diagonalization with overlap
     ethr =  5.81E-11,  avg # of iterations =  2.0

     total cpu time spent up to now is     1543.4 secs

     total energy              =   -1168.11414232 Ry
     estimated scf accuracy    <       0.00000007 Ry

     total magnetization       =     2.00 Bohr mag/cell
     absolute magnetization    =     2.84 Bohr mag/cell

     iteration #  3     ecut=   100.00 Ry     beta= 0.30
     Davidson diagonalization with overlap
     ethr =  1.77E-11,  avg # of iterations =  2.0

     total cpu time spent up to now is     1546.7 secs

     total energy              =   -1168.11414232 Ry
     estimated scf accuracy    <       0.00000002 Ry

     total magnetization       =     2.00 Bohr mag/cell
     absolute magnetization    =     2.84 Bohr mag/cell

     iteration #  4     ecut=   100.00 Ry     beta= 0.30
     Davidson diagonalization with overlap
     ethr =  5.40E-12,  avg # of iterations =  2.0

     total cpu time spent up to now is     1550.1 secs

     total energy              =   -1168.11414233 Ry
     estimated scf accuracy    <          3.0E-09 Ry

     total magnetization       =     2.00 Bohr mag/cell
     absolute magnetization    =     2.84 Bohr mag/cell

     iteration #  5     ecut=   100.00 Ry     beta= 0.30
     Davidson diagonalization with overlap
     ethr =  7.75E-13,  avg # of iterations =  4.0

     total cpu time spent up to now is     1554.4 secs

     total energy              =   -1168.11414233 Ry
     estimated scf accuracy    <          4.6E-10 Ry

     total magnetization       =     2.00 Bohr mag/cell
     absolute magnetization    =     2.84 Bohr mag/cell

     iteration #  6     ecut=   100.00 Ry     beta= 0.30
     Davidson diagonalization with overlap
     ethr =  1.19E-13,  avg # of iterations =  4.5

     total cpu time spent up to now is     1558.8 secs

     total energy              =   -1168.11414233 Ry
     estimated scf accuracy    <          1.1E-10 Ry

     total magnetization       =     2.00 Bohr mag/cell
     absolute magnetization    =     2.84 Bohr mag/cell

     iteration #  7     ecut=   100.00 Ry     beta= 0.30
     Davidson diagonalization with overlap
     ethr =  1.00E-13,  avg # of iterations =  1.5

     total cpu time spent up to now is     1562.0 secs

     total energy              =   -1168.11414233 Ry
     estimated scf accuracy    <          2.9E-11 Ry

     total magnetization       =     2.00 Bohr mag/cell
     absolute magnetization    =     2.84 Bohr mag/cell

     iteration #  8     ecut=   100.00 Ry     beta= 0.30
     Davidson diagonalization with overlap
     ethr =  1.00E-13,  avg # of iterations =  1.5

     total cpu time spent up to now is     1565.2 secs

     total energy              =   -1168.11414233 Ry
     estimated scf accuracy    <          3.4E-12 Ry

     total magnetization       =     2.00 Bohr mag/cell
     absolute magnetization    =     2.84 Bohr mag/cell

     iteration #  9     ecut=   100.00 Ry     beta= 0.30
     Davidson diagonalization with overlap
     ethr =  1.00E-13,  avg # of iterations =  1.0

     total cpu time spent up to now is     1568.3 secs

     total energy              =   -1168.11414233 Ry
     estimated scf accuracy    <          1.1E-12 Ry

     total magnetization       =     2.00 Bohr mag/cell
     absolute magnetization    =     2.84 Bohr mag/cell

     iteration # 10     ecut=   100.00 Ry     beta= 0.30
     Davidson diagonalization with overlap
     ethr =  1.00E-13,  avg # of iterations =  1.0

     Magnetic moment per site  (integrated on atomic sphere of radius R)
     atom   1 (R=0.032)  charge=  1.5211  magn= -0.0017
     atom   2 (R=0.032)  charge=  1.5238  magn=  0.0025
     atom   3 (R=0.032)  charge=  1.5255  magn= -0.0023
     atom   4 (R=0.032)  charge=  1.5254  magn=  0.0042
     atom   5 (R=0.032)  charge=  1.5292  magn= -0.0021
     atom   6 (R=0.032)  charge=  1.5287  magn=  0.0016
     atom   7 (R=0.032)  charge=  1.5284  magn= -0.0021
     atom   8 (R=0.032)  charge=  1.5272  magn=  0.0040
     atom   9 (R=0.032)  charge=  1.5250  magn= -0.0023
     atom  10 (R=0.032)  charge=  1.5212  magn=  0.0073
     atom  11 (R=0.032)  charge=  1.5236  magn= -0.0024
     atom  12 (R=0.032)  charge=  1.5120  magn=  0.0040
     atom  13 (R=0.032)  charge=  1.5148  magn= -0.0022
     atom  14 (R=0.032)  charge=  1.5221  magn=  0.0013
     atom  15 (R=0.032)  charge=  1.5255  magn= -0.0023
     atom  16 (R=0.032)  charge=  1.5254  magn=  0.0042
     atom  17 (R=0.032)  charge=  1.5292  magn= -0.0026
     atom  18 (R=0.032)  charge=  1.5273  magn=  0.0129
     atom  19 (R=0.032)  charge=  1.5324  magn= -0.0036
     atom  20 (R=0.032)  charge=  1.5351  magn=  0.0142
     atom  21 (R=0.032)  charge=  1.5285  magn= -0.0035
     atom  22 (R=0.032)  charge=  1.5251  magn=  0.0058
     atom  23 (R=0.032)  charge=  1.5256  magn= -0.0024
     atom  24 (R=0.032)  charge=  1.4930  magn=  0.0036
     atom  25 (R=0.032)  charge=  1.5067  magn= -0.0045
     atom  26 (R=0.032)  charge=  1.5228  magn=  0.0117
     atom  27 (R=0.032)  charge=  1.5204  magn= -0.0032
     atom  28 (R=0.032)  charge=  1.5232  magn=  0.0102
     atom  29 (R=0.032)  charge=  1.5292  magn= -0.0021
     atom  30 (R=0.032)  charge=  1.5287  magn=  0.0016
     atom  31 (R=0.032)  charge=  1.5324  magn= -0.0036
     atom  32 (R=0.032)  charge=  1.5351  magn=  0.0142
     atom  33 (R=0.032)  charge=  1.5444  magn= -0.0067
     atom  34 (R=0.032)  charge=  1.5514  magn=  0.0400
     atom  35 (R=0.032)  charge=  1.5402  magn= -0.0030
     atom  36 (R=0.032)  charge=  1.4058  magn=  0.0693
     atom  37 (R=0.032)  charge=  1.4727  magn= -0.0110
     atom  38 (R=0.032)  charge=  1.5186  magn=  0.0488
     atom  39 (R=0.032)  charge=  1.5188  magn= -0.0082
     atom  40 (R=0.032)  charge=  1.5209  magn=  0.0144
     atom  41 (R=0.032)  charge=  1.5250  magn= -0.0039
     atom  42 (R=0.032)  charge=  1.5258  magn=  0.0020
     atom  43 (R=0.032)  charge=  1.5284  magn= -0.0021
     atom  44 (R=0.032)  charge=  1.5272  magn=  0.0040
     atom  45 (R=0.032)  charge=  1.5285  magn= -0.0035
     atom  46 (R=0.032)  charge=  1.5251  magn=  0.0058
     atom  47 (R=0.032)  charge=  1.5402  magn= -0.0030
     atom  48 (R=0.032)  charge=  1.4058  magn=  0.0693
     atom  49 (R=0.032)  charge=  1.4997  magn=  0.3532
     atom  50 (R=0.032)  charge=  1.5510  magn= -0.0088
     atom  51 (R=0.032)  charge=  1.5345  magn=  0.0253
     atom  52 (R=0.032)  charge=  1.5350  magn= -0.0016
     atom  53 (R=0.032)  charge=  1.5307  magn=  0.0052
     atom  54 (R=0.032)  charge=  1.5290  magn= -0.0020
     atom  55 (R=0.032)  charge=  1.5290  magn=  0.0051
     atom  56 (R=0.032)  charge=  1.5250  magn= -0.0023
     atom  57 (R=0.032)  charge=  1.5212  magn=  0.0073
     atom  58 (R=0.032)  charge=  1.5256  magn= -0.0024
     atom  59 (R=0.032)  charge=  1.4930  magn=  0.0036
     atom  60 (R=0.032)  charge=  1.4727  magn= -0.0110
     atom  61 (R=0.032)  charge=  1.5186  magn=  0.0488
     atom  62 (R=0.032)  charge=  1.5510  magn= -0.0088
     atom  63 (R=0.032)  charge=  1.5345  magn=  0.0253
     atom  64 (R=0.032)  charge=  1.5371  magn= -0.0087
     atom  65 (R=0.032)  charge=  1.5316  magn=  0.0086
     atom  66 (R=0.032)  charge=  1.5303  magn= -0.0034
     atom  67 (R=0.032)  charge=  1.5294  magn=  0.0021
     atom  68 (R=0.032)  charge=  1.5267  magn= -0.0020
     atom  69 (R=0.032)  charge=  1.5274  magn=  0.0017
     atom  70 (R=0.032)  charge=  1.5236  magn= -0.0024
     atom  71 (R=0.032)  charge=  1.5120  magn=  0.0040
     atom  72 (R=0.032)  charge=  1.5067  magn= -0.0045
     atom  73 (R=0.032)  charge=  1.5228  magn=  0.0117
     atom  74 (R=0.032)  charge=  1.5188  magn= -0.0082
     atom  75 (R=0.032)  charge=  1.5209  magn=  0.0144
     atom  76 (R=0.032)  charge=  1.5350  magn= -0.0016
     atom  77 (R=0.032)  charge=  1.5307  magn=  0.0052
     atom  78 (R=0.032)  charge=  1.5303  magn= -0.0034
     atom  79 (R=0.032)  charge=  1.5294  magn=  0.0021
     atom  80 (R=0.032)  charge=  1.5272  magn= -0.0019
     atom  81 (R=0.032)  charge=  1.5273  magn=  0.0038
     atom  82 (R=0.032)  charge=  1.5252  magn= -0.0016
     atom  83 (R=0.032)  charge=  1.5226  magn=  0.0017
     atom  84 (R=0.032)  charge=  1.5148  magn= -0.0022
     atom  85 (R=0.032)  charge=  1.5221  magn=  0.0013
     atom  86 (R=0.032)  charge=  1.5204  magn= -0.0032
     atom  87 (R=0.032)  charge=  1.5232  magn=  0.0102
     atom  88 (R=0.032)  charge=  1.5250  magn= -0.0039
     atom  89 (R=0.032)  charge=  1.5258  magn=  0.0020
     atom  90 (R=0.032)  charge=  1.5290  magn= -0.0020
     atom  91 (R=0.032)  charge=  1.5290  magn=  0.0051
     atom  92 (R=0.032)  charge=  1.5267  magn= -0.0020
     atom  93 (R=0.032)  charge=  1.5274  magn=  0.0017
     atom  94 (R=0.032)  charge=  1.5252  magn= -0.0016
     atom  95 (R=0.032)  charge=  1.5226  magn=  0.0017
     atom  96 (R=0.032)  charge=  1.5227  magn= -0.0018
     atom  97 (R=0.032)  charge=  1.5156  magn=  0.0044

     total cpu time spent up to now is     1571.4 secs

     End of self-consistent calculation

 ------ SPIN UP ------------


          k = 0.0000 0.0000 0.0000 (233409 PWs)   bands (ev):

   -23.7935 -23.4086 -23.3515 -23.3278 -23.3063 -23.2667 -23.1474 -22.4231
   -22.3916 -22.3849 -22.3777 -22.3078 -22.2100 -21.9414 -21.9290 -21.9093
   -21.8748 -21.8342 -21.5833 -20.5509 -20.5490 -20.5368 -20.5355 -20.5272
   -20.5085 -20.5080 -20.5027 -20.4805 -20.4682 -20.3761 -20.0594 -19.6561
   -19.6352 -19.6080 -19.5648 -19.5527 -19.2006 -18.3648 -18.3495 -18.3410
   -18.3350 -18.2847 -18.2816 -18.2718 -18.2623 -18.2447 -18.2157 -18.1774
   -17.6333 -17.2445 -17.2433 -17.2339 -17.1745 -17.0848 -16.8169 -16.3330
   -16.3288 -16.3052 -16.2254 -16.1869 -16.1001 -15.8240 -15.8084 -15.7952
   -15.7101 -15.6946 -15.0811 -14.4369 -14.4267 -14.4042 -14.3976 -14.3825
   -14.3807 -14.3670 -14.3479 -14.3353 -14.3082 -14.2737 -14.1883 -14.1883
   -14.1439 -14.1334 -13.8791 -13.7608 -13.1728 -12.7122 -12.6999 -12.6471
   -12.5774 -12.5341 -12.2817 -12.1425 -12.1379 -12.1179 -11.9880 -11.9615
   -11.8801 -11.8662 -11.6708 -11.6454 -11.6234 -11.6129 -11.5989 -11.5935
   -11.5839 -11.5376 -11.5338 -11.4417 -11.3897 -11.3556 -11.3447 -11.3273
   -11.3262 -11.3072 -11.2778 -11.2064 -11.1774 -11.1679 -11.1393 -10.9937
   -10.9088 -10.6437 -10.5957 -10.5680 -10.5572 -10.3336 -10.3157 -10.2441
   -10.2129 -10.2082 -10.2074 -10.1508 -10.1112 -10.0384  -9.9857  -9.9635
    -9.9568  -9.8718  -9.8271  -9.7280  -9.7151  -9.6954  -9.6951  -9.6778
    -9.6739  -9.6365  -9.6322  -9.6206  -9.6104  -9.3741  -9.2988  -9.2973
    -9.1102  -9.1004  -9.0743  -8.5725  -8.5374  -8.3265  -8.2605  -8.2249
    -8.2050  -8.1851  -8.1457  -8.1320  -8.1297  -8.1130  -8.1117  -8.0990
    -8.0990  -8.0868  -8.0677  -8.0617  -8.0216  -7.7129  -7.4836  -7.4702
    -7.3316  -7.3025  -7.3019  -7.2800  -7.2419  -6.9020  -6.2170  -6.2143
    -6.1964  -6.1759  -6.1679  -6.0062  -5.8049  -5.8013  -5.7935  -5.7923
    -5.7262  -5.1030  -4.8707  -2.8945  -2.8333  -2.8167  -2.7907  -2.7850
    -2.7741  -2.7546  -2.7543  -2.7468  -2.7321  -2.7003  -2.6356  -2.1961
    -1.7946  -1.7654  -1.7505  -1.7175  -1.6570  -1.2089  -0.9773  -0.3601
    -0.3577  -0.3280  -0.3073  -0.2993  -0.2934  -0.2878  -0.2692  -0.2621

 ------ SPIN DOWN ----------


          k = 0.0000 0.0000 0.0000 (233409 PWs)   bands (ev):

   -23.7793 -23.3781 -23.3451 -23.3211 -23.2990 -23.2522 -23.0930 -22.3838
   -22.3759 -22.3714 -22.3630 -22.2973 -22.1876 -21.9136 -21.9131 -21.8891
   -21.8566 -21.8155 -21.5148 -20.5426 -20.5389 -20.5151 -20.5090 -20.5002
   -20.4935 -20.4921 -20.4803 -20.4613 -20.4366 -20.3519 -20.0195 -19.6277
   -19.6188 -19.5935 -19.5321 -19.5253 -19.1452 -18.3477 -18.3337 -18.3287
   -18.3262 -18.2778 -18.2714 -18.2500 -18.2427 -18.2148 -18.2034 -18.0941
   -17.5317 -17.2338 -17.2315 -17.2237 -17.1385 -17.0689 -16.7615 -16.3125
   -16.3105 -16.2912 -16.1946 -16.1678 -16.0820 -15.8078 -15.7930 -15.7863
   -15.6819 -15.6138 -15.0128 -14.4146 -14.4013 -14.3902 -14.3847 -14.3739
   -14.3678 -14.3478 -14.3302 -14.3181 -14.2894 -14.2356 -14.1800 -14.1792
   -14.1385 -14.1165 -13.8022 -13.7309 -13.0910 -12.6913 -12.6724 -12.6340
   -12.5614 -12.4953 -12.2523 -12.1286 -12.1240 -12.0951 -11.9815 -11.9471
   -11.8580 -11.8289 -11.6470 -11.6351 -11.6152 -11.6033 -11.5853 -11.5751
   -11.5640 -11.5235 -11.5222 -11.4141 -11.3504 -11.3336 -11.3333 -11.3138
   -11.3002 -11.2969 -11.2502 -11.1890 -11.1652 -11.1511 -11.0642 -10.9836
   -10.8634 -10.6360 -10.5759 -10.5633 -10.5397 -10.3001 -10.2895 -10.1938
   -10.1932 -10.1851 -10.1818 -10.1281 -10.0645 -10.0017  -9.9656  -9.9499
    -9.9442  -9.8672  -9.8165  -9.7036  -9.6820  -9.6701  -9.6556  -9.6553
    -9.6388  -9.6217  -9.6091  -9.5866  -9.5118  -9.2808  -9.2661  -9.2599
    -9.1019  -9.0859  -9.0616  -8.5544  -8.5000  -8.2447  -8.2262  -8.2161
    -8.1728  -8.1122  -8.1067  -8.0899  -8.0862  -8.0750  -8.0714  -8.0667
    -8.0604  -8.0467  -8.0203  -8.0119  -7.9788  -7.6618  -7.4711  -7.4170
    -7.2950  -7.2890  -7.2723  -7.2340  -7.1921  -6.8271  -6.1910  -6.1872
    -6.1739  -6.1409  -6.1154  -5.9660  -5.7826  -5.7823  -5.7500  -5.6955
    -5.6801  -4.5136  -2.8947  -2.8228  -2.7954  -2.7763  -2.7651  -2.7564
    -2.7370  -2.7340  -2.7220  -2.7162  -2.6096  -2.5474  -2.5394  -2.1518
    -1.7755  -1.7521  -1.7080  -1.6325  -1.6060  -1.1363  -0.9698  -0.3448
    -0.3405  -0.3029  -0.2822  -0.2728  -0.2622  -0.2611  -0.2321  -0.2282

     the Fermi energy is    -4.7484 ev

!    total energy              =   -1168.11414233 Ry
     estimated scf accuracy    <          4.1E-13 Ry
     smearing contrib. (-TS)   =       0.00091694 Ry
     internal energy E=F+TS    =   -1168.11505927 Ry

     The total energy is F=E-TS. E is the sum of the following terms:
     one-electron contribution =  -13175.41534910 Ry
     hartree contribution      =    6623.92516620 Ry
     xc contribution           =    -415.41226893 Ry
     ewald contribution        =    5798.78739256 Ry

     total magnetization       =     2.00 Bohr mag/cell
     absolute magnetization    =     2.84 Bohr mag/cell

     convergence has been achieved in  10 iterations

     Forces acting on atoms (cartesian axes, Ry/au):

     atom    1 type  1   force =    -0.00004862    0.00000008   -0.00000000
     atom    2 type  1   force =    -0.00005104    0.00000038    0.00000000
     atom    3 type  1   force =    -0.00002686    0.00000290   -0.00000000
     atom    4 type  1   force =     0.00001312    0.00004940   -0.00000000
     atom    5 type  1   force =    -0.00001466    0.00001779   -0.00000000
     atom    6 type  1   force =     0.00002026   -0.00000064    0.00000000
     atom    7 type  1   force =    -0.00005212   -0.00005539    0.00000000
     atom    8 type  1   force =    -0.00004667    0.00006550   -0.00000000
     atom    9 type  1   force =    -0.00000116   -0.00002214    0.00000000
     atom   10 type  1   force =    -0.00005140    0.00003001   -0.00000000
     atom   11 type  1   force =     0.00003515    0.00000933   -0.00000000
     atom   12 type  1   force =    -0.00004665    0.00001887    0.00000000
     atom   13 type  1   force =     0.00001689    0.00000278    0.00000000
     atom   14 type  1   force =    -0.00002002   -0.00004221    0.00000000
     atom   15 type  1   force =    -0.00002682   -0.00000276   -0.00000000
     atom   16 type  1   force =     0.00001324   -0.00004865   -0.00000000
     atom   17 type  1   force =    -0.00002323    0.00000005    0.00000000
     atom   18 type  1   force =     0.00001502    0.00000017    0.00000000
     atom   19 type  1   force =     0.00002894   -0.00000855    0.00000000
     atom   20 type  1   force =    -0.00003020    0.00002805    0.00000000
     atom   21 type  1   force =    -0.00000239    0.00001255    0.00000000
     atom   22 type  1   force =    -0.00002240    0.00005679    0.00000000
     atom   23 type  1   force =    -0.00000292    0.00005796    0.00000000
     atom   24 type  1   force =    -0.00000401    0.00004502   -0.00000000
     atom   25 type  1   force =    -0.00002283    0.00005332    0.00000000
     atom   26 type  1   force =    -0.00000040    0.00003087    0.00000000
     atom   27 type  1   force =    -0.00001280    0.00001863    0.00000000
     atom   28 type  1   force =    -0.00001733   -0.00007648    0.00000000
     atom   29 type  1   force =    -0.00001484   -0.00001780    0.00000000
     atom   30 type  1   force =     0.00002048    0.00000093   -0.00000000
     atom   31 type  1   force =     0.00002879    0.00000844   -0.00000000
     atom   32 type  1   force =    -0.00003023   -0.00002819    0.00000000
     atom   33 type  1   force =    -0.00001483   -0.00000013   -0.00000001
     atom   34 type  1   force =    -0.00000199   -0.00000013    0.00000000
     atom   35 type  1   force =    -0.00009073   -0.00001768   -0.00000001
     atom   36 type  2   force =     0.00008782    0.00005062   -0.00000001
     atom   37 type  1   force =    -0.00003358    0.00002745   -0.00000000
     atom   38 type  1   force =    -0.00000908    0.00004413    0.00000000
     atom   39 type  1   force =     0.00001551    0.00006255   -0.00000000
     atom   40 type  1   force =     0.00001794    0.00002477    0.00000000
     atom   41 type  1   force =     0.00001391   -0.00001862    0.00000000
     atom   42 type  1   force =     0.00000640   -0.00006056   -0.00000000
     atom   43 type  1   force =    -0.00005249    0.00005517   -0.00000000
     atom   44 type  1   force =    -0.00004667   -0.00006570    0.00000000
     atom   45 type  1   force =    -0.00000267   -0.00001289   -0.00000000
     atom   46 type  1   force =    -0.00002263   -0.00005710    0.00000000
     atom   47 type  1   force =    -0.00009089    0.00001725    0.00000000
     atom   48 type  2   force =     0.00008745   -0.00005094    0.00000002
     atom   49 type  2   force =     0.00007402   -0.00000087   -0.00000001
     atom   50 type  1   force =     0.00000998    0.00007186    0.00000000
     atom   51 type  1   force =     0.00005693    0.00004000    0.00000000
     atom   52 type  1   force =     0.00004455   -0.00001332    0.00000000
     atom   53 type  1   force =     0.00011743   -0.00002227    0.00000000
     atom   54 type  1   force =    -0.00002137    0.00000721   -0.00000000
     atom   55 type  1   force =     0.00002203    0.00003941    0.00000000
     atom   56 type  1   force =    -0.00000152    0.00002172    0.00000000
     atom   57 type  1   force =    -0.00005157   -0.00003040    0.00000000
     atom   58 type  1   force =    -0.00000331   -0.00005830    0.00000000
     atom   59 type  1   force =    -0.00000419   -0.00004520   -0.00000000
     atom   60 type  1   force =    -0.00003408   -0.00002747   -0.00000000
     atom   61 type  1   force =    -0.00000906   -0.00004413    0.00000000
     atom   62 type  1   force =     0.00000915   -0.00007009    0.00000001
     atom   63 type  1   force =     0.00005670   -0.00004076    0.00000000
     atom   64 type  1   force =     0.00000784    0.00000084   -0.00000000
     atom   65 type  1   force =     0.00010040   -0.00000036   -0.00000000
     atom   66 type  1   force =    -0.00001266   -0.00001564   -0.00000000
     atom   67 type  1   force =     0.00005052    0.00002201    0.00000000
     atom   68 type  1   force =    -0.00007815    0.00007166   -0.00000000
     atom   69 type  1   force =    -0.00001348    0.00005604    0.00000000
     atom   70 type  1   force =     0.00003490   -0.00000974    0.00000000
     atom   71 type  1   force =    -0.00004676   -0.00001897    0.00000000
     atom   72 type  1   force =    -0.00002330   -0.00005350   -0.00000000
     atom   73 type  1   force =    -0.00000042   -0.00003037   -0.00000000
     atom   74 type  1   force =     0.00001500   -0.00006248    0.00000001
     atom   75 type  1   force =     0.00001768   -0.00002421   -0.00000000
     atom   76 type  1   force =     0.00004450    0.00001392    0.00000000
     atom   77 type  1   force =     0.00011697    0.00002219   -0.00000000
     atom   78 type  1   force =    -0.00001247    0.00001628   -0.00000000
     atom   79 type  1   force =     0.00005028   -0.00002249    0.00000000
     atom   80 type  1   force =    -0.00002518    0.00000002   -0.00000000
     atom   81 type  1   force =     0.00000971   -0.00000027    0.00000000
     atom   82 type  1   force =     0.00001812    0.00001648   -0.00000000
     atom   83 type  1   force =    -0.00001260    0.00002916    0.00000000
     atom   84 type  1   force =     0.00001675   -0.00000294   -0.00000000
     atom   85 type  1   force =    -0.00002001    0.00004268   -0.00000000
     atom   86 type  1   force =    -0.00001311   -0.00001853    0.00000000
     atom   87 type  1   force =    -0.00001740    0.00007727    0.00000000
     atom   88 type  1   force =     0.00001383    0.00001865   -0.00000000
     atom   89 type  1   force =     0.00000603    0.00006116    0.00000000
     atom   90 type  1   force =    -0.00002112   -0.00000711    0.00000000
     atom   91 type  1   force =     0.00002168   -0.00003941   -0.00000000
     atom   92 type  1   force =    -0.00007785   -0.00007179   -0.00000000
     atom   93 type  1   force =    -0.00001359   -0.00005646    0.00000000
     atom   94 type  1   force =     0.00001825   -0.00001689   -0.00000000
     atom   95 type  1   force =    -0.00001258   -0.00002957    0.00000000
     atom   96 type  1   force =     0.00008949   -0.00000020   -0.00000000
     atom   97 type  1   force =     0.00001728   -0.00000006   -0.00000000

     Total force =     0.000540     Total SCF correction =     0.000000
     Energy error            =      4.0E-07 Ry
     Gradient error          =      1.2E-04 Ry/Bohr

     number of scf cycles    =  22
     number of bfgs steps    =  21

     energy             old  =   -1168.1141419275 Ry
     energy             new  =   -1168.1141423266 Ry

     CASE: energy            _new < energy            _old

     new trust radius        =       0.0006199544 bohr
     new conv_thr            =            1.0E-12 Ry


ATOMIC_POSITIONS (crystal)
C                0.0471142611        0.0471141467       -0.0000000005
C                0.0946687016        0.0946685473        0.0000000010
C                0.0466596527        0.1901323976        0.0000000023
C                0.0943458607        0.2375998640        0.0000000023
C                0.0468034864        0.3329659307        0.0000000013
C                0.0943891572        0.3805120584       -0.0000000002
C                0.0478137546        0.4758300754       -0.0000000008
C                0.0956426323        0.5232258795        0.0000000001
C                0.0487573750        0.6185440564       -0.0000000007
C                0.0970117304        0.6654872652        0.0000000006
C                0.0491483164        0.7607610575       -0.0000000011
C                0.0977950256        0.8071637944       -0.0000000010
C                0.0486363246        0.9034046429       -0.0000000021
C                0.0956554825        0.9513889494       -0.0000000018
C                0.1901325505        0.0466594725        0.0000000012
C                0.2375999870        0.0943457182        0.0000000021
C                0.1896455841        0.1896454528        0.0000000019
C                0.2371429776        0.2371429267        0.0000000009
C                0.1893010804        0.3324621271        0.0000000004
C                0.2365738491        0.3798893976        0.0000000017
C                0.1906778276        0.4749553265        0.0000000023
C                0.2390809913        0.5218695724        0.0000000048
C                0.1930689935        0.6165647363        0.0000000034
C                0.2440234927        0.6606419061        0.0000000026
C                0.1942804244        0.7576746895        0.0000000001
C                0.2397551591        0.8072540878       -0.0000000009
C                0.1911967764        0.9030484640       -0.0000000015
C                0.2383031979        0.9511994136        0.0000000000
C                0.3329660352        0.0468033671        0.0000000020
C                0.3805120898        0.0943891350        0.0000000013
C                0.3324621608        0.1893010678        0.0000000005
C                0.3798893555        0.2365739259       -0.0000000003
C                0.3314743932        0.3314744697        0.0000000013
C                0.3780997456        0.3780998558        0.0000000028
C                0.3346578149        0.4725819801        0.0000000063
C1               0.3890063079        0.5112361960        0.0000000051
C                0.3426224104        0.6091436651        0.0000000031
C                0.3838109962        0.6639502630        0.0000000005
C                0.3351298053        0.7593181617       -0.0000000003
C                0.3819397436        0.8084613521       -0.0000000002
C                0.3337047044        0.9036997314        0.0000000004
C                0.3810437835        0.9517412535        0.0000000017
C                0.4758300752        0.0478137963        0.0000000001
C                0.5232258125        0.0956427749       -0.0000000019
C                0.4749552717        0.1906779818       -0.0000000019
C                0.5218694937        0.2390811993       -0.0000000033
C                0.4725818871        0.3346580318       -0.0000000012
C1               0.5112361244        0.3890065327       -0.0000000018
C1               0.5292059640        0.5292057495       -0.0000000010
C                0.4786642167        0.6205263221        0.0000000003
C                0.5257672998        0.6685353488        0.0000000007
C                0.4771687522        0.7629408748        0.0000000010
C                0.5246031423        0.8104583968        0.0000000020
C                0.4763996182        0.9052699703        0.0000000018
C                0.5239595815        0.9528440205        0.0000000009
C                0.6185439675        0.0487575470       -0.0000000036
C                0.6654871692        0.0970119259       -0.0000000044
C                0.6165646643        0.1930691909       -0.0000000042
C                0.6606418929        0.2440236398       -0.0000000028
C                0.6091436756        0.3426225325       -0.0000000017
C                0.6639504327        0.3838109542       -0.0000000011
C                0.6205265097        0.4786641488       -0.0000000008
C                0.6685355336        0.5257672038        0.0000000004
C                0.6206397328        0.6206396478        0.0000000016
C                0.6680435177        0.6680434721        0.0000000022
C                0.6199242075        0.7630646502        0.0000000019
C                0.6674098577        0.8105454294        0.0000000012
C                0.6193357118        0.9056706575       -0.0000000001
C                0.6667382840        0.9533993305       -0.0000000024
C                0.7607609618        0.0491484869       -0.0000000040
C                0.8071637683        0.0977951320       -0.0000000028
C                0.7576747115        0.1942805126       -0.0000000018
C                0.8072542258        0.2397551286       -0.0000000003
C                0.7593183352        0.3351297464       -0.0000000002
C                0.8084615384        0.3819396599        0.0000000010
C                0.7629410417        0.4771686720        0.0000000009
C                0.8104584952        0.5246031001        0.0000000012
C                0.7630646757        0.6199241960        0.0000000014
C                0.8105453696        0.6674099163       -0.0000000002
C                0.7627136549        0.7627137437       -0.0000000004
C                0.8102225815        0.8102227296       -0.0000000021
C                0.7621045039        0.9056457261       -0.0000000031
C                0.8094198837        0.9533906906       -0.0000000037
C                0.9034046359        0.0486363715       -0.0000000019
C                0.9513890506        0.0956554207       -0.0000000004
C                0.9030486146        0.1911966963        0.0000000007
C                0.9511995942        0.2383030825        0.0000000021
C                0.9036999172        0.3337045902        0.0000000022
C                0.9517413816        0.3810437049        0.0000000018
C                0.9052700520        0.4763995672        0.0000000008
C                0.9528439959        0.5239596031       -0.0000000010
C                0.9056705775        0.6193357691       -0.0000000016
C                0.9533991715        0.6667383989       -0.0000000021
C                0.9056455605        0.7621046406       -0.0000000027
C                0.9533905194        0.8094200188       -0.0000000028
C                0.9050032934        0.9050034283       -0.0000000033
C                0.9525030171        0.9525030800       -0.0000000026



     Writing config-only to output data dir /home/gregb26/links/scratch/qe_tmp/vacancy_relaxed/series/7x7/nspin2/vac_7x7_relax_nspin2.save/ :
     XML data file
     NEW-OLD atomic charge density approx. for the potential

     negative rho (up, down):  1.535E-08 1.698E-08
     Generating pointlists ...

     total cpu time spent up to now is     1573.8 secs

     per-process dynamical memory:   263.2 Mb

     Self-consistent Calculation

     iteration #  1     ecut=   100.00 Ry     beta= 0.30
     Davidson diagonalization with overlap
     ethr =  1.00E-06,  avg # of iterations =  1.5

     Threshold (ethr) on eigenvalues was too large:
     Diagonalizing with lowered threshold

     Davidson diagonalization with overlap
     ethr =  7.92E-11,  avg # of iterations =  6.0

     negative rho (up, down):  1.601E-08 1.579E-08

     total cpu time spent up to now is     1583.9 secs

     total energy              =   -1168.11414257 Ry
     estimated scf accuracy    <       0.00000020 Ry

     total magnetization       =     2.00 Bohr mag/cell
     absolute magnetization    =     2.84 Bohr mag/cell

     iteration #  2     ecut=   100.00 Ry     beta= 0.30
     Davidson diagonalization with overlap
     ethr =  5.20E-11,  avg # of iterations =  2.0

     total cpu time spent up to now is     1587.5 secs

     total energy              =   -1168.11414258 Ry
     estimated scf accuracy    <       0.00000006 Ry

     total magnetization       =     2.00 Bohr mag/cell
     absolute magnetization    =     2.84 Bohr mag/cell

     iteration #  3     ecut=   100.00 Ry     beta= 0.30
     Davidson diagonalization with overlap
     ethr =  1.57E-11,  avg # of iterations =  2.0

     total cpu time spent up to now is     1590.7 secs

     total energy              =   -1168.11414258 Ry
     estimated scf accuracy    <       0.00000002 Ry

     total magnetization       =     2.00 Bohr mag/cell
     absolute magnetization    =     2.84 Bohr mag/cell

     iteration #  4     ecut=   100.00 Ry     beta= 0.30
     Davidson diagonalization with overlap
     ethr =  5.68E-12,  avg # of iterations =  2.0

     total cpu time spent up to now is     1594.2 secs

     total energy              =   -1168.11414258 Ry
     estimated scf accuracy    <          2.6E-09 Ry

     total magnetization       =     2.00 Bohr mag/cell
     absolute magnetization    =     2.84 Bohr mag/cell

     iteration #  5     ecut=   100.00 Ry     beta= 0.30
     Davidson diagonalization with overlap
     ethr =  6.76E-13,  avg # of iterations =  4.5

     total cpu time spent up to now is     1598.6 secs

     total energy              =   -1168.11414258 Ry
     estimated scf accuracy    <          4.6E-10 Ry

     total magnetization       =     2.00 Bohr mag/cell
     absolute magnetization    =     2.84 Bohr mag/cell

     iteration #  6     ecut=   100.00 Ry     beta= 0.30
     Davidson diagonalization with overlap
     ethr =  1.20E-13,  avg # of iterations =  4.0

     total cpu time spent up to now is     1602.8 secs

     total energy              =   -1168.11414258 Ry
     estimated scf accuracy    <          9.9E-11 Ry

     total magnetization       =     2.00 Bohr mag/cell
     absolute magnetization    =     2.84 Bohr mag/cell

     iteration #  7     ecut=   100.00 Ry     beta= 0.30
     Davidson diagonalization with overlap
     ethr =  1.00E-13,  avg # of iterations =  2.0

     total cpu time spent up to now is     1606.2 secs

     total energy              =   -1168.11414258 Ry
     estimated scf accuracy    <          2.2E-11 Ry

     total magnetization       =     2.00 Bohr mag/cell
     absolute magnetization    =     2.84 Bohr mag/cell

     iteration #  8     ecut=   100.00 Ry     beta= 0.30
     Davidson diagonalization with overlap
     ethr =  1.00E-13,  avg # of iterations =  1.0

     total cpu time spent up to now is     1609.3 secs

     total energy              =   -1168.11414258 Ry
     estimated scf accuracy    <          3.7E-12 Ry

     total magnetization       =     2.00 Bohr mag/cell
     absolute magnetization    =     2.84 Bohr mag/cell

     iteration #  9     ecut=   100.00 Ry     beta= 0.30
     Davidson diagonalization with overlap
     ethr =  1.00E-13,  avg # of iterations =  1.0

     total cpu time spent up to now is     1612.4 secs

     total energy              =   -1168.11414258 Ry
     estimated scf accuracy    <          1.1E-12 Ry

     total magnetization       =     2.00 Bohr mag/cell
     absolute magnetization    =     2.84 Bohr mag/cell

     iteration # 10     ecut=   100.00 Ry     beta= 0.30
     Davidson diagonalization with overlap
     ethr =  1.00E-13,  avg # of iterations =  1.0

     Magnetic moment per site  (integrated on atomic sphere of radius R)
     atom   1 (R=0.032)  charge=  1.5211  magn= -0.0017
     atom   2 (R=0.032)  charge=  1.5238  magn=  0.0025
     atom   3 (R=0.032)  charge=  1.5255  magn= -0.0023
     atom   4 (R=0.032)  charge=  1.5254  magn=  0.0042
     atom   5 (R=0.032)  charge=  1.5292  magn= -0.0021
     atom   6 (R=0.032)  charge=  1.5287  magn=  0.0016
     atom   7 (R=0.032)  charge=  1.5284  magn= -0.0021
     atom   8 (R=0.032)  charge=  1.5272  magn=  0.0040
     atom   9 (R=0.032)  charge=  1.5251  magn= -0.0023
     atom  10 (R=0.032)  charge=  1.5212  magn=  0.0073
     atom  11 (R=0.032)  charge=  1.5236  magn= -0.0024
     atom  12 (R=0.032)  charge=  1.5120  magn=  0.0040
     atom  13 (R=0.032)  charge=  1.5148  magn= -0.0022
     atom  14 (R=0.032)  charge=  1.5221  magn=  0.0013
     atom  15 (R=0.032)  charge=  1.5255  magn= -0.0023
     atom  16 (R=0.032)  charge=  1.5254  magn=  0.0042
     atom  17 (R=0.032)  charge=  1.5292  magn= -0.0026
     atom  18 (R=0.032)  charge=  1.5273  magn=  0.0129
     atom  19 (R=0.032)  charge=  1.5324  magn= -0.0036
     atom  20 (R=0.032)  charge=  1.5351  magn=  0.0142
     atom  21 (R=0.032)  charge=  1.5285  magn= -0.0035
     atom  22 (R=0.032)  charge=  1.5250  magn=  0.0058
     atom  23 (R=0.032)  charge=  1.5256  magn= -0.0024
     atom  24 (R=0.032)  charge=  1.4930  magn=  0.0036
     atom  25 (R=0.032)  charge=  1.5067  magn= -0.0045
     atom  26 (R=0.032)  charge=  1.5228  magn=  0.0117
     atom  27 (R=0.032)  charge=  1.5204  magn= -0.0032
     atom  28 (R=0.032)  charge=  1.5232  magn=  0.0102
     atom  29 (R=0.032)  charge=  1.5292  magn= -0.0021
     atom  30 (R=0.032)  charge=  1.5287  magn=  0.0016
     atom  31 (R=0.032)  charge=  1.5324  magn= -0.0036
     atom  32 (R=0.032)  charge=  1.5351  magn=  0.0142
     atom  33 (R=0.032)  charge=  1.5444  magn= -0.0067
     atom  34 (R=0.032)  charge=  1.5514  magn=  0.0400
     atom  35 (R=0.032)  charge=  1.5402  magn= -0.0031
     atom  36 (R=0.032)  charge=  1.4058  magn=  0.0693
     atom  37 (R=0.032)  charge=  1.4727  magn= -0.0110
     atom  38 (R=0.032)  charge=  1.5185  magn=  0.0488
     atom  39 (R=0.032)  charge=  1.5188  magn= -0.0082
     atom  40 (R=0.032)  charge=  1.5209  magn=  0.0144
     atom  41 (R=0.032)  charge=  1.5250  magn= -0.0039
     atom  42 (R=0.032)  charge=  1.5259  magn=  0.0020
     atom  43 (R=0.032)  charge=  1.5284  magn= -0.0021
     atom  44 (R=0.032)  charge=  1.5272  magn=  0.0040
     atom  45 (R=0.032)  charge=  1.5285  magn= -0.0035
     atom  46 (R=0.032)  charge=  1.5250  magn=  0.0058
     atom  47 (R=0.032)  charge=  1.5402  magn= -0.0031
     atom  48 (R=0.032)  charge=  1.4058  magn=  0.0693
     atom  49 (R=0.032)  charge=  1.4997  magn=  0.3532
     atom  50 (R=0.032)  charge=  1.5510  magn= -0.0088
     atom  51 (R=0.032)  charge=  1.5345  magn=  0.0253
     atom  52 (R=0.032)  charge=  1.5350  magn= -0.0016
     atom  53 (R=0.032)  charge=  1.5307  magn=  0.0052
     atom  54 (R=0.032)  charge=  1.5290  magn= -0.0020
     atom  55 (R=0.032)  charge=  1.5290  magn=  0.0051
     atom  56 (R=0.032)  charge=  1.5251  magn= -0.0023
     atom  57 (R=0.032)  charge=  1.5212  magn=  0.0073
     atom  58 (R=0.032)  charge=  1.5256  magn= -0.0024
     atom  59 (R=0.032)  charge=  1.4930  magn=  0.0036
     atom  60 (R=0.032)  charge=  1.4727  magn= -0.0110
     atom  61 (R=0.032)  charge=  1.5185  magn=  0.0488
     atom  62 (R=0.032)  charge=  1.5510  magn= -0.0088
     atom  63 (R=0.032)  charge=  1.5345  magn=  0.0253
     atom  64 (R=0.032)  charge=  1.5371  magn= -0.0087
     atom  65 (R=0.032)  charge=  1.5316  magn=  0.0086
     atom  66 (R=0.032)  charge=  1.5303  magn= -0.0034
     atom  67 (R=0.032)  charge=  1.5294  magn=  0.0021
     atom  68 (R=0.032)  charge=  1.5267  magn= -0.0020
     atom  69 (R=0.032)  charge=  1.5274  magn=  0.0017
     atom  70 (R=0.032)  charge=  1.5236  magn= -0.0024
     atom  71 (R=0.032)  charge=  1.5120  magn=  0.0040
     atom  72 (R=0.032)  charge=  1.5067  magn= -0.0045
     atom  73 (R=0.032)  charge=  1.5228  magn=  0.0117
     atom  74 (R=0.032)  charge=  1.5188  magn= -0.0082
     atom  75 (R=0.032)  charge=  1.5209  magn=  0.0144
     atom  76 (R=0.032)  charge=  1.5350  magn= -0.0016
     atom  77 (R=0.032)  charge=  1.5307  magn=  0.0052
     atom  78 (R=0.032)  charge=  1.5303  magn= -0.0034
     atom  79 (R=0.032)  charge=  1.5294  magn=  0.0021
     atom  80 (R=0.032)  charge=  1.5272  magn= -0.0019
     atom  81 (R=0.032)  charge=  1.5273  magn=  0.0038
     atom  82 (R=0.032)  charge=  1.5252  magn= -0.0016
     atom  83 (R=0.032)  charge=  1.5226  magn=  0.0017
     atom  84 (R=0.032)  charge=  1.5148  magn= -0.0022
     atom  85 (R=0.032)  charge=  1.5221  magn=  0.0013
     atom  86 (R=0.032)  charge=  1.5204  magn= -0.0032
     atom  87 (R=0.032)  charge=  1.5232  magn=  0.0102
     atom  88 (R=0.032)  charge=  1.5250  magn= -0.0039
     atom  89 (R=0.032)  charge=  1.5259  magn=  0.0020
     atom  90 (R=0.032)  charge=  1.5290  magn= -0.0020
     atom  91 (R=0.032)  charge=  1.5290  magn=  0.0051
     atom  92 (R=0.032)  charge=  1.5267  magn= -0.0020
     atom  93 (R=0.032)  charge=  1.5274  magn=  0.0017
     atom  94 (R=0.032)  charge=  1.5252  magn= -0.0016
     atom  95 (R=0.032)  charge=  1.5226  magn=  0.0017
     atom  96 (R=0.032)  charge=  1.5227  magn= -0.0018
     atom  97 (R=0.032)  charge=  1.5156  magn=  0.0044

     total cpu time spent up to now is     1615.4 secs

     End of self-consistent calculation

 ------ SPIN UP ------------


          k = 0.0000 0.0000 0.0000 (233409 PWs)   bands (ev):

   -23.7936 -23.4085 -23.3516 -23.3279 -23.3065 -23.2668 -23.1472 -22.4230
   -22.3917 -22.3850 -22.3778 -22.3079 -22.2100 -21.9414 -21.9289 -21.9093
   -21.8749 -21.8343 -21.5832 -20.5509 -20.5491 -20.5367 -20.5355 -20.5271
   -20.5086 -20.5080 -20.5028 -20.4806 -20.4683 -20.3761 -20.0593 -19.6560
   -19.6352 -19.6080 -19.5649 -19.5528 -19.2005 -18.3648 -18.3496 -18.3410
   -18.3351 -18.2848 -18.2817 -18.2718 -18.2622 -18.2447 -18.2159 -18.1774
   -17.6332 -17.2445 -17.2434 -17.2340 -17.1744 -17.0849 -16.8168 -16.3331
   -16.3289 -16.3053 -16.2253 -16.1869 -16.1000 -15.8240 -15.8085 -15.7954
   -15.7102 -15.6946 -15.0809 -14.4369 -14.4266 -14.4042 -14.3977 -14.3826
   -14.3808 -14.3670 -14.3480 -14.3354 -14.3083 -14.2738 -14.1884 -14.1884
   -14.1440 -14.1335 -13.8787 -13.7607 -13.1726 -12.7123 -12.6999 -12.6472
   -12.5774 -12.5341 -12.2816 -12.1425 -12.1379 -12.1179 -11.9882 -11.9617
   -11.8801 -11.8662 -11.6709 -11.6454 -11.6235 -11.6129 -11.5989 -11.5935
   -11.5839 -11.5377 -11.5339 -11.4417 -11.3896 -11.3557 -11.3448 -11.3274
   -11.3263 -11.3073 -11.2779 -11.2065 -11.1774 -11.1681 -11.1391 -10.9937
   -10.9086 -10.6439 -10.5958 -10.5682 -10.5573 -10.3337 -10.3158 -10.2440
   -10.2129 -10.2082 -10.2074 -10.1509 -10.1110 -10.0384  -9.9857  -9.9635
    -9.9569  -9.8718  -9.8270  -9.7280  -9.7148  -9.6954  -9.6952  -9.6777
    -9.6740  -9.6365  -9.6323  -9.6207  -9.6102  -9.3740  -9.2990  -9.2975
    -9.1104  -9.1005  -9.0744  -8.5725  -8.5371  -8.3252  -8.2605  -8.2249
    -8.2048  -8.1853  -8.1456  -8.1320  -8.1297  -8.1130  -8.1117  -8.0991
    -8.0990  -8.0868  -8.0678  -8.0618  -8.0217  -7.7129  -7.4838  -7.4701
    -7.3315  -7.3026  -7.3019  -7.2800  -7.2420  -6.9019  -6.2170  -6.2143
    -6.1964  -6.1759  -6.1680  -6.0062  -5.8049  -5.8013  -5.7935  -5.7923
    -5.7262  -5.1018  -4.8704  -2.8969  -2.8333  -2.8167  -2.7907  -2.7850
    -2.7741  -2.7545  -2.7543  -2.7468  -2.7321  -2.7002  -2.6357  -2.1961
    -1.7946  -1.7653  -1.7505  -1.7173  -1.6571  -1.2087  -0.9773  -0.3600
    -0.3576  -0.3280  -0.3073  -0.2992  -0.2933  -0.2877  -0.2692  -0.2621

 ------ SPIN DOWN ----------


          k = 0.0000 0.0000 0.0000 (233409 PWs)   bands (ev):

   -23.7794 -23.3780 -23.3452 -23.3212 -23.2992 -23.2523 -23.0928 -22.3838
   -22.3760 -22.3713 -22.3631 -22.2974 -22.1876 -21.9136 -21.9130 -21.8891
   -21.8567 -21.8156 -21.5147 -20.5427 -20.5390 -20.5151 -20.5089 -20.5003
   -20.4935 -20.4922 -20.4804 -20.4614 -20.4364 -20.3520 -20.0194 -19.6277
   -19.6188 -19.5935 -19.5322 -19.5253 -19.1450 -18.3477 -18.3338 -18.3287
   -18.3263 -18.2779 -18.2715 -18.2500 -18.2427 -18.2148 -18.2035 -18.0940
   -17.5317 -17.2339 -17.2316 -17.2238 -17.1384 -17.0690 -16.7614 -16.3126
   -16.3106 -16.2914 -16.1945 -16.1678 -16.0820 -15.8078 -15.7931 -15.7865
   -15.6820 -15.6137 -15.0126 -14.4146 -14.4013 -14.3902 -14.3848 -14.3740
   -14.3678 -14.3478 -14.3303 -14.3182 -14.2895 -14.2356 -14.1801 -14.1793
   -14.1386 -14.1166 -13.8018 -13.7308 -13.0909 -12.6913 -12.6724 -12.6340
   -12.5615 -12.4953 -12.2521 -12.1287 -12.1240 -12.0952 -11.9817 -11.9473
   -11.8581 -11.8289 -11.6470 -11.6351 -11.6153 -11.6033 -11.5853 -11.5751
   -11.5640 -11.5236 -11.5223 -11.4140 -11.3503 -11.3337 -11.3333 -11.3138
   -11.3002 -11.2970 -11.2503 -11.1891 -11.1652 -11.1513 -11.0641 -10.9836
   -10.8633 -10.6361 -10.5761 -10.5635 -10.5397 -10.3001 -10.2896 -10.1939
   -10.1932 -10.1851 -10.1819 -10.1281 -10.0644 -10.0018  -9.9656  -9.9500
    -9.9443  -9.8672  -9.8164  -9.7036  -9.6820  -9.6703  -9.6556  -9.6553
    -9.6388  -9.6217  -9.6092  -9.5867  -9.5114  -9.2807  -9.2663  -9.2600
    -9.1021  -9.0860  -9.0617  -8.5544  -8.4997  -8.2447  -8.2260  -8.2160
    -8.1730  -8.1122  -8.1068  -8.0900  -8.0863  -8.0749  -8.0714  -8.0668
    -8.0603  -8.0468  -8.0203  -8.0101  -7.9789  -7.6617  -7.4712  -7.4170
    -7.2950  -7.2890  -7.2723  -7.2341  -7.1922  -6.8270  -6.1910  -6.1873
    -6.1739  -6.1410  -6.1154  -5.9661  -5.7826  -5.7823  -5.7500  -5.6956
    -5.6801  -4.5132  -2.8936  -2.8228  -2.7953  -2.7764  -2.7651  -2.7564
    -2.7370  -2.7341  -2.7220  -2.7163  -2.6119  -2.5474  -2.5393  -2.1518
    -1.7755  -1.7521  -1.7080  -1.6323  -1.6060  -1.1361  -0.9698  -0.3447
    -0.3405  -0.3029  -0.2821  -0.2728  -0.2623  -0.2611  -0.2323  -0.2284

     the Fermi energy is    -4.7481 ev

!    total energy              =   -1168.11414258 Ry
     estimated scf accuracy    <          3.9E-13 Ry
     smearing contrib. (-TS)   =       0.00092001 Ry
     internal energy E=F+TS    =   -1168.11506259 Ry

     The total energy is F=E-TS. E is the sum of the following terms:
     one-electron contribution =  -13175.42844482 Ry
     hartree contribution      =    6623.93180664 Ry
     xc contribution           =    -415.41272471 Ry
     ewald contribution        =    5798.79430030 Ry

     total magnetization       =     2.00 Bohr mag/cell
     absolute magnetization    =     2.84 Bohr mag/cell

     convergence has been achieved in  10 iterations

     Forces acting on atoms (cartesian axes, Ry/au):

     atom    1 type  1   force =     0.00000117    0.00000017    0.00000000
     atom    2 type  1   force =    -0.00006240    0.00000006    0.00000000
     atom    3 type  1   force =     0.00000593    0.00001171   -0.00000000
     atom    4 type  1   force =    -0.00002158    0.00002390   -0.00000000
     atom    5 type  1   force =     0.00001553    0.00004784    0.00000000
     atom    6 type  1   force =    -0.00001284   -0.00000116    0.00000000
     atom    7 type  1   force =    -0.00000710   -0.00000243    0.00000000
     atom    8 type  1   force =    -0.00001438   -0.00000794   -0.00000000
     atom    9 type  1   force =    -0.00002337   -0.00000901    0.00000000
     atom   10 type  1   force =    -0.00003404    0.00001864   -0.00000000
     atom   11 type  1   force =     0.00000127   -0.00000201    0.00000000
     atom   12 type  1   force =     0.00000007    0.00003457   -0.00000000
     atom   13 type  1   force =    -0.00002654    0.00001791   -0.00000000
     atom   14 type  1   force =    -0.00000705   -0.00002712    0.00000000
     atom   15 type  1   force =     0.00000597   -0.00001119   -0.00000000
     atom   16 type  1   force =    -0.00002156   -0.00002383   -0.00000000
     atom   17 type  1   force =     0.00000992    0.00000025    0.00000000
     atom   18 type  1   force =     0.00003867   -0.00000000    0.00000000
     atom   19 type  1   force =    -0.00000916    0.00000460   -0.00000000
     atom   20 type  1   force =     0.00003573    0.00000221    0.00000000
     atom   21 type  1   force =     0.00001144    0.00005182    0.00000000
     atom   22 type  1   force =    -0.00003380   -0.00000397   -0.00000000
     atom   23 type  1   force =    -0.00000301    0.00003830   -0.00000000
     atom   24 type  1   force =     0.00000402    0.00004728    0.00000000
     atom   25 type  1   force =    -0.00005050    0.00002687    0.00000000
     atom   26 type  1   force =     0.00000526    0.00003665    0.00000000
     atom   27 type  1   force =     0.00002453   -0.00000341    0.00000000
     atom   28 type  1   force =    -0.00003841   -0.00003516   -0.00000000
     atom   29 type  1   force =     0.00001563   -0.00004741   -0.00000000
     atom   30 type  1   force =    -0.00001299    0.00000112   -0.00000000
     atom   31 type  1   force =    -0.00000915   -0.00000439    0.00000000
     atom   32 type  1   force =     0.00003560   -0.00000237    0.00000000
     atom   33 type  1   force =     0.00002290   -0.00000006    0.00000000
     atom   34 type  1   force =     0.00003155   -0.00000012    0.00000000
     atom   35 type  1   force =    -0.00001488    0.00005241   -0.00000001
     atom   36 type  2   force =     0.00000253   -0.00003124   -0.00000000
     atom   37 type  1   force =    -0.00004520    0.00004230   -0.00000001
     atom   38 type  1   force =    -0.00000288    0.00000805    0.00000001
     atom   39 type  1   force =    -0.00001227   -0.00000683    0.00000000
     atom   40 type  1   force =    -0.00000443   -0.00001947    0.00000000
     atom   41 type  1   force =     0.00001534   -0.00001956    0.00000000
     atom   42 type  1   force =     0.00000144   -0.00003610   -0.00000000
     atom   43 type  1   force =    -0.00000703    0.00000246    0.00000000
     atom   44 type  1   force =    -0.00001466    0.00000769   -0.00000000
     atom   45 type  1   force =     0.00001132   -0.00005198   -0.00000000
     atom   46 type  1   force =    -0.00003407    0.00000366    0.00000000
     atom   47 type  1   force =    -0.00001511   -0.00005272    0.00000000
     atom   48 type  2   force =     0.00000225    0.00003099    0.00000000
     atom   49 type  2   force =     0.00004430    0.00000089   -0.00000000
     atom   50 type  1   force =     0.00004142    0.00001494   -0.00000001
     atom   51 type  1   force =     0.00003455    0.00003664    0.00000000
     atom   52 type  1   force =     0.00005359    0.00000408    0.00000000
     atom   53 type  1   force =     0.00002804    0.00001153   -0.00000000
     atom   54 type  1   force =     0.00004024   -0.00001406   -0.00000000
     atom   55 type  1   force =    -0.00002576    0.00003462   -0.00000000
     atom   56 type  1   force =    -0.00002342    0.00000875    0.00000000
     atom   57 type  1   force =    -0.00003428   -0.00001894    0.00000000
     atom   58 type  1   force =    -0.00000320   -0.00003857    0.00000001
     atom   59 type  1   force =     0.00000371   -0.00004744   -0.00000000
     atom   60 type  1   force =    -0.00004532   -0.00004246   -0.00000000
     atom   61 type  1   force =    -0.00000328   -0.00000769   -0.00000000
     atom   62 type  1   force =     0.00004158   -0.00001560   -0.00000001
     atom   63 type  1   force =     0.00003447   -0.00003573    0.00000000
     atom   64 type  1   force =     0.00000219   -0.00000033   -0.00000000
     atom   65 type  1   force =    -0.00002017    0.00000028   -0.00000000
     atom   66 type  1   force =     0.00000864   -0.00000528   -0.00000000
     atom   67 type  1   force =     0.00001420    0.00001390   -0.00000000
     atom   68 type  1   force =     0.00000965    0.00004422    0.00000000
     atom   69 type  1   force =    -0.00003591    0.00001801    0.00000000
     atom   70 type  1   force =     0.00000121    0.00000176   -0.00000000
     atom   71 type  1   force =    -0.00000009   -0.00003477   -0.00000000
     atom   72 type  1   force =    -0.00005058   -0.00002688   -0.00000000
     atom   73 type  1   force =     0.00000494   -0.00003663   -0.00000000
     atom   74 type  1   force =    -0.00001232    0.00000718   -0.00000000
     atom   75 type  1   force =    -0.00000460    0.00001962    0.00000000
     atom   76 type  1   force =     0.00005338   -0.00000403    0.00000000
     atom   77 type  1   force =     0.00002815   -0.00001123   -0.00000000
     atom   78 type  1   force =     0.00000851    0.00000494   -0.00000000
     atom   79 type  1   force =     0.00001432   -0.00001385    0.00000000
     atom   80 type  1   force =     0.00000841   -0.00000020    0.00000000
     atom   81 type  1   force =    -0.00002409   -0.00000011   -0.00000000
     atom   82 type  1   force =     0.00002979    0.00003435    0.00000000
     atom   83 type  1   force =    -0.00001896    0.00001626   -0.00000000
     atom   84 type  1   force =    -0.00002655   -0.00001793   -0.00000000
     atom   85 type  1   force =    -0.00000714    0.00002720    0.00000000
     atom   86 type  1   force =     0.00002451    0.00000382    0.00000000
     atom   87 type  1   force =    -0.00003857    0.00003525   -0.00000000
     atom   88 type  1   force =     0.00001519    0.00002009   -0.00000000
     atom   89 type  1   force =     0.00000146    0.00003617    0.00000000
     atom   90 type  1   force =     0.00004003    0.00001420   -0.00000000
     atom   91 type  1   force =    -0.00002559   -0.00003468    0.00000000
     atom   92 type  1   force =     0.00000955   -0.00004447   -0.00000000
     atom   93 type  1   force =    -0.00003572   -0.00001828    0.00000000
     atom   94 type  1   force =     0.00002977   -0.00003472   -0.00000000
     atom   95 type  1   force =    -0.00001887   -0.00001659    0.00000000
     atom   96 type  1   force =     0.00005863   -0.00000013   -0.00000000
     atom   97 type  1   force =     0.00001028   -0.00000008    0.00000000

     Total force =     0.000353     Total SCF correction =     0.000000
     Energy error            =      2.5E-07 Ry
     Gradient error          =      6.2E-05 Ry/Bohr

     bfgs converged in  23 scf cycles and  22 bfgs steps
     (criteria: energy <  1.0E-05 Ry, force <  1.0E-04 Ry/Bohr)

     End of BFGS Geometry Optimization

     Final energy             =   -1168.1141425802 Ry

     File /home/gregb26/links/scratch/qe_tmp/vacancy_relaxed/series/7x7/nspin2/vac_7x7_relax_nspin2.bfgs deleted, as requested
Begin final coordinates

ATOMIC_POSITIONS (crystal)
C                0.0471142611        0.0471141467       -0.0000000005
C                0.0946687016        0.0946685473        0.0000000010
C                0.0466596527        0.1901323976        0.0000000023
C                0.0943458607        0.2375998640        0.0000000023
C                0.0468034864        0.3329659307        0.0000000013
C                0.0943891572        0.3805120584       -0.0000000002
C                0.0478137546        0.4758300754       -0.0000000008
C                0.0956426323        0.5232258795        0.0000000001
C                0.0487573750        0.6185440564       -0.0000000007
C                0.0970117304        0.6654872652        0.0000000006
C                0.0491483164        0.7607610575       -0.0000000011
C                0.0977950256        0.8071637944       -0.0000000010
C                0.0486363246        0.9034046429       -0.0000000021
C                0.0956554825        0.9513889494       -0.0000000018
C                0.1901325505        0.0466594725        0.0000000012
C                0.2375999870        0.0943457182        0.0000000021
C                0.1896455841        0.1896454528        0.0000000019
C                0.2371429776        0.2371429267        0.0000000009
C                0.1893010804        0.3324621271        0.0000000004
C                0.2365738491        0.3798893976        0.0000000017
C                0.1906778276        0.4749553265        0.0000000023
C                0.2390809913        0.5218695724        0.0000000048
C                0.1930689935        0.6165647363        0.0000000034
C                0.2440234927        0.6606419061        0.0000000026
C                0.1942804244        0.7576746895        0.0000000001
C                0.2397551591        0.8072540878       -0.0000000009
C                0.1911967764        0.9030484640       -0.0000000015
C                0.2383031979        0.9511994136        0.0000000000
C                0.3329660352        0.0468033671        0.0000000020
C                0.3805120898        0.0943891350        0.0000000013
C                0.3324621608        0.1893010678        0.0000000005
C                0.3798893555        0.2365739259       -0.0000000003
C                0.3314743932        0.3314744697        0.0000000013
C                0.3780997456        0.3780998558        0.0000000028
C                0.3346578149        0.4725819801        0.0000000063
C1               0.3890063079        0.5112361960        0.0000000051
C                0.3426224104        0.6091436651        0.0000000031
C                0.3838109962        0.6639502630        0.0000000005
C                0.3351298053        0.7593181617       -0.0000000003
C                0.3819397436        0.8084613521       -0.0000000002
C                0.3337047044        0.9036997314        0.0000000004
C                0.3810437835        0.9517412535        0.0000000017
C                0.4758300752        0.0478137963        0.0000000001
C                0.5232258125        0.0956427749       -0.0000000019
C                0.4749552717        0.1906779818       -0.0000000019
C                0.5218694937        0.2390811993       -0.0000000033
C                0.4725818871        0.3346580318       -0.0000000012
C1               0.5112361244        0.3890065327       -0.0000000018
C1               0.5292059640        0.5292057495       -0.0000000010
C                0.4786642167        0.6205263221        0.0000000003
C                0.5257672998        0.6685353488        0.0000000007
C                0.4771687522        0.7629408748        0.0000000010
C                0.5246031423        0.8104583968        0.0000000020
C                0.4763996182        0.9052699703        0.0000000018
C                0.5239595815        0.9528440205        0.0000000009
C                0.6185439675        0.0487575470       -0.0000000036
C                0.6654871692        0.0970119259       -0.0000000044
C                0.6165646643        0.1930691909       -0.0000000042
C                0.6606418929        0.2440236398       -0.0000000028
C                0.6091436756        0.3426225325       -0.0000000017
C                0.6639504327        0.3838109542       -0.0000000011
C                0.6205265097        0.4786641488       -0.0000000008
C                0.6685355336        0.5257672038        0.0000000004
C                0.6206397328        0.6206396478        0.0000000016
C                0.6680435177        0.6680434721        0.0000000022
C                0.6199242075        0.7630646502        0.0000000019
C                0.6674098577        0.8105454294        0.0000000012
C                0.6193357118        0.9056706575       -0.0000000001
C                0.6667382840        0.9533993305       -0.0000000024
C                0.7607609618        0.0491484869       -0.0000000040
C                0.8071637683        0.0977951320       -0.0000000028
C                0.7576747115        0.1942805126       -0.0000000018
C                0.8072542258        0.2397551286       -0.0000000003
C                0.7593183352        0.3351297464       -0.0000000002
C                0.8084615384        0.3819396599        0.0000000010
C                0.7629410417        0.4771686720        0.0000000009
C                0.8104584952        0.5246031001        0.0000000012
C                0.7630646757        0.6199241960        0.0000000014
C                0.8105453696        0.6674099163       -0.0000000002
C                0.7627136549        0.7627137437       -0.0000000004
C                0.8102225815        0.8102227296       -0.0000000021
C                0.7621045039        0.9056457261       -0.0000000031
C                0.8094198837        0.9533906906       -0.0000000037
C                0.9034046359        0.0486363715       -0.0000000019
C                0.9513890506        0.0956554207       -0.0000000004
C                0.9030486146        0.1911966963        0.0000000007
C                0.9511995942        0.2383030825        0.0000000021
C                0.9036999172        0.3337045902        0.0000000022
C                0.9517413816        0.3810437049        0.0000000018
C                0.9052700520        0.4763995672        0.0000000008
C                0.9528439959        0.5239596031       -0.0000000010
C                0.9056705775        0.6193357691       -0.0000000016
C                0.9533991715        0.6667383989       -0.0000000021
C                0.9056455605        0.7621046406       -0.0000000027
C                0.9533905194        0.8094200188       -0.0000000028
C                0.9050032934        0.9050034283       -0.0000000033
C                0.9525030171        0.9525030800       -0.0000000026
End final coordinates



     Writing all to output data dir /home/gregb26/links/scratch/qe_tmp/vacancy_relaxed/series/7x7/nspin2/vac_7x7_relax_nspin2.save/ :
     XML data file, charge density, pseudopotentials, collected wavefunctions

     init_run     :      3.94s CPU      4.40s WALL (       1 calls)
     electrons    :   1504.73s CPU   1565.46s WALL (      23 calls)
     update_pot   :      4.23s CPU      7.85s WALL (      22 calls)
     forces       :     27.10s CPU     31.94s WALL (      23 calls)

     Called by init_run:
     wfcinit      :      2.11s CPU      2.26s WALL (       1 calls)
     potinit      :      0.15s CPU      0.34s WALL (       1 calls)
     hinit0       :      1.04s CPU      1.14s WALL (       1 calls)

     Called by electrons:
     c_bands      :   1298.69s CPU   1323.50s WALL (     361 calls)
     sum_band     :    132.41s CPU    135.05s WALL (     361 calls)
     v_of_rho     :     62.56s CPU     91.98s WALL (     374 calls)
     mix_rho      :      9.80s CPU     11.30s WALL (     361 calls)

     Called by c_bands:
     init_us_2    :     12.07s CPU     12.21s WALL (    1492 calls)
     regterg      :   1255.58s CPU   1279.15s WALL (     722 calls)

     Called by *egterg:
     rdiaghg      :     67.34s CPU     71.70s WALL (    3498 calls)
     h_psi        :    895.07s CPU    909.28s WALL (    3564 calls)
     g_psi        :      2.01s CPU      2.05s WALL (    2840 calls)

     Called by h_psi:
     h_psi:calbec :    130.28s CPU    131.55s WALL (    3564 calls)
     vloc_psi     :    648.71s CPU    660.75s WALL (    3564 calls)
                                        0.00s GPU  (    3564 calls)
     add_vuspsi   :    113.37s CPU    114.25s WALL (    3564 calls)

     General routines
     calbec       :    143.65s CPU    145.26s WALL (    3748 calls)
     fft          :     44.62s CPU     79.38s WALL (    5193 calls)
     ffts         :      1.69s CPU      2.49s WALL (     361 calls)
     fftw         :    699.89s CPU    712.62s WALL (  514210 calls)

     Parallel routines

     PWSCF        :   1548.53s CPU   1627.46s WALL


   This run was terminated on:   9:53:56  23Sep2026            

=------------------------------------------------------------------------------=
   JOB DONE.
=------------------------------------------------------------------------------=
