
     Program PWSCF v.7.5 starts on 25Sep2026 at 15:57:42 

     This program is part of the open-source Quantum ESPRESSO suite
     for quantum simulation of materials; please cite
         "P. Giannozzi et al., J. Phys.:Condens. Matter 21 395502 (2009);
         "P. Giannozzi et al., J. Phys.:Condens. Matter 29 465901 (2017);
         "P. Giannozzi et al., J. Chem. Phys. 152 154105 (2020);
          URL http://www.quantum-espresso.org", 
     in publications or presentations arising from this work. More details at
     http://www.quantum-espresso.org/quote

     Parallel version (MPI & OpenMP), running on      64 processor cores
     Number of MPI processes:                64
     Threads/MPI process:                     1

     MPI processes distributed on     8 nodes
     436330 MiB available memory on the printing compute node when the environment starts

     Waiting for input...
     Reading input from standard input

     Current dimensions of program PWSCF are:
     Max number of different atomic species (ntypx) = 10
     Max number of k-points (npk) =  40000
     Max angular momentum in pseudopotentials (lmaxx) =  4

     gamma-point specific algorithms are used
     Message from routine setup:
     using ibrav=0 with symmetry is DISCOURAGED, use correct ibrav instead

     R & G space division:  proc/nbgrp/npool/nimage =      64
     Subspace diagonalization in iterative solution of the eigenvalue problem:
     one sub-group per band group will be used
     ELPA distributed-memory algorithm (size of sub-group:  8*  8 procs)


     Parallelization info
     --------------------
     sticks:   dense  smooth     PW     G-vecs:    dense   smooth      PW
     Min        2104    2104    525               267936   267936   33486
     Max        2106    2106    528               267946   267946   33492
     Sum      134707  134707  33679             17148125 17148125 2143361

     Using Slab Decomposition



     bravais-lattice index     =            0
     lattice parameter (alat)  =      69.8968  a.u.
     unit-cell volume          =  126930.5326 (a.u.)^3
     number of atoms/cell      =          449
     number of atomic types    =            1
     number of electrons       =      1796.00
     number of Kohn-Sham states=          928
     kinetic-energy cutoff     =     100.0000  Ry
     charge density cutoff     =     400.0000  Ry
     scf convergence threshold =      1.0E-10
     mixing beta               =       0.3000
     number of iterations used =            8  plain     mixing
     Exchange-correlation= PBE
                           (   1   4   3   4   0   0   0)

     celldm(1)=  69.896770  celldm(2)=   0.000000  celldm(3)=   0.000000
     celldm(4)=   0.000000  celldm(5)=   0.000000  celldm(6)=   0.000000

     crystal axes: (cart. coord. in units of alat)
               a(1) = (   0.866025  -0.500000   0.000000 )  
               a(2) = (   0.866025   0.500000   0.000000 )  
               a(3) = (   0.000000   0.000000   0.429204 )  

     reciprocal axes: (cart. coord. in units 2 pi/alat)
               b(1) = (  0.577350 -1.000000  0.000000 )  
               b(2) = (  0.577350  1.000000 -0.000000 )  
               b(3) = ( -0.000000  0.000000  2.329892 )  


     PseudoPot. # 1 for C  read from file:
     /home/gregb26/links/projects/rrg-cotemich-ac/gregb26/abinit_processing/pseudo/C.upf
     MD5 check sum: 34a24e64c0a39f27c6c36b90a16ac686
     Pseudo is Norm-conserving + core correction, Zval =  4.0
     Generated using ONCVPSP code by D. R. Hamann
     Using radial grid of 1248 points,  4 beta functions with: 
                l(1) =   0
                l(2) =   0
                l(3) =   1
                l(4) =   1

     atomic species   valence    mass     pseudopotential
     C                 4.00    12.01100     C ( 1.00)

      4 Sym. Ops. (no inversion) found



   Cartesian axes

     site n.     atom                  positions (alat units)
         1        C      tau(   1) = (   0.0384900   0.0000000   0.0000000  )
         2        C      tau(   2) = (   0.0769800   0.0000000   0.0000000  )
         3        C      tau(   3) = (   0.0962250   0.0333333   0.0000000  )
         4        C      tau(   4) = (   0.1347151   0.0333333   0.0000000  )
         5        C      tau(   5) = (   0.1539601   0.0666667   0.0000000  )
         6        C      tau(   6) = (   0.1924501   0.0666667   0.0000000  )
         7        C      tau(   7) = (   0.2116951   0.1000000   0.0000000  )
         8        C      tau(   8) = (   0.2501851   0.1000000   0.0000000  )
         9        C      tau(   9) = (   0.2694301   0.1333333   0.0000000  )
        10        C      tau(  10) = (   0.3079201   0.1333333   0.0000000  )
        11        C      tau(  11) = (   0.3271652   0.1666667   0.0000000  )
        12        C      tau(  12) = (   0.3656552   0.1666667   0.0000000  )
        13        C      tau(  13) = (   0.3849002   0.2000000   0.0000000  )
        14        C      tau(  14) = (   0.4233902   0.2000000   0.0000000  )
        15        C      tau(  15) = (   0.4426352   0.2333333   0.0000000  )
        16        C      tau(  16) = (   0.4811252   0.2333333   0.0000000  )
        17        C      tau(  17) = (   0.5003702   0.2666667   0.0000000  )
        18        C      tau(  18) = (   0.5388603   0.2666667   0.0000000  )
        19        C      tau(  19) = (   0.5581053   0.3000000   0.0000000  )
        20        C      tau(  20) = (   0.5965953   0.3000000   0.0000000  )
        21        C      tau(  21) = (   0.6158403   0.3333333   0.0000000  )
        22        C      tau(  22) = (   0.6543303   0.3333333   0.0000000  )
        23        C      tau(  23) = (   0.6735753   0.3666667   0.0000000  )
        24        C      tau(  24) = (   0.7120653   0.3666667   0.0000000  )
        25        C      tau(  25) = (   0.7313103   0.4000000   0.0000000  )
        26        C      tau(  26) = (   0.7698004   0.4000000   0.0000000  )
        27        C      tau(  27) = (   0.7890454   0.4333333   0.0000000  )
        28        C      tau(  28) = (   0.8275354   0.4333333   0.0000000  )
        29        C      tau(  29) = (   0.8467804   0.4666667   0.0000000  )
        30        C      tau(  30) = (   0.8852704   0.4666667   0.0000000  )
        31        C      tau(  31) = (   0.0962250  -0.0333333   0.0000000  )
        32        C      tau(  32) = (   0.1347151  -0.0333333   0.0000000  )
        33        C      tau(  33) = (   0.1539601   0.0000000   0.0000000  )
        34        C      tau(  34) = (   0.1924501  -0.0000000   0.0000000  )
        35        C      tau(  35) = (   0.2116951   0.0333333   0.0000000  )
        36        C      tau(  36) = (   0.2501851   0.0333333   0.0000000  )
        37        C      tau(  37) = (   0.2694301   0.0666667   0.0000000  )
        38        C      tau(  38) = (   0.3079201   0.0666667   0.0000000  )
        39        C      tau(  39) = (   0.3271652   0.1000000   0.0000000  )
        40        C      tau(  40) = (   0.3656552   0.1000000   0.0000000  )
        41        C      tau(  41) = (   0.3849002   0.1333333   0.0000000  )
        42        C      tau(  42) = (   0.4233902   0.1333333   0.0000000  )
        43        C      tau(  43) = (   0.4426352   0.1666667   0.0000000  )
        44        C      tau(  44) = (   0.4811252   0.1666667   0.0000000  )
        45        C      tau(  45) = (   0.5003702   0.2000000   0.0000000  )
        46        C      tau(  46) = (   0.5388603   0.2000000   0.0000000  )
        47        C      tau(  47) = (   0.5581053   0.2333333   0.0000000  )
        48        C      tau(  48) = (   0.5965953   0.2333333   0.0000000  )
        49        C      tau(  49) = (   0.6158403   0.2666667   0.0000000  )
        50        C      tau(  50) = (   0.6543303   0.2666667   0.0000000  )
        51        C      tau(  51) = (   0.6735753   0.3000000   0.0000000  )
        52        C      tau(  52) = (   0.7120653   0.3000000   0.0000000  )
        53        C      tau(  53) = (   0.7313103   0.3333333   0.0000000  )
        54        C      tau(  54) = (   0.7698004   0.3333333   0.0000000  )
        55        C      tau(  55) = (   0.7890454   0.3666667   0.0000000  )
        56        C      tau(  56) = (   0.8275354   0.3666667   0.0000000  )
        57        C      tau(  57) = (   0.8467804   0.4000000   0.0000000  )
        58        C      tau(  58) = (   0.8852704   0.4000000   0.0000000  )
        59        C      tau(  59) = (   0.9045154   0.4333333   0.0000000  )
        60        C      tau(  60) = (   0.9430054   0.4333333   0.0000000  )
        61        C      tau(  61) = (   0.1539601  -0.0666667   0.0000000  )
        62        C      tau(  62) = (   0.1924501  -0.0666667   0.0000000  )
        63        C      tau(  63) = (   0.2116951  -0.0333333   0.0000000  )
        64        C      tau(  64) = (   0.2501851  -0.0333333   0.0000000  )
        65        C      tau(  65) = (   0.2694301   0.0000000   0.0000000  )
        66        C      tau(  66) = (   0.3079201   0.0000000   0.0000000  )
        67        C      tau(  67) = (   0.3271652   0.0333333   0.0000000  )
        68        C      tau(  68) = (   0.3656552   0.0333333   0.0000000  )
        69        C      tau(  69) = (   0.3849002   0.0666667   0.0000000  )
        70        C      tau(  70) = (   0.4233902   0.0666667   0.0000000  )
        71        C      tau(  71) = (   0.4426352   0.1000000   0.0000000  )
        72        C      tau(  72) = (   0.4811252   0.1000000   0.0000000  )
        73        C      tau(  73) = (   0.5003702   0.1333333   0.0000000  )
        74        C      tau(  74) = (   0.5388603   0.1333333   0.0000000  )
        75        C      tau(  75) = (   0.5581053   0.1666667   0.0000000  )
        76        C      tau(  76) = (   0.5965953   0.1666667   0.0000000  )
        77        C      tau(  77) = (   0.6158403   0.2000000   0.0000000  )
        78        C      tau(  78) = (   0.6543303   0.2000000   0.0000000  )
        79        C      tau(  79) = (   0.6735753   0.2333333   0.0000000  )
        80        C      tau(  80) = (   0.7120653   0.2333333   0.0000000  )
        81        C      tau(  81) = (   0.7313103   0.2666667   0.0000000  )
        82        C      tau(  82) = (   0.7698004   0.2666667   0.0000000  )
        83        C      tau(  83) = (   0.7890454   0.3000000   0.0000000  )
        84        C      tau(  84) = (   0.8275354   0.3000000   0.0000000  )
        85        C      tau(  85) = (   0.8467804   0.3333333   0.0000000  )
        86        C      tau(  86) = (   0.8852704   0.3333333   0.0000000  )
        87        C      tau(  87) = (   0.9045154   0.3666667   0.0000000  )
        88        C      tau(  88) = (   0.9430054   0.3666667   0.0000000  )
        89        C      tau(  89) = (   0.9622504   0.4000000   0.0000000  )
        90        C      tau(  90) = (   1.0007405   0.4000000   0.0000000  )
        91        C      tau(  91) = (   0.2116951  -0.1000000   0.0000000  )
        92        C      tau(  92) = (   0.2501851  -0.1000000   0.0000000  )
        93        C      tau(  93) = (   0.2694301  -0.0666667   0.0000000  )
        94        C      tau(  94) = (   0.3079201  -0.0666667   0.0000000  )
        95        C      tau(  95) = (   0.3271652  -0.0333333   0.0000000  )
        96        C      tau(  96) = (   0.3656552  -0.0333333   0.0000000  )
        97        C      tau(  97) = (   0.3849002  -0.0000000   0.0000000  )
        98        C      tau(  98) = (   0.4233902  -0.0000000   0.0000000  )
        99        C      tau(  99) = (   0.4426352   0.0333333   0.0000000  )
       100        C      tau( 100) = (   0.4811252   0.0333333   0.0000000  )
       101        C      tau( 101) = (   0.5003702   0.0666667   0.0000000  )
       102        C      tau( 102) = (   0.5388603   0.0666667   0.0000000  )
       103        C      tau( 103) = (   0.5581053   0.1000000   0.0000000  )
       104        C      tau( 104) = (   0.5965953   0.1000000   0.0000000  )
       105        C      tau( 105) = (   0.6158403   0.1333333   0.0000000  )
       106        C      tau( 106) = (   0.6543303   0.1333333   0.0000000  )
       107        C      tau( 107) = (   0.6735753   0.1666667   0.0000000  )
       108        C      tau( 108) = (   0.7120653   0.1666667   0.0000000  )
       109        C      tau( 109) = (   0.7313103   0.2000000   0.0000000  )
       110        C      tau( 110) = (   0.7698004   0.2000000   0.0000000  )
       111        C      tau( 111) = (   0.7890454   0.2333333   0.0000000  )
       112        C      tau( 112) = (   0.8275354   0.2333333   0.0000000  )
       113        C      tau( 113) = (   0.8467804   0.2666667   0.0000000  )
       114        C      tau( 114) = (   0.8852704   0.2666667   0.0000000  )
       115        C      tau( 115) = (   0.9045154   0.3000000   0.0000000  )
       116        C      tau( 116) = (   0.9430054   0.3000000   0.0000000  )
       117        C      tau( 117) = (   0.9622504   0.3333333   0.0000000  )
       118        C      tau( 118) = (   1.0007405   0.3333333   0.0000000  )
       119        C      tau( 119) = (   1.0199855   0.3666667   0.0000000  )
       120        C      tau( 120) = (   1.0584755   0.3666667   0.0000000  )
       121        C      tau( 121) = (   0.2694301  -0.1333333   0.0000000  )
       122        C      tau( 122) = (   0.3079201  -0.1333333   0.0000000  )
       123        C      tau( 123) = (   0.3271652  -0.1000000   0.0000000  )
       124        C      tau( 124) = (   0.3656552  -0.1000000   0.0000000  )
       125        C      tau( 125) = (   0.3849002  -0.0666667   0.0000000  )
       126        C      tau( 126) = (   0.4233902  -0.0666667   0.0000000  )
       127        C      tau( 127) = (   0.4426352  -0.0333333   0.0000000  )
       128        C      tau( 128) = (   0.4811252  -0.0333333   0.0000000  )
       129        C      tau( 129) = (   0.5003702  -0.0000000   0.0000000  )
       130        C      tau( 130) = (   0.5388603   0.0000000   0.0000000  )
       131        C      tau( 131) = (   0.5581053   0.0333333   0.0000000  )
       132        C      tau( 132) = (   0.5965953   0.0333333   0.0000000  )
       133        C      tau( 133) = (   0.6158403   0.0666667   0.0000000  )
       134        C      tau( 134) = (   0.6543303   0.0666667   0.0000000  )
       135        C      tau( 135) = (   0.6735753   0.1000000   0.0000000  )
       136        C      tau( 136) = (   0.7120653   0.1000000   0.0000000  )
       137        C      tau( 137) = (   0.7313103   0.1333333   0.0000000  )
       138        C      tau( 138) = (   0.7698004   0.1333333   0.0000000  )
       139        C      tau( 139) = (   0.7890454   0.1666667   0.0000000  )
       140        C      tau( 140) = (   0.8275354   0.1666667   0.0000000  )
       141        C      tau( 141) = (   0.8467804   0.2000000   0.0000000  )
       142        C      tau( 142) = (   0.8852704   0.2000000   0.0000000  )
       143        C      tau( 143) = (   0.9045154   0.2333333   0.0000000  )
       144        C      tau( 144) = (   0.9430054   0.2333333   0.0000000  )
       145        C      tau( 145) = (   0.9622504   0.2666667   0.0000000  )
       146        C      tau( 146) = (   1.0007405   0.2666667   0.0000000  )
       147        C      tau( 147) = (   1.0199855   0.3000000   0.0000000  )
       148        C      tau( 148) = (   1.0584755   0.3000000   0.0000000  )
       149        C      tau( 149) = (   1.0777205   0.3333333   0.0000000  )
       150        C      tau( 150) = (   1.1162105   0.3333333   0.0000000  )
       151        C      tau( 151) = (   0.3271652  -0.1666667   0.0000000  )
       152        C      tau( 152) = (   0.3656552  -0.1666667   0.0000000  )
       153        C      tau( 153) = (   0.3849002  -0.1333333   0.0000000  )
       154        C      tau( 154) = (   0.4233902  -0.1333333   0.0000000  )
       155        C      tau( 155) = (   0.4426352  -0.1000000   0.0000000  )
       156        C      tau( 156) = (   0.4811252  -0.1000000   0.0000000  )
       157        C      tau( 157) = (   0.5003702  -0.0666667   0.0000000  )
       158        C      tau( 158) = (   0.5388603  -0.0666667   0.0000000  )
       159        C      tau( 159) = (   0.5581053  -0.0333333   0.0000000  )
       160        C      tau( 160) = (   0.5965953  -0.0333333   0.0000000  )
       161        C      tau( 161) = (   0.6158403   0.0000000   0.0000000  )
       162        C      tau( 162) = (   0.6543303  -0.0000000   0.0000000  )
       163        C      tau( 163) = (   0.6735753   0.0333333   0.0000000  )
       164        C      tau( 164) = (   0.7120653   0.0333333   0.0000000  )
       165        C      tau( 165) = (   0.7313103   0.0666667   0.0000000  )
       166        C      tau( 166) = (   0.7698004   0.0666667   0.0000000  )
       167        C      tau( 167) = (   0.7890454   0.1000000   0.0000000  )
       168        C      tau( 168) = (   0.8275354   0.1000000   0.0000000  )
       169        C      tau( 169) = (   0.8467804   0.1333333   0.0000000  )
       170        C      tau( 170) = (   0.8852704   0.1333333   0.0000000  )
       171        C      tau( 171) = (   0.9045154   0.1666667   0.0000000  )
       172        C      tau( 172) = (   0.9430054   0.1666667   0.0000000  )
       173        C      tau( 173) = (   0.9622504   0.2000000   0.0000000  )
       174        C      tau( 174) = (   1.0007405   0.2000000   0.0000000  )
       175        C      tau( 175) = (   1.0199855   0.2333333   0.0000000  )
       176        C      tau( 176) = (   1.0584755   0.2333333   0.0000000  )
       177        C      tau( 177) = (   1.0777205   0.2666667   0.0000000  )
       178        C      tau( 178) = (   1.1162105   0.2666667   0.0000000  )
       179        C      tau( 179) = (   1.1354555   0.3000000   0.0000000  )
       180        C      tau( 180) = (   1.1739455   0.3000000   0.0000000  )
       181        C      tau( 181) = (   0.3849002  -0.2000000   0.0000000  )
       182        C      tau( 182) = (   0.4233902  -0.2000000   0.0000000  )
       183        C      tau( 183) = (   0.4426352  -0.1666667   0.0000000  )
       184        C      tau( 184) = (   0.4811252  -0.1666667   0.0000000  )
       185        C      tau( 185) = (   0.5003702  -0.1333333   0.0000000  )
       186        C      tau( 186) = (   0.5388603  -0.1333333   0.0000000  )
       187        C      tau( 187) = (   0.5581053  -0.1000000   0.0000000  )
       188        C      tau( 188) = (   0.5965953  -0.1000000   0.0000000  )
       189        C      tau( 189) = (   0.6158403  -0.0666667   0.0000000  )
       190        C      tau( 190) = (   0.6543303  -0.0666667   0.0000000  )
       191        C      tau( 191) = (   0.6735753  -0.0333333   0.0000000  )
       192        C      tau( 192) = (   0.7120653  -0.0333333   0.0000000  )
       193        C      tau( 193) = (   0.7313103  -0.0000000   0.0000000  )
       194        C      tau( 194) = (   0.7698004  -0.0000000   0.0000000  )
       195        C      tau( 195) = (   0.7890454   0.0333333   0.0000000  )
       196        C      tau( 196) = (   0.8275354   0.0333333   0.0000000  )
       197        C      tau( 197) = (   0.8467804   0.0666667   0.0000000  )
       198        C      tau( 198) = (   0.8852704   0.0666667   0.0000000  )
       199        C      tau( 199) = (   0.9045154   0.1000000   0.0000000  )
       200        C      tau( 200) = (   0.9430054   0.1000000   0.0000000  )
       201        C      tau( 201) = (   0.9622504   0.1333333   0.0000000  )
       202        C      tau( 202) = (   1.0007405   0.1333333   0.0000000  )
       203        C      tau( 203) = (   1.0199855   0.1666667   0.0000000  )
       204        C      tau( 204) = (   1.0584755   0.1666667   0.0000000  )
       205        C      tau( 205) = (   1.0777205   0.2000000   0.0000000  )
       206        C      tau( 206) = (   1.1162105   0.2000000   0.0000000  )
       207        C      tau( 207) = (   1.1354555   0.2333333   0.0000000  )
       208        C      tau( 208) = (   1.1739455   0.2333333   0.0000000  )
       209        C      tau( 209) = (   1.1931906   0.2666667   0.0000000  )
       210        C      tau( 210) = (   1.2316806   0.2666667   0.0000000  )
       211        C      tau( 211) = (   0.4426352  -0.2333333   0.0000000  )
       212        C      tau( 212) = (   0.4811252  -0.2333333   0.0000000  )
       213        C      tau( 213) = (   0.5003702  -0.2000000   0.0000000  )
       214        C      tau( 214) = (   0.5388603  -0.2000000   0.0000000  )
       215        C      tau( 215) = (   0.5581053  -0.1666667   0.0000000  )
       216        C      tau( 216) = (   0.5965953  -0.1666667   0.0000000  )
       217        C      tau( 217) = (   0.6158403  -0.1333333   0.0000000  )
       218        C      tau( 218) = (   0.6543303  -0.1333333   0.0000000  )
       219        C      tau( 219) = (   0.6735753  -0.1000000   0.0000000  )
       220        C      tau( 220) = (   0.7120653  -0.1000000   0.0000000  )
       221        C      tau( 221) = (   0.7313103  -0.0666667   0.0000000  )
       222        C      tau( 222) = (   0.7698004  -0.0666667   0.0000000  )
       223        C      tau( 223) = (   0.7890454  -0.0333333   0.0000000  )
       224        C      tau( 224) = (   0.8275354  -0.0333333   0.0000000  )
       225        C      tau( 225) = (   0.8852704  -0.0000000   0.0000000  )
       226        C      tau( 226) = (   0.9045154   0.0333333   0.0000000  )
       227        C      tau( 227) = (   0.9430054   0.0333333   0.0000000  )
       228        C      tau( 228) = (   0.9622504   0.0666667   0.0000000  )
       229        C      tau( 229) = (   1.0007405   0.0666667   0.0000000  )
       230        C      tau( 230) = (   1.0199855   0.1000000   0.0000000  )
       231        C      tau( 231) = (   1.0584755   0.1000000   0.0000000  )
       232        C      tau( 232) = (   1.0777205   0.1333333   0.0000000  )
       233        C      tau( 233) = (   1.1162105   0.1333333   0.0000000  )
       234        C      tau( 234) = (   1.1354555   0.1666667   0.0000000  )
       235        C      tau( 235) = (   1.1739455   0.1666667   0.0000000  )
       236        C      tau( 236) = (   1.1931906   0.2000000   0.0000000  )
       237        C      tau( 237) = (   1.2316806   0.2000000   0.0000000  )
       238        C      tau( 238) = (   1.2509256   0.2333333   0.0000000  )
       239        C      tau( 239) = (   1.2894156   0.2333333   0.0000000  )
       240        C      tau( 240) = (   0.5003702  -0.2666667   0.0000000  )
       241        C      tau( 241) = (   0.5388603  -0.2666667   0.0000000  )
       242        C      tau( 242) = (   0.5581053  -0.2333333   0.0000000  )
       243        C      tau( 243) = (   0.5965953  -0.2333333   0.0000000  )
       244        C      tau( 244) = (   0.6158403  -0.2000000   0.0000000  )
       245        C      tau( 245) = (   0.6543303  -0.2000000   0.0000000  )
       246        C      tau( 246) = (   0.6735753  -0.1666667   0.0000000  )
       247        C      tau( 247) = (   0.7120653  -0.1666667   0.0000000  )
       248        C      tau( 248) = (   0.7313103  -0.1333333   0.0000000  )
       249        C      tau( 249) = (   0.7698004  -0.1333333   0.0000000  )
       250        C      tau( 250) = (   0.7890454  -0.1000000   0.0000000  )
       251        C      tau( 251) = (   0.8275354  -0.1000000   0.0000000  )
       252        C      tau( 252) = (   0.8467804  -0.0666667   0.0000000  )
       253        C      tau( 253) = (   0.8852704  -0.0666667   0.0000000  )
       254        C      tau( 254) = (   0.9045154  -0.0333333   0.0000000  )
       255        C      tau( 255) = (   0.9430054  -0.0333333   0.0000000  )
       256        C      tau( 256) = (   0.9622504   0.0000000   0.0000000  )
       257        C      tau( 257) = (   1.0007405  -0.0000000   0.0000000  )
       258        C      tau( 258) = (   1.0199855   0.0333333   0.0000000  )
       259        C      tau( 259) = (   1.0584755   0.0333333   0.0000000  )
       260        C      tau( 260) = (   1.0777205   0.0666667   0.0000000  )
       261        C      tau( 261) = (   1.1162105   0.0666667   0.0000000  )
       262        C      tau( 262) = (   1.1354555   0.1000000   0.0000000  )
       263        C      tau( 263) = (   1.1739455   0.1000000   0.0000000  )
       264        C      tau( 264) = (   1.1931906   0.1333333   0.0000000  )
       265        C      tau( 265) = (   1.2316806   0.1333333   0.0000000  )
       266        C      tau( 266) = (   1.2509256   0.1666667   0.0000000  )
       267        C      tau( 267) = (   1.2894156   0.1666667   0.0000000  )
       268        C      tau( 268) = (   1.3086606   0.2000000   0.0000000  )
       269        C      tau( 269) = (   1.3471506   0.2000000   0.0000000  )
       270        C      tau( 270) = (   0.5581053  -0.3000000   0.0000000  )
       271        C      tau( 271) = (   0.5965953  -0.3000000   0.0000000  )
       272        C      tau( 272) = (   0.6158403  -0.2666667   0.0000000  )
       273        C      tau( 273) = (   0.6543303  -0.2666667   0.0000000  )
       274        C      tau( 274) = (   0.6735753  -0.2333333   0.0000000  )
       275        C      tau( 275) = (   0.7120653  -0.2333333   0.0000000  )
       276        C      tau( 276) = (   0.7313103  -0.2000000   0.0000000  )
       277        C      tau( 277) = (   0.7698004  -0.2000000   0.0000000  )
       278        C      tau( 278) = (   0.7890454  -0.1666667   0.0000000  )
       279        C      tau( 279) = (   0.8275354  -0.1666667   0.0000000  )
       280        C      tau( 280) = (   0.8467804  -0.1333333   0.0000000  )
       281        C      tau( 281) = (   0.8852704  -0.1333333   0.0000000  )
       282        C      tau( 282) = (   0.9045154  -0.1000000   0.0000000  )
       283        C      tau( 283) = (   0.9430054  -0.1000000   0.0000000  )
       284        C      tau( 284) = (   0.9622504  -0.0666667   0.0000000  )
       285        C      tau( 285) = (   1.0007405  -0.0666667   0.0000000  )
       286        C      tau( 286) = (   1.0199855  -0.0333333   0.0000000  )
       287        C      tau( 287) = (   1.0584755  -0.0333333   0.0000000  )
       288        C      tau( 288) = (   1.0777205   0.0000000   0.0000000  )
       289        C      tau( 289) = (   1.1162105   0.0000000   0.0000000  )
       290        C      tau( 290) = (   1.1354555   0.0333333   0.0000000  )
       291        C      tau( 291) = (   1.1739455   0.0333333   0.0000000  )
       292        C      tau( 292) = (   1.1931906   0.0666667   0.0000000  )
       293        C      tau( 293) = (   1.2316806   0.0666667   0.0000000  )
       294        C      tau( 294) = (   1.2509256   0.1000000   0.0000000  )
       295        C      tau( 295) = (   1.2894156   0.1000000   0.0000000  )
       296        C      tau( 296) = (   1.3086606   0.1333333   0.0000000  )
       297        C      tau( 297) = (   1.3471506   0.1333333   0.0000000  )
       298        C      tau( 298) = (   1.3663956   0.1666667   0.0000000  )
       299        C      tau( 299) = (   1.4048857   0.1666667   0.0000000  )
       300        C      tau( 300) = (   0.6158403  -0.3333333   0.0000000  )
       301        C      tau( 301) = (   0.6543303  -0.3333333   0.0000000  )
       302        C      tau( 302) = (   0.6735753  -0.3000000   0.0000000  )
       303        C      tau( 303) = (   0.7120653  -0.3000000   0.0000000  )
       304        C      tau( 304) = (   0.7313103  -0.2666667   0.0000000  )
       305        C      tau( 305) = (   0.7698004  -0.2666667   0.0000000  )
       306        C      tau( 306) = (   0.7890454  -0.2333333   0.0000000  )
       307        C      tau( 307) = (   0.8275354  -0.2333333   0.0000000  )
       308        C      tau( 308) = (   0.8467804  -0.2000000   0.0000000  )
       309        C      tau( 309) = (   0.8852704  -0.2000000   0.0000000  )
       310        C      tau( 310) = (   0.9045154  -0.1666667   0.0000000  )
       311        C      tau( 311) = (   0.9430054  -0.1666667   0.0000000  )
       312        C      tau( 312) = (   0.9622504  -0.1333333   0.0000000  )
       313        C      tau( 313) = (   1.0007405  -0.1333333   0.0000000  )
       314        C      tau( 314) = (   1.0199855  -0.1000000   0.0000000  )
       315        C      tau( 315) = (   1.0584755  -0.1000000   0.0000000  )
       316        C      tau( 316) = (   1.0777205  -0.0666667   0.0000000  )
       317        C      tau( 317) = (   1.1162105  -0.0666667   0.0000000  )
       318        C      tau( 318) = (   1.1354555  -0.0333333   0.0000000  )
       319        C      tau( 319) = (   1.1739455  -0.0333333   0.0000000  )
       320        C      tau( 320) = (   1.1931906  -0.0000000   0.0000000  )
       321        C      tau( 321) = (   1.2316806   0.0000000   0.0000000  )
       322        C      tau( 322) = (   1.2509256   0.0333333   0.0000000  )
       323        C      tau( 323) = (   1.2894156   0.0333333   0.0000000  )
       324        C      tau( 324) = (   1.3086606   0.0666667   0.0000000  )
       325        C      tau( 325) = (   1.3471506   0.0666667   0.0000000  )
       326        C      tau( 326) = (   1.3663956   0.1000000   0.0000000  )
       327        C      tau( 327) = (   1.4048857   0.1000000   0.0000000  )
       328        C      tau( 328) = (   1.4241307   0.1333333   0.0000000  )
       329        C      tau( 329) = (   1.4626207   0.1333333   0.0000000  )
       330        C      tau( 330) = (   0.6735753  -0.3666667   0.0000000  )
       331        C      tau( 331) = (   0.7120653  -0.3666667   0.0000000  )
       332        C      tau( 332) = (   0.7313103  -0.3333333   0.0000000  )
       333        C      tau( 333) = (   0.7698004  -0.3333333   0.0000000  )
       334        C      tau( 334) = (   0.7890454  -0.3000000   0.0000000  )
       335        C      tau( 335) = (   0.8275354  -0.3000000   0.0000000  )
       336        C      tau( 336) = (   0.8467804  -0.2666667   0.0000000  )
       337        C      tau( 337) = (   0.8852704  -0.2666667   0.0000000  )
       338        C      tau( 338) = (   0.9045154  -0.2333333   0.0000000  )
       339        C      tau( 339) = (   0.9430054  -0.2333333   0.0000000  )
       340        C      tau( 340) = (   0.9622504  -0.2000000   0.0000000  )
       341        C      tau( 341) = (   1.0007405  -0.2000000   0.0000000  )
       342        C      tau( 342) = (   1.0199855  -0.1666667   0.0000000  )
       343        C      tau( 343) = (   1.0584755  -0.1666667   0.0000000  )
       344        C      tau( 344) = (   1.0777205  -0.1333333   0.0000000  )
       345        C      tau( 345) = (   1.1162105  -0.1333333   0.0000000  )
       346        C      tau( 346) = (   1.1354555  -0.1000000   0.0000000  )
       347        C      tau( 347) = (   1.1739455  -0.1000000   0.0000000  )
       348        C      tau( 348) = (   1.1931906  -0.0666667   0.0000000  )
       349        C      tau( 349) = (   1.2316806  -0.0666667   0.0000000  )
       350        C      tau( 350) = (   1.2509256  -0.0333333   0.0000000  )
       351        C      tau( 351) = (   1.2894156  -0.0333333   0.0000000  )
       352        C      tau( 352) = (   1.3086606  -0.0000000   0.0000000  )
       353        C      tau( 353) = (   1.3471506   0.0000000   0.0000000  )
       354        C      tau( 354) = (   1.3663956   0.0333333   0.0000000  )
       355        C      tau( 355) = (   1.4048857   0.0333333   0.0000000  )
       356        C      tau( 356) = (   1.4241307   0.0666667   0.0000000  )
       357        C      tau( 357) = (   1.4626207   0.0666667   0.0000000  )
       358        C      tau( 358) = (   1.4818657   0.1000000   0.0000000  )
       359        C      tau( 359) = (   1.5203557   0.1000000   0.0000000  )
       360        C      tau( 360) = (   0.7313103  -0.4000000   0.0000000  )
       361        C      tau( 361) = (   0.7698004  -0.4000000   0.0000000  )
       362        C      tau( 362) = (   0.7890454  -0.3666667   0.0000000  )
       363        C      tau( 363) = (   0.8275354  -0.3666667   0.0000000  )
       364        C      tau( 364) = (   0.8467804  -0.3333333   0.0000000  )
       365        C      tau( 365) = (   0.8852704  -0.3333333   0.0000000  )
       366        C      tau( 366) = (   0.9045154  -0.3000000   0.0000000  )
       367        C      tau( 367) = (   0.9430054  -0.3000000   0.0000000  )
       368        C      tau( 368) = (   0.9622504  -0.2666667   0.0000000  )
       369        C      tau( 369) = (   1.0007405  -0.2666667   0.0000000  )
       370        C      tau( 370) = (   1.0199855  -0.2333333   0.0000000  )
       371        C      tau( 371) = (   1.0584755  -0.2333333   0.0000000  )
       372        C      tau( 372) = (   1.0777205  -0.2000000   0.0000000  )
       373        C      tau( 373) = (   1.1162105  -0.2000000   0.0000000  )
       374        C      tau( 374) = (   1.1354555  -0.1666667   0.0000000  )
       375        C      tau( 375) = (   1.1739455  -0.1666667   0.0000000  )
       376        C      tau( 376) = (   1.1931906  -0.1333333   0.0000000  )
       377        C      tau( 377) = (   1.2316806  -0.1333333   0.0000000  )
       378        C      tau( 378) = (   1.2509256  -0.1000000   0.0000000  )
       379        C      tau( 379) = (   1.2894156  -0.1000000   0.0000000  )
       380        C      tau( 380) = (   1.3086606  -0.0666667   0.0000000  )
       381        C      tau( 381) = (   1.3471506  -0.0666667   0.0000000  )
       382        C      tau( 382) = (   1.3663956  -0.0333333   0.0000000  )
       383        C      tau( 383) = (   1.4048857  -0.0333333   0.0000000  )
       384        C      tau( 384) = (   1.4241307  -0.0000000   0.0000000  )
       385        C      tau( 385) = (   1.4626207  -0.0000000   0.0000000  )
       386        C      tau( 386) = (   1.4818657   0.0333333   0.0000000  )
       387        C      tau( 387) = (   1.5203557   0.0333333   0.0000000  )
       388        C      tau( 388) = (   1.5396007   0.0666667   0.0000000  )
       389        C      tau( 389) = (   1.5780907   0.0666667   0.0000000  )
       390        C      tau( 390) = (   0.7890454  -0.4333333   0.0000000  )
       391        C      tau( 391) = (   0.8275354  -0.4333333   0.0000000  )
       392        C      tau( 392) = (   0.8467804  -0.4000000   0.0000000  )
       393        C      tau( 393) = (   0.8852704  -0.4000000   0.0000000  )
       394        C      tau( 394) = (   0.9045154  -0.3666667   0.0000000  )
       395        C      tau( 395) = (   0.9430054  -0.3666667   0.0000000  )
       396        C      tau( 396) = (   0.9622504  -0.3333333   0.0000000  )
       397        C      tau( 397) = (   1.0007405  -0.3333333   0.0000000  )
       398        C      tau( 398) = (   1.0199855  -0.3000000   0.0000000  )
       399        C      tau( 399) = (   1.0584755  -0.3000000   0.0000000  )
       400        C      tau( 400) = (   1.0777205  -0.2666667   0.0000000  )
       401        C      tau( 401) = (   1.1162105  -0.2666667   0.0000000  )
       402        C      tau( 402) = (   1.1354555  -0.2333333   0.0000000  )
       403        C      tau( 403) = (   1.1739455  -0.2333333   0.0000000  )
       404        C      tau( 404) = (   1.1931906  -0.2000000   0.0000000  )
       405        C      tau( 405) = (   1.2316806  -0.2000000   0.0000000  )
       406        C      tau( 406) = (   1.2509256  -0.1666667   0.0000000  )
       407        C      tau( 407) = (   1.2894156  -0.1666667   0.0000000  )
       408        C      tau( 408) = (   1.3086606  -0.1333333   0.0000000  )
       409        C      tau( 409) = (   1.3471506  -0.1333333   0.0000000  )
       410        C      tau( 410) = (   1.3663956  -0.1000000   0.0000000  )
       411        C      tau( 411) = (   1.4048857  -0.1000000   0.0000000  )
       412        C      tau( 412) = (   1.4241307  -0.0666667   0.0000000  )
       413        C      tau( 413) = (   1.4626207  -0.0666667   0.0000000  )
       414        C      tau( 414) = (   1.4818657  -0.0333333   0.0000000  )
       415        C      tau( 415) = (   1.5203557  -0.0333333   0.0000000  )
       416        C      tau( 416) = (   1.5396007  -0.0000000   0.0000000  )
       417        C      tau( 417) = (   1.5780907  -0.0000000   0.0000000  )
       418        C      tau( 418) = (   1.5973357   0.0333333   0.0000000  )
       419        C      tau( 419) = (   1.6358258   0.0333333   0.0000000  )
       420        C      tau( 420) = (   0.8467804  -0.4666667   0.0000000  )
       421        C      tau( 421) = (   0.8852704  -0.4666667   0.0000000  )
       422        C      tau( 422) = (   0.9045154  -0.4333333   0.0000000  )
       423        C      tau( 423) = (   0.9430054  -0.4333333   0.0000000  )
       424        C      tau( 424) = (   0.9622504  -0.4000000   0.0000000  )
       425        C      tau( 425) = (   1.0007405  -0.4000000   0.0000000  )
       426        C      tau( 426) = (   1.0199855  -0.3666667   0.0000000  )
       427        C      tau( 427) = (   1.0584755  -0.3666667   0.0000000  )
       428        C      tau( 428) = (   1.0777205  -0.3333333   0.0000000  )
       429        C      tau( 429) = (   1.1162105  -0.3333333   0.0000000  )
       430        C      tau( 430) = (   1.1354555  -0.3000000   0.0000000  )
       431        C      tau( 431) = (   1.1739455  -0.3000000   0.0000000  )
       432        C      tau( 432) = (   1.1931906  -0.2666667   0.0000000  )
       433        C      tau( 433) = (   1.2316806  -0.2666667   0.0000000  )
       434        C      tau( 434) = (   1.2509256  -0.2333333   0.0000000  )
       435        C      tau( 435) = (   1.2894156  -0.2333333   0.0000000  )
       436        C      tau( 436) = (   1.3086606  -0.2000000   0.0000000  )
       437        C      tau( 437) = (   1.3471506  -0.2000000   0.0000000  )
       438        C      tau( 438) = (   1.3663956  -0.1666667   0.0000000  )
       439        C      tau( 439) = (   1.4048857  -0.1666667   0.0000000  )
       440        C      tau( 440) = (   1.4241307  -0.1333333   0.0000000  )
       441        C      tau( 441) = (   1.4626207  -0.1333333   0.0000000  )
       442        C      tau( 442) = (   1.4818657  -0.1000000   0.0000000  )
       443        C      tau( 443) = (   1.5203557  -0.1000000   0.0000000  )
       444        C      tau( 444) = (   1.5396007  -0.0666667   0.0000000  )
       445        C      tau( 445) = (   1.5780907  -0.0666667   0.0000000  )
       446        C      tau( 446) = (   1.5973357  -0.0333333   0.0000000  )
       447        C      tau( 447) = (   1.6358258  -0.0333333   0.0000000  )
       448        C      tau( 448) = (   1.6550708   0.0000000   0.0000000  )
       449        C      tau( 449) = (   1.6935608  -0.0000000   0.0000000  )

     number of k points=     1  Marzari-Vanderbilt smearing, width (Ry)=  0.0100
                       cart. coord. in units 2pi/alat
        k(    1) = (   0.0000000   0.0000000   0.0000000), wk =   2.0000000

     Dense  grid:  8574063 G-vectors     FFT dimensions: ( 450, 450, 192)

     Estimated max dynamical RAM per process >       2.18 GB

     Estimated total dynamical RAM >     139.24 GB
 ----2D----2D----2D----2D----2D----2D----2D----2D----2D----2D----2D----2D
  The code is running with the 2D cutoff
  Please refer to:
  Sohier, T., Calandra, M., & Mauri, F. (2017), 
  Density functional perturbation theory for gated two-dimensional heterostructures:
  Theoretical developments and application to flexural phonons in graphene.
  Physical Review B, 96(7), 75448. https://doi.org/10.1103/PhysRevB.96.075448
 ----2D----2D----2D----2D----2D----2D----2D----2D----2D----2D----2D----2D

     Initial potential from superposition of free atoms

     starting charge    1795.9799, renormalised to    1796.0000

     negative rho (up, down):  3.407E-04 0.000E+00
     Starting wfcs are 1796 randomized atomic wfcs

     total cpu time spent up to now is       64.8 secs

     per-process dynamical memory:  1389.5 Mb

     Self-consistent Calculation

     iteration #  1     ecut=   100.00 Ry     beta= 0.30
     Davidson diagonalization with overlap
     ethr =  1.00E-02,  avg # of iterations =  2.0

     negative rho (up, down):  1.399E-06 0.000E+00

     total cpu time spent up to now is      170.3 secs

     total energy              =   -5413.81304313 Ry
     estimated scf accuracy    <      38.39646975 Ry

     iteration #  2     ecut=   100.00 Ry     beta= 0.30
     Davidson diagonalization with overlap
     ethr =  2.14E-03,  avg # of iterations =  2.0

     negative rho (up, down):  7.486E-07 0.000E+00

     total cpu time spent up to now is      242.9 secs

     total energy              =   -5407.64059264 Ry
     estimated scf accuracy    <      22.46595794 Ry

     iteration #  3     ecut=   100.00 Ry     beta= 0.30
     Davidson diagonalization with overlap
     ethr =  1.25E-03,  avg # of iterations = 14.0

     negative rho (up, down):  3.676E-08 0.000E+00

     total cpu time spent up to now is      327.9 secs

     total energy              =   -5405.13150818 Ry
     estimated scf accuracy    <      44.39660519 Ry

     iteration #  4     ecut=   100.00 Ry     beta= 0.30
     Davidson diagonalization with overlap
     ethr =  1.25E-03,  avg # of iterations =  8.0

     negative rho (up, down):  1.668E-08 0.000E+00

     total cpu time spent up to now is      412.8 secs

     total energy              =   -5408.09811099 Ry
     estimated scf accuracy    <       6.30601662 Ry

     iteration #  5     ecut=   100.00 Ry     beta= 0.30
     Davidson diagonalization with overlap
     ethr =  3.51E-04,  avg # of iterations =  6.0

     negative rho (up, down):  2.153E-08 0.000E+00

     total cpu time spent up to now is      493.1 secs

     total energy              =   -5408.85746683 Ry
     estimated scf accuracy    <       0.70807454 Ry

     iteration #  6     ecut=   100.00 Ry     beta= 0.30
     Davidson diagonalization with overlap
     c_bands:  1 eigenvalues not converged
     ethr =  3.94E-05,  avg # of iterations = 20.0

     negative rho (up, down):  1.743E-08 0.000E+00

     total cpu time spent up to now is      584.8 secs

     total energy              =   -5408.79258144 Ry
     estimated scf accuracy    <       0.35259935 Ry

     iteration #  7     ecut=   100.00 Ry     beta= 0.30
     Davidson diagonalization with overlap
     ethr =  1.96E-05,  avg # of iterations =  5.0

     negative rho (up, down):  1.258E-06 0.000E+00

     total cpu time spent up to now is      678.0 secs

     total energy              =   -5408.65286276 Ry
     estimated scf accuracy    <       3.58545006 Ry

     iteration #  8     ecut=   100.00 Ry     beta= 0.30
     Davidson diagonalization with overlap
     ethr =  1.96E-05,  avg # of iterations = 18.0

     total cpu time spent up to now is      770.2 secs

     total energy              =   -5408.87344119 Ry
     estimated scf accuracy    <       0.76680697 Ry

     iteration #  9     ecut=   100.00 Ry     beta= 0.30
     Davidson diagonalization with overlap
     ethr =  1.96E-05,  avg # of iterations =  5.0

     total cpu time spent up to now is      844.2 secs

     total energy              =   -5408.86986067 Ry
     estimated scf accuracy    <       0.32909685 Ry

     iteration # 10     ecut=   100.00 Ry     beta= 0.30
     Davidson diagonalization with overlap
     ethr =  1.83E-05,  avg # of iterations =  2.0

     total cpu time spent up to now is      916.7 secs

     total energy              =   -5408.86110280 Ry
     estimated scf accuracy    <       0.20742568 Ry

     iteration # 11     ecut=   100.00 Ry     beta= 0.30
     Davidson diagonalization with overlap
     ethr =  1.15E-05,  avg # of iterations =  6.0

     total cpu time spent up to now is      994.8 secs

     total energy              =   -5408.86452991 Ry
     estimated scf accuracy    <       0.05169179 Ry

     iteration # 12     ecut=   100.00 Ry     beta= 0.30
     Davidson diagonalization with overlap
     c_bands:  1 eigenvalues not converged
     ethr =  2.88E-06,  avg # of iterations = 20.0

     total cpu time spent up to now is     1086.5 secs

     total energy              =   -5408.86498781 Ry
     estimated scf accuracy    <       0.01686934 Ry

     iteration # 13     ecut=   100.00 Ry     beta= 0.30
     Davidson diagonalization with overlap
     c_bands:  1 eigenvalues not converged
     ethr =  9.39E-07,  avg # of iterations = 20.0

     total cpu time spent up to now is     1173.9 secs

     total energy              =   -5408.86532896 Ry
     estimated scf accuracy    <       0.00087636 Ry

     iteration # 14     ecut=   100.00 Ry     beta= 0.30
     Davidson diagonalization with overlap
     c_bands:  5 eigenvalues not converged
     ethr =  4.88E-08,  avg # of iterations = 20.0

     total cpu time spent up to now is     1286.0 secs

     total energy              =   -5408.86539585 Ry
     estimated scf accuracy    <       0.03174886 Ry

     iteration # 15     ecut=   100.00 Ry     beta= 0.30
     Davidson diagonalization with overlap
     c_bands:  4 eigenvalues not converged
     ethr =  4.88E-08,  avg # of iterations = 20.0

     total cpu time spent up to now is     1377.1 secs

     total energy              =   -5408.86547545 Ry
     estimated scf accuracy    <       0.00542584 Ry

     iteration # 16     ecut=   100.00 Ry     beta= 0.30
     Davidson diagonalization with overlap
     ethr =  4.88E-08,  avg # of iterations = 16.0

     negative rho (up, down):  1.323E-05 0.000E+00

     total cpu time spent up to now is     1461.8 secs

     total energy              =   -5408.86548539 Ry
     estimated scf accuracy    <       0.00063656 Ry

     iteration # 17     ecut=   100.00 Ry     beta= 0.30
     Davidson diagonalization with overlap
     ethr =  3.54E-08,  avg # of iterations =  5.0

     negative rho (up, down):  7.936E-06 0.000E+00

     total cpu time spent up to now is     1538.2 secs

     total energy              =   -5408.86549520 Ry
     estimated scf accuracy    <       0.00092474 Ry

     iteration # 18     ecut=   100.00 Ry     beta= 0.30
     Davidson diagonalization with overlap
     ethr =  3.54E-08,  avg # of iterations =  1.0

     negative rho (up, down):  9.427E-06 0.000E+00

     total cpu time spent up to now is     1606.6 secs

     total energy              =   -5408.86551707 Ry
     estimated scf accuracy    <       0.00011474 Ry

     iteration # 19     ecut=   100.00 Ry     beta= 0.30
     Davidson diagonalization with overlap
     ethr =  6.39E-09,  avg # of iterations =  4.0

     negative rho (up, down):  1.968E-06 0.000E+00

     total cpu time spent up to now is     1682.1 secs

     total energy              =   -5408.86551998 Ry
     estimated scf accuracy    <       0.00000435 Ry

     iteration # 20     ecut=   100.00 Ry     beta= 0.30
     Davidson diagonalization with overlap
     ethr =  2.42E-10,  avg # of iterations =  7.0

     negative rho (up, down):  4.829E-06 0.000E+00

     total cpu time spent up to now is     1777.9 secs

     total energy              =   -5408.86552106 Ry
     estimated scf accuracy    <       0.00000178 Ry

     iteration # 21     ecut=   100.00 Ry     beta= 0.30
     Davidson diagonalization with overlap
     ethr =  9.89E-11,  avg # of iterations =  5.0

     negative rho (up, down):  2.225E-06 0.000E+00

     total cpu time spent up to now is     1855.9 secs

     total energy              =   -5408.86552113 Ry
     estimated scf accuracy    <       0.00000071 Ry

     iteration # 22     ecut=   100.00 Ry     beta= 0.30
     Davidson diagonalization with overlap
     ethr =  3.95E-11,  avg # of iterations =  2.0

     negative rho (up, down):  1.317E-06 0.000E+00

     total cpu time spent up to now is     1929.6 secs

     total energy              =   -5408.86552116 Ry
     estimated scf accuracy    <       0.00000023 Ry

     iteration # 23     ecut=   100.00 Ry     beta= 0.30
     Davidson diagonalization with overlap
     ethr =  1.26E-11,  avg # of iterations =  2.0

     negative rho (up, down):  5.508E-07 0.000E+00

     total cpu time spent up to now is     2005.3 secs

     total energy              =   -5408.86552117 Ry
     estimated scf accuracy    <       0.00000004 Ry

     iteration # 24     ecut=   100.00 Ry     beta= 0.30
     Davidson diagonalization with overlap
     ethr =  2.11E-12,  avg # of iterations =  6.0

     negative rho (up, down):  3.895E-07 0.000E+00

     total cpu time spent up to now is     2100.1 secs

     total energy              =   -5408.86552118 Ry
     estimated scf accuracy    <          3.2E-09 Ry

     iteration # 25     ecut=   100.00 Ry     beta= 0.30
     Davidson diagonalization with overlap
     ethr =  1.77E-13,  avg # of iterations =  5.0

     negative rho (up, down):  2.003E-07 0.000E+00

     total cpu time spent up to now is     2219.7 secs

     total energy              =   -5408.86552118 Ry
     estimated scf accuracy    <          1.5E-09 Ry

     iteration # 26     ecut=   100.00 Ry     beta= 0.30
     Davidson diagonalization with overlap
     ethr =  1.00E-13,  avg # of iterations =  5.0

     negative rho (up, down):  6.894E-08 0.000E+00

     total cpu time spent up to now is     2297.0 secs

     total energy              =   -5408.86552118 Ry
     estimated scf accuracy    <          1.1E-09 Ry

     iteration # 27     ecut=   100.00 Ry     beta= 0.30
     Davidson diagonalization with overlap
     ethr =  1.00E-13,  avg # of iterations =  5.0

     negative rho (up, down):  4.354E-08 0.000E+00

     total cpu time spent up to now is     2372.6 secs

     total energy              =   -5408.86552118 Ry
     estimated scf accuracy    <          3.2E-10 Ry

     iteration # 28     ecut=   100.00 Ry     beta= 0.30
     Davidson diagonalization with overlap
     ethr =  1.00E-13,  avg # of iterations =  2.0

     negative rho (up, down):  1.142E-08 0.000E+00

     total cpu time spent up to now is     2439.2 secs

     total energy              =   -5408.86552118 Ry
     estimated scf accuracy    <          1.4E-10 Ry

     iteration # 29     ecut=   100.00 Ry     beta= 0.30
     Davidson diagonalization with overlap
     ethr =  1.00E-13,  avg # of iterations =  1.0

     total cpu time spent up to now is     2501.2 secs

     End of self-consistent calculation

          k = 0.0000 0.0000 0.0000 (****** PWs)   bands (ev):

   -23.7898 -23.6922 -23.6912 -23.6912 -23.6855 -23.6855 -23.6529 -23.4814
   -23.4814 -23.4796 -23.4764 -23.4764 -23.4525 -23.3777 -23.3777 -23.3728
   -23.3720 -23.3720 -23.3237 -23.0664 -23.0664 -23.0640 -23.0637 -23.0637
   -23.0625 -23.0618 -23.0618 -23.0609 -23.0544 -23.0544 -22.9819 -22.8570
   -22.8570 -22.8515 -22.8508 -22.8508 -22.7918 -22.5455 -22.5447 -22.5447
   -22.5394 -22.5394 -22.5187 -22.4451 -22.4451 -22.4421 -22.4392 -22.4391
   -22.4391 -22.4390 -22.4390 -22.4379 -22.4303 -22.4303 -22.3136 -22.1335
   -22.1335 -22.1292 -22.1245 -22.1245 -22.0672 -21.8274 -21.8265 -21.8265
   -21.8265 -21.8259 -21.8259 -21.8239 -21.8237 -21.8237 -21.8059 -21.8059
   -21.7439 -21.6237 -21.6237 -21.6200 -21.6193 -21.6193 -21.6189 -21.6182
   -21.6182 -21.6166 -21.6007 -21.6007 -21.4588 -21.2138 -21.2136 -21.2136
   -21.2013 -21.2013 -21.1628 -21.0178 -21.0121 -21.0121 -21.0035 -21.0035
   -20.9848 -20.9193 -20.9125 -20.9125 -20.9112 -20.9112 -20.9099 -20.9098
   -20.9096 -20.9096 -20.8876 -20.8876 -20.7766 -20.6142 -20.6142 -20.6102
   -20.6097 -20.6097 -20.6092 -20.6086 -20.6086 -20.6071 -20.5850 -20.5850
   -20.4327 -20.1173 -20.1173 -20.1127 -20.1045 -20.1045 -20.0886 -20.0282
   -20.0201 -20.0201 -20.0198 -20.0198 -20.0195 -20.0195 -20.0151 -20.0151
   -19.9898 -19.9898 -19.9260 -19.8282 -19.8253 -19.8253 -19.8233 -19.8233
   -19.8225 -19.8208 -19.8208 -19.8195 -19.7918 -19.7918 -19.6441 -19.4454
   -19.4454 -19.4438 -19.4428 -19.4428 -19.4405 -19.4405 -19.4403 -19.4399
   -19.4143 -19.4143 -19.2691 -18.9696 -18.9626 -18.9626 -18.9542 -18.9542
   -18.9504 -18.9167 -18.9167 -18.9152 -18.9077 -18.9077 -18.9022 -18.8838
   -18.8776 -18.8776 -18.8758 -18.8758 -18.8751 -18.8725 -18.8724 -18.8724
   -18.8360 -18.8360 -18.7425 -18.6435 -18.6411 -18.6411 -18.6398 -18.6398
   -18.6382 -18.6378 -18.6378 -18.6374 -18.6073 -18.6073 -18.5337 -18.4866
   -18.4866 -18.4862 -18.4748 -18.4748 -18.1701 -17.9510 -17.9494 -17.9494
   -17.9381 -17.9381 -17.9034 -17.8331 -17.8315 -17.8315 -17.8312 -17.8292
   -17.8292 -17.8284 -17.8248 -17.8248 -17.7924 -17.7924 -17.5384 -17.4526
   -17.4526 -17.4526 -17.4255 -17.4255 -17.3210 -17.1188 -17.1186 -17.1186
   -17.0976 -17.0976 -17.0706 -16.9653 -16.9652 -16.9652 -16.9471 -16.9471
   -16.9422 -16.8771 -16.8767 -16.8752 -16.8752 -16.8708 -16.8708 -16.8706
   -16.8696 -16.8696 -16.8687 -16.8678 -16.8658 -16.8658 -16.7916 -16.7916
   -16.6225 -16.3454 -16.3452 -16.3452 -16.3449 -16.3449 -16.3449 -16.3433
   -16.3415 -16.3415 -16.3410 -16.3371 -16.3371 -16.3328 -16.3328 -16.3325
   -16.3314 -16.3310 -16.3310 -16.3297 -16.3269 -16.3269 -16.2420 -16.2420
   -16.0627 -15.9303 -15.9303 -15.9297 -15.9289 -15.9289 -15.9258 -15.9250
   -15.9221 -15.9221 -15.8722 -15.8722 -15.7180 -15.6090 -15.6071 -15.6071
   -15.5852 -15.5852 -15.5259 -15.4090 -15.4090 -15.4078 -15.4078 -15.4077
   -15.4058 -15.4051 -15.4007 -15.4007 -15.3593 -15.3593 -15.3256 -15.2874
   -15.2866 -15.2866 -15.2490 -15.2490 -14.9480 -14.8312 -14.8312 -14.7290
   -14.7290 -14.7286 -14.7286 -14.7285 -14.7279 -14.7277 -14.7236 -14.7236
   -14.6840 -14.6840 -14.6078 -14.5078 -14.5078 -14.5058 -14.5058 -14.5051
   -14.5041 -14.5035 -14.5010 -14.5010 -14.4540 -14.4540 -14.2632 -14.2313
   -14.2313 -14.2301 -14.2301 -14.2296 -14.2296 -14.2259 -14.2259 -14.2250
   -14.1445 -14.1445 -14.0709 -13.9099 -13.9087 -13.9087 -13.8917 -13.8917
   -13.8664 -13.8000 -13.8000 -13.7971 -13.7970 -13.7970 -13.7956 -13.7945
   -13.7911 -13.7911 -13.7526 -13.7526 -13.6916 -13.6880 -13.6880 -13.6855
   -13.6189 -13.6189 -13.4046 -13.2238 -13.2238 -13.2223 -13.2052 -13.2052
   -13.1599 -13.1270 -13.1264 -13.1264 -13.1068 -13.1068 -13.1005 -13.0122
   -13.0122 -13.0113 -13.0111 -13.0110 -13.0110 -13.0107 -13.0089 -13.0089
   -13.0054 -13.0054 -12.9991 -12.9939 -12.9939 -12.9937 -12.9927 -12.9924
   -12.9924 -12.9909 -12.9893 -12.9893 -12.8527 -12.8527 -12.6260 -12.5680
   -12.5680 -12.5671 -12.5667 -12.5667 -12.5659 -12.5641 -12.5641 -12.5632
   -12.4796 -12.4796 -12.4116 -12.2095 -12.2095 -12.2086 -12.2080 -12.2080
   -12.2075 -12.2071 -12.2046 -12.2046 -12.1755 -12.1755 -12.1628 -12.1449
   -12.1435 -12.1435 -12.1070 -12.1070 -11.9522 -11.9204 -11.9204 -11.9197
   -11.9195 -11.9194 -11.9194 -11.9190 -11.9155 -11.9155 -11.8767 -11.8588
   -11.8588 -11.7713 -11.7596 -11.7583 -11.7583 -11.7517 -11.7517 -11.7456
   -11.7450 -11.7450 -11.7310 -11.7310 -11.7253 -11.7122 -11.6975 -11.6975
   -11.6961 -11.6961 -11.6957 -11.6957 -11.6945 -11.6925 -11.6925 -11.5779
   -11.5779 -11.5061 -11.5061 -11.5057 -11.5017 -11.5017 -11.4733 -11.4677
   -11.3820 -11.3820 -11.3788 -11.3767 -11.3767 -11.3221 -11.2941 -11.2941
   -11.2939 -11.2928 -11.2928 -11.2926 -11.2918 -11.2899 -11.2899 -11.2784
   -11.2784 -11.2573 -11.2521 -11.2515 -11.2515 -11.2500 -11.2500 -11.2493
   -11.2481 -11.2471 -11.2471 -11.1648 -11.1648 -11.0576 -11.0522 -11.0492
   -11.0492 -11.0226 -11.0226 -11.0114 -11.0114 -11.0112 -11.0108 -11.0108
   -11.0094 -11.0071 -11.0068 -11.0068 -10.9989 -10.9989 -10.9706 -10.9489
   -10.9454 -10.9454 -10.9439 -10.9436 -10.9436 -10.9430 -10.9409 -10.9409
   -10.9198 -10.8798 -10.8779 -10.8779 -10.8141 -10.8128 -10.8128 -10.7825
   -10.7825 -10.7644 -10.7644 -10.7605 -10.7590 -10.7590 -10.6980 -10.6832
   -10.6822 -10.6822 -10.6811 -10.6660 -10.6660 -10.6535 -10.6349 -10.6332
   -10.6332 -10.6310 -10.6310 -10.6307 -10.6301 -10.6290 -10.6290 -10.6036
   -10.6036 -10.5982 -10.5776 -10.5776 -10.5762 -10.5754 -10.5749 -10.5749
   -10.5735 -10.5698 -10.5698 -10.5028 -10.5028 -10.4758 -10.4725 -10.4725
   -10.4718 -10.4684 -10.4343 -10.4343 -10.4122 -10.4110 -10.4110 -10.3980
   -10.3964 -10.3964 -10.3925 -10.3925 -10.3699 -10.2781 -10.2781 -10.2780
   -10.2764 -10.2761 -10.2761 -10.2756 -10.2756 -10.2740 -10.2666 -10.2666
   -10.2574 -10.2574 -10.1478 -10.1469 -10.1315 -10.1292 -10.1292 -10.1279
   -10.1268 -10.1263 -10.1263 -10.1251 -10.1251 -10.0900 -10.0900 -10.0694
   -10.0692 -10.0692 -10.0662  -9.9195  -9.9195  -9.9166  -9.9135  -9.9135
    -9.8873  -9.8768  -9.8768  -9.8562  -9.7130  -9.7126  -9.7126  -9.7123
    -9.7123  -9.7120  -9.7104  -9.7090  -9.7090  -9.6833  -9.6833  -9.6704
    -9.6671  -9.6664  -9.6664  -9.5742  -9.5742  -9.5632  -9.5632  -9.5630
    -9.5606  -9.5606  -9.5604  -9.5597  -9.5569  -9.5569  -9.5444  -9.5444
    -9.4981  -9.4967  -9.4946  -9.4946  -9.4862  -9.4862  -9.4788  -9.4762
    -9.4697  -9.4688  -9.4656  -9.4656  -9.4645  -9.4645  -9.4636  -9.4611
    -9.4611  -9.3322  -9.3322  -9.3316  -9.3316  -9.3313  -9.3300  -9.3300
    -9.3299  -9.3292  -9.3176  -9.3176  -9.1792  -9.0491  -9.0491  -9.0008
    -8.8821  -8.8797  -8.8797  -8.8732  -8.8732  -8.8641  -8.8641  -8.8639
    -8.8403  -8.8403  -8.8319  -8.8102  -8.8084  -8.8046  -8.8046  -8.7623
    -8.7623  -8.7214  -8.7120  -8.7093  -8.7085  -8.7085  -8.7080  -8.7080
    -8.7070  -8.7020  -8.7020  -8.6358  -8.6309  -8.6309  -8.6270  -8.6270
    -8.6077  -8.5737  -8.5338  -8.5291  -8.5291  -8.5285  -8.5285  -8.5281
    -8.5278  -8.5252  -8.5252  -8.5148  -8.5148  -8.5096  -8.5096  -8.4617
    -8.4617  -8.4617  -8.4072  -8.2257  -8.2257  -8.2241  -8.2241  -8.2238
    -8.2221  -8.2214  -8.2205  -8.2205  -8.2098  -8.2098  -8.2005  -8.2005
    -8.1051  -8.1031  -8.0995  -8.0974  -8.0974  -8.0640  -8.0275  -8.0275
    -7.9821  -7.9791  -7.9791  -7.9702  -7.7984  -7.7984  -7.7378  -7.7370
    -7.7370  -7.7369  -7.7369  -7.7343  -7.7305  -7.7305  -7.6972  -7.6750
    -7.5892  -7.5892  -7.5432  -7.5415  -7.5415  -7.5412  -7.5412  -7.5411
    -7.5410  -7.5370  -7.5340  -7.5340  -7.5323  -7.5322  -7.5322  -7.5227
    -7.5227  -7.4752  -7.3870  -7.3862  -7.3862  -7.3850  -7.3850  -7.3841
    -7.3808  -7.3798  -7.3798  -7.3692  -7.3692  -7.3321  -7.3321  -7.2578
    -7.1092  -7.1089  -7.1089  -7.1068  -7.1068  -7.1054  -7.1054  -7.1054
    -7.1048  -7.0945  -7.0945  -6.9481  -6.7829  -6.7829  -6.7825  -6.7734
    -6.7734  -6.7137  -6.5199  -6.5199  -6.5197  -6.5147  -6.5147  -6.4993
    -6.4185  -6.4153  -6.4153  -6.4150  -6.4146  -6.4146  -6.4096  -6.4096
    -6.4096  -6.4093  -6.4090  -6.4090  -6.4069  -6.4061  -6.4061  -6.4060
    -6.4052  -6.4051  -6.4051  -6.4029  -6.4029  -6.4022  -6.4022  -6.4015
    -6.3973  -6.3946  -6.3946  -6.3611  -6.3611  -5.8859  -5.7552  -5.7552
    -5.7550  -5.7466  -5.7466  -5.5465  -5.3399  -5.3394  -5.3394  -5.3374
    -5.3359  -5.3359  -5.3335  -5.3335  -5.3321  -5.3118  -5.3118  -4.7138
    -4.2480  -4.2423  -4.2423  -4.1511  -4.1511  -4.1270  -3.2074  -3.2070
    -3.2070  -3.2050  -3.2031  -3.2031  -3.2020  -3.2020  -3.1986  -3.1814
    -3.1814  -3.0973  -2.9453  -2.9451  -2.9451  -2.9361  -2.9361  -2.8694
    -2.5853  -2.5851  -2.5842  -2.5761  -2.5758  -2.5644  -2.4828  -2.4826

     the Fermi energy is    -4.2174 ev

!    total energy              =   -5408.86552118 Ry
     estimated scf accuracy    <          5.1E-11 Ry
     smearing contrib. (-TS)   =      -0.01564468 Ry
     internal energy E=F+TS    =   -5408.84987650 Ry

     The total energy is F=E-TS. E is the sum of the following terms:
     one-electron contribution =  -61446.64008245 Ry
     hartree contribution      =   30891.73115192 Ry
     xc contribution           =   -1925.25998616 Ry
     ewald contribution        =   27071.31904019 Ry

     convergence has been achieved in  29 iterations

     Writing all to output data dir /home/gregb26/links/scratch/qe_tmp/defect_15x15_d/defect_15x15_d.save/ :
     XML data file, charge density, pseudopotentials, collected wavefunctions

     init_run     :     61.25s CPU     63.57s WALL (       1 calls)
     electrons    :   2390.94s CPU   2438.19s WALL (       1 calls)

     Called by init_run:
     wfcinit      :     55.78s CPU     57.83s WALL (       1 calls)
     potinit      :      0.36s CPU      0.46s WALL (       1 calls)
     hinit0       :      1.25s CPU      1.32s WALL (       1 calls)

     Called by electrons:
     c_bands      :   2163.11s CPU   2203.16s WALL (      29 calls)
     sum_band     :    214.59s CPU    219.58s WALL (      29 calls)
     v_of_rho     :      9.75s CPU     10.38s WALL (      30 calls)
     mix_rho      :      2.76s CPU      2.88s WALL (      29 calls)

     Called by c_bands:
     init_us_2    :     22.70s CPU     25.66s WALL (      59 calls)
     regterg      :   2133.66s CPU   2172.83s WALL (      29 calls)

     Called by *egterg:
     rdiaghg      :     18.53s CPU     18.91s WALL (     263 calls)
     h_psi        :   1588.70s CPU   1610.12s WALL (     264 calls)
     g_psi        :      2.39s CPU      2.42s WALL (     234 calls)

     Called by h_psi:
     h_psi:calbec :    337.87s CPU    342.20s WALL (     264 calls)
     vloc_psi     :    943.51s CPU    958.06s WALL (     264 calls)
                                        0.00s GPU  (     264 calls)
     add_vuspsi   :    301.25s CPU    303.74s WALL (     264 calls)

     General routines
     calbec       :    337.87s CPU    342.20s WALL (     264 calls)
     fft          :      6.57s CPU      7.13s WALL (     240 calls)
     ffts         :      0.71s CPU      0.74s WALL (      29 calls)
     fftw         :    876.27s CPU    890.43s WALL (   74864 calls)

     Parallel routines

     PWSCF        :   2498.87s CPU   2566.08s WALL


   This run was terminated on:  16:40:28  25Sep2026            

=------------------------------------------------------------------------------=
   JOB DONE.
=------------------------------------------------------------------------------=
