
     Program PWSCF v.7.5 starts on 25Sep2026 at 15:57:42 

     This program is part of the open-source Quantum ESPRESSO suite
     for quantum simulation of materials; please cite
         "P. Giannozzi et al., J. Phys.:Condens. Matter 21 395502 (2009);
         "P. Giannozzi et al., J. Phys.:Condens. Matter 29 465901 (2017);
         "P. Giannozzi et al., J. Chem. Phys. 152 154105 (2020);
          URL http://www.quantum-espresso.org", 
     in publications or presentations arising from this work. More details at
     http://www.quantum-espresso.org/quote

     Parallel version (MPI & OpenMP), running on      64 processor cores
     Number of MPI processes:                64
     Threads/MPI process:                     1

     MPI processes distributed on     8 nodes
     346936 MiB available memory on the printing compute node when the environment starts

     Waiting for input...
     Reading input from standard input

     Current dimensions of program PWSCF are:
     Max number of different atomic species (ntypx) = 10
     Max number of k-points (npk) =  40000
     Max angular momentum in pseudopotentials (lmaxx) =  4

     gamma-point specific algorithms are used
     Message from routine setup:
     using ibrav=0 with symmetry is DISCOURAGED, use correct ibrav instead

     R & G space division:  proc/nbgrp/npool/nimage =      64
     Subspace diagonalization in iterative solution of the eigenvalue problem:
     one sub-group per band group will be used
     ELPA distributed-memory algorithm (size of sub-group:  8*  8 procs)


     Parallelization info
     --------------------
     sticks:   dense  smooth     PW     G-vecs:    dense   smooth      PW
     Min        3028    3028    757               385820   385820   48222
     Max        3030    3030    758               385826   385826   48226
     Sum      193909  193909  48511             24692771 24692771 3086369

     Using Slab Decomposition



     bravais-lattice index     =            0
     lattice parameter (alat)  =      83.8761  a.u.
     unit-cell volume          =  182779.9669 (a.u.)^3
     number of atoms/cell      =          647
     number of atomic types    =            1
     number of electrons       =      2588.00
     number of Kohn-Sham states=         1324
     kinetic-energy cutoff     =     100.0000  Ry
     charge density cutoff     =     400.0000  Ry
     scf convergence threshold =      1.0E-10
     mixing beta               =       0.3000
     number of iterations used =            8  plain     mixing
     Exchange-correlation= PBE
                           (   1   4   3   4   0   0   0)

     celldm(1)=  83.876124  celldm(2)=   0.000000  celldm(3)=   0.000000
     celldm(4)=   0.000000  celldm(5)=   0.000000  celldm(6)=   0.000000

     crystal axes: (cart. coord. in units of alat)
               a(1) = (   0.866025  -0.500000   0.000000 )  
               a(2) = (   0.866025   0.500000   0.000000 )  
               a(3) = (   0.000000   0.000000   0.357670 )  

     reciprocal axes: (cart. coord. in units 2 pi/alat)
               b(1) = (  0.577350 -1.000000  0.000000 )  
               b(2) = (  0.577350  1.000000 -0.000000 )  
               b(3) = ( -0.000000  0.000000  2.795871 )  


     PseudoPot. # 1 for C  read from file:
     /home/gregb26/links/projects/rrg-cotemich-ac/gregb26/abinit_processing/pseudo/C.upf
     MD5 check sum: 34a24e64c0a39f27c6c36b90a16ac686
     Pseudo is Norm-conserving + core correction, Zval =  4.0
     Generated using ONCVPSP code by D. R. Hamann
     Using radial grid of 1248 points,  4 beta functions with: 
                l(1) =   0
                l(2) =   0
                l(3) =   1
                l(4) =   1

     atomic species   valence    mass     pseudopotential
     C                 4.00    12.01100     C ( 1.00)

      4 Sym. Ops. (no inversion) found



   Cartesian axes

     site n.     atom                  positions (alat units)
         1        C      tau(   1) = (   0.0320750  -0.0000000   0.0000000  )
         2        C      tau(   2) = (   0.0641500  -0.0000000   0.0000000  )
         3        C      tau(   3) = (   0.0801875   0.0277778   0.0000000  )
         4        C      tau(   4) = (   0.1122626   0.0277778   0.0000000  )
         5        C      tau(   5) = (   0.1283001   0.0555556   0.0000000  )
         6        C      tau(   6) = (   0.1603751   0.0555556   0.0000000  )
         7        C      tau(   7) = (   0.1764126   0.0833333   0.0000000  )
         8        C      tau(   8) = (   0.2084876   0.0833333   0.0000000  )
         9        C      tau(   9) = (   0.2245251   0.1111111   0.0000000  )
        10        C      tau(  10) = (   0.2566001   0.1111111   0.0000000  )
        11        C      tau(  11) = (   0.2726376   0.1388889   0.0000000  )
        12        C      tau(  12) = (   0.3047126   0.1388889   0.0000000  )
        13        C      tau(  13) = (   0.3207501   0.1666667   0.0000000  )
        14        C      tau(  14) = (   0.3528252   0.1666667   0.0000000  )
        15        C      tau(  15) = (   0.3688627   0.1944444   0.0000000  )
        16        C      tau(  16) = (   0.4009377   0.1944444   0.0000000  )
        17        C      tau(  17) = (   0.4169752   0.2222222   0.0000000  )
        18        C      tau(  18) = (   0.4490502   0.2222222   0.0000000  )
        19        C      tau(  19) = (   0.4650877   0.2500000   0.0000000  )
        20        C      tau(  20) = (   0.4971627   0.2500000   0.0000000  )
        21        C      tau(  21) = (   0.5132002   0.2777778   0.0000000  )
        22        C      tau(  22) = (   0.5452753   0.2777778   0.0000000  )
        23        C      tau(  23) = (   0.5613128   0.3055556   0.0000000  )
        24        C      tau(  24) = (   0.5933878   0.3055556   0.0000000  )
        25        C      tau(  25) = (   0.6094253   0.3333333   0.0000000  )
        26        C      tau(  26) = (   0.6415003   0.3333333   0.0000000  )
        27        C      tau(  27) = (   0.6575378   0.3611111   0.0000000  )
        28        C      tau(  28) = (   0.6896128   0.3611111   0.0000000  )
        29        C      tau(  29) = (   0.7056503   0.3888889   0.0000000  )
        30        C      tau(  30) = (   0.7377253   0.3888889   0.0000000  )
        31        C      tau(  31) = (   0.7537629   0.4166667   0.0000000  )
        32        C      tau(  32) = (   0.7858379   0.4166667   0.0000000  )
        33        C      tau(  33) = (   0.8018754   0.4444444   0.0000000  )
        34        C      tau(  34) = (   0.8339504   0.4444444   0.0000000  )
        35        C      tau(  35) = (   0.8499879   0.4722222   0.0000000  )
        36        C      tau(  36) = (   0.8820629   0.4722222   0.0000000  )
        37        C      tau(  37) = (   0.0801875  -0.0277778   0.0000000  )
        38        C      tau(  38) = (   0.1122626  -0.0277778   0.0000000  )
        39        C      tau(  39) = (   0.1283001  -0.0000000   0.0000000  )
        40        C      tau(  40) = (   0.1603751   0.0000000   0.0000000  )
        41        C      tau(  41) = (   0.1764126   0.0277778   0.0000000  )
        42        C      tau(  42) = (   0.2084876   0.0277778   0.0000000  )
        43        C      tau(  43) = (   0.2245251   0.0555556   0.0000000  )
        44        C      tau(  44) = (   0.2566001   0.0555556   0.0000000  )
        45        C      tau(  45) = (   0.2726376   0.0833333   0.0000000  )
        46        C      tau(  46) = (   0.3047126   0.0833333   0.0000000  )
        47        C      tau(  47) = (   0.3207501   0.1111111   0.0000000  )
        48        C      tau(  48) = (   0.3528252   0.1111111   0.0000000  )
        49        C      tau(  49) = (   0.3688627   0.1388889   0.0000000  )
        50        C      tau(  50) = (   0.4009377   0.1388889   0.0000000  )
        51        C      tau(  51) = (   0.4169752   0.1666667   0.0000000  )
        52        C      tau(  52) = (   0.4490502   0.1666667   0.0000000  )
        53        C      tau(  53) = (   0.4650877   0.1944444   0.0000000  )
        54        C      tau(  54) = (   0.4971627   0.1944444   0.0000000  )
        55        C      tau(  55) = (   0.5132002   0.2222222   0.0000000  )
        56        C      tau(  56) = (   0.5452753   0.2222222   0.0000000  )
        57        C      tau(  57) = (   0.5613128   0.2500000   0.0000000  )
        58        C      tau(  58) = (   0.5933878   0.2500000   0.0000000  )
        59        C      tau(  59) = (   0.6094253   0.2777778   0.0000000  )
        60        C      tau(  60) = (   0.6415003   0.2777778   0.0000000  )
        61        C      tau(  61) = (   0.6575378   0.3055556   0.0000000  )
        62        C      tau(  62) = (   0.6896128   0.3055556   0.0000000  )
        63        C      tau(  63) = (   0.7056503   0.3333333   0.0000000  )
        64        C      tau(  64) = (   0.7377253   0.3333333   0.0000000  )
        65        C      tau(  65) = (   0.7537629   0.3611111   0.0000000  )
        66        C      tau(  66) = (   0.7858379   0.3611111   0.0000000  )
        67        C      tau(  67) = (   0.8018754   0.3888889   0.0000000  )
        68        C      tau(  68) = (   0.8339504   0.3888889   0.0000000  )
        69        C      tau(  69) = (   0.8499879   0.4166667   0.0000000  )
        70        C      tau(  70) = (   0.8820629   0.4166667   0.0000000  )
        71        C      tau(  71) = (   0.8981004   0.4444444   0.0000000  )
        72        C      tau(  72) = (   0.9301754   0.4444444   0.0000000  )
        73        C      tau(  73) = (   0.1283001  -0.0555556   0.0000000  )
        74        C      tau(  74) = (   0.1603751  -0.0555556   0.0000000  )
        75        C      tau(  75) = (   0.1764126  -0.0277778   0.0000000  )
        76        C      tau(  76) = (   0.2084876  -0.0277778   0.0000000  )
        77        C      tau(  77) = (   0.2245251  -0.0000000   0.0000000  )
        78        C      tau(  78) = (   0.2566001  -0.0000000   0.0000000  )
        79        C      tau(  79) = (   0.2726376   0.0277778   0.0000000  )
        80        C      tau(  80) = (   0.3047126   0.0277778   0.0000000  )
        81        C      tau(  81) = (   0.3207501   0.0555556   0.0000000  )
        82        C      tau(  82) = (   0.3528252   0.0555556   0.0000000  )
        83        C      tau(  83) = (   0.3688627   0.0833333   0.0000000  )
        84        C      tau(  84) = (   0.4009377   0.0833333   0.0000000  )
        85        C      tau(  85) = (   0.4169752   0.1111111   0.0000000  )
        86        C      tau(  86) = (   0.4490502   0.1111111   0.0000000  )
        87        C      tau(  87) = (   0.4650877   0.1388889   0.0000000  )
        88        C      tau(  88) = (   0.4971627   0.1388889   0.0000000  )
        89        C      tau(  89) = (   0.5132002   0.1666667   0.0000000  )
        90        C      tau(  90) = (   0.5452753   0.1666667   0.0000000  )
        91        C      tau(  91) = (   0.5613128   0.1944444   0.0000000  )
        92        C      tau(  92) = (   0.5933878   0.1944444   0.0000000  )
        93        C      tau(  93) = (   0.6094253   0.2222222   0.0000000  )
        94        C      tau(  94) = (   0.6415003   0.2222222   0.0000000  )
        95        C      tau(  95) = (   0.6575378   0.2500000   0.0000000  )
        96        C      tau(  96) = (   0.6896128   0.2500000   0.0000000  )
        97        C      tau(  97) = (   0.7056503   0.2777778   0.0000000  )
        98        C      tau(  98) = (   0.7377253   0.2777778   0.0000000  )
        99        C      tau(  99) = (   0.7537629   0.3055556   0.0000000  )
       100        C      tau( 100) = (   0.7858379   0.3055556   0.0000000  )
       101        C      tau( 101) = (   0.8018754   0.3333333   0.0000000  )
       102        C      tau( 102) = (   0.8339504   0.3333333   0.0000000  )
       103        C      tau( 103) = (   0.8499879   0.3611111   0.0000000  )
       104        C      tau( 104) = (   0.8820629   0.3611111   0.0000000  )
       105        C      tau( 105) = (   0.8981004   0.3888889   0.0000000  )
       106        C      tau( 106) = (   0.9301754   0.3888889   0.0000000  )
       107        C      tau( 107) = (   0.9462129   0.4166667   0.0000000  )
       108        C      tau( 108) = (   0.9782880   0.4166667   0.0000000  )
       109        C      tau( 109) = (   0.1764126  -0.0833333   0.0000000  )
       110        C      tau( 110) = (   0.2084876  -0.0833333   0.0000000  )
       111        C      tau( 111) = (   0.2245251  -0.0555556   0.0000000  )
       112        C      tau( 112) = (   0.2566001  -0.0555556   0.0000000  )
       113        C      tau( 113) = (   0.2726376  -0.0277778   0.0000000  )
       114        C      tau( 114) = (   0.3047126  -0.0277778   0.0000000  )
       115        C      tau( 115) = (   0.3207501   0.0000000   0.0000000  )
       116        C      tau( 116) = (   0.3528252  -0.0000000   0.0000000  )
       117        C      tau( 117) = (   0.3688627   0.0277778   0.0000000  )
       118        C      tau( 118) = (   0.4009377   0.0277778   0.0000000  )
       119        C      tau( 119) = (   0.4169752   0.0555556   0.0000000  )
       120        C      tau( 120) = (   0.4490502   0.0555556   0.0000000  )
       121        C      tau( 121) = (   0.4650877   0.0833333   0.0000000  )
       122        C      tau( 122) = (   0.4971627   0.0833333   0.0000000  )
       123        C      tau( 123) = (   0.5132002   0.1111111   0.0000000  )
       124        C      tau( 124) = (   0.5452753   0.1111111   0.0000000  )
       125        C      tau( 125) = (   0.5613128   0.1388889   0.0000000  )
       126        C      tau( 126) = (   0.5933878   0.1388889   0.0000000  )
       127        C      tau( 127) = (   0.6094253   0.1666667   0.0000000  )
       128        C      tau( 128) = (   0.6415003   0.1666667   0.0000000  )
       129        C      tau( 129) = (   0.6575378   0.1944444   0.0000000  )
       130        C      tau( 130) = (   0.6896128   0.1944444   0.0000000  )
       131        C      tau( 131) = (   0.7056503   0.2222222   0.0000000  )
       132        C      tau( 132) = (   0.7377253   0.2222222   0.0000000  )
       133        C      tau( 133) = (   0.7537629   0.2500000   0.0000000  )
       134        C      tau( 134) = (   0.7858379   0.2500000   0.0000000  )
       135        C      tau( 135) = (   0.8018754   0.2777778   0.0000000  )
       136        C      tau( 136) = (   0.8339504   0.2777778   0.0000000  )
       137        C      tau( 137) = (   0.8499879   0.3055556   0.0000000  )
       138        C      tau( 138) = (   0.8820629   0.3055556   0.0000000  )
       139        C      tau( 139) = (   0.8981004   0.3333333   0.0000000  )
       140        C      tau( 140) = (   0.9301754   0.3333333   0.0000000  )
       141        C      tau( 141) = (   0.9462129   0.3611111   0.0000000  )
       142        C      tau( 142) = (   0.9782880   0.3611111   0.0000000  )
       143        C      tau( 143) = (   0.9943255   0.3888889   0.0000000  )
       144        C      tau( 144) = (   1.0264005   0.3888889   0.0000000  )
       145        C      tau( 145) = (   0.2245251  -0.1111111   0.0000000  )
       146        C      tau( 146) = (   0.2566001  -0.1111111   0.0000000  )
       147        C      tau( 147) = (   0.2726376  -0.0833333   0.0000000  )
       148        C      tau( 148) = (   0.3047126  -0.0833333   0.0000000  )
       149        C      tau( 149) = (   0.3207501  -0.0555556   0.0000000  )
       150        C      tau( 150) = (   0.3528252  -0.0555556   0.0000000  )
       151        C      tau( 151) = (   0.3688627  -0.0277778   0.0000000  )
       152        C      tau( 152) = (   0.4009377  -0.0277778   0.0000000  )
       153        C      tau( 153) = (   0.4169752  -0.0000000   0.0000000  )
       154        C      tau( 154) = (   0.4490502  -0.0000000   0.0000000  )
       155        C      tau( 155) = (   0.4650877   0.0277778   0.0000000  )
       156        C      tau( 156) = (   0.4971627   0.0277778   0.0000000  )
       157        C      tau( 157) = (   0.5132002   0.0555556   0.0000000  )
       158        C      tau( 158) = (   0.5452753   0.0555556   0.0000000  )
       159        C      tau( 159) = (   0.5613128   0.0833333   0.0000000  )
       160        C      tau( 160) = (   0.5933878   0.0833333   0.0000000  )
       161        C      tau( 161) = (   0.6094253   0.1111111   0.0000000  )
       162        C      tau( 162) = (   0.6415003   0.1111111   0.0000000  )
       163        C      tau( 163) = (   0.6575378   0.1388889   0.0000000  )
       164        C      tau( 164) = (   0.6896128   0.1388889   0.0000000  )
       165        C      tau( 165) = (   0.7056503   0.1666667   0.0000000  )
       166        C      tau( 166) = (   0.7377253   0.1666667   0.0000000  )
       167        C      tau( 167) = (   0.7537629   0.1944444   0.0000000  )
       168        C      tau( 168) = (   0.7858379   0.1944444   0.0000000  )
       169        C      tau( 169) = (   0.8018754   0.2222222   0.0000000  )
       170        C      tau( 170) = (   0.8339504   0.2222222   0.0000000  )
       171        C      tau( 171) = (   0.8499879   0.2500000   0.0000000  )
       172        C      tau( 172) = (   0.8820629   0.2500000   0.0000000  )
       173        C      tau( 173) = (   0.8981004   0.2777778   0.0000000  )
       174        C      tau( 174) = (   0.9301754   0.2777778   0.0000000  )
       175        C      tau( 175) = (   0.9462129   0.3055556   0.0000000  )
       176        C      tau( 176) = (   0.9782880   0.3055556   0.0000000  )
       177        C      tau( 177) = (   0.9943255   0.3333333   0.0000000  )
       178        C      tau( 178) = (   1.0264005   0.3333333   0.0000000  )
       179        C      tau( 179) = (   1.0424380   0.3611111   0.0000000  )
       180        C      tau( 180) = (   1.0745130   0.3611111   0.0000000  )
       181        C      tau( 181) = (   0.2726376  -0.1388889   0.0000000  )
       182        C      tau( 182) = (   0.3047126  -0.1388889   0.0000000  )
       183        C      tau( 183) = (   0.3207501  -0.1111111   0.0000000  )
       184        C      tau( 184) = (   0.3528252  -0.1111111   0.0000000  )
       185        C      tau( 185) = (   0.3688627  -0.0833333   0.0000000  )
       186        C      tau( 186) = (   0.4009377  -0.0833333   0.0000000  )
       187        C      tau( 187) = (   0.4169752  -0.0555556   0.0000000  )
       188        C      tau( 188) = (   0.4490502  -0.0555556   0.0000000  )
       189        C      tau( 189) = (   0.4650877  -0.0277778   0.0000000  )
       190        C      tau( 190) = (   0.4971627  -0.0277778   0.0000000  )
       191        C      tau( 191) = (   0.5132002  -0.0000000   0.0000000  )
       192        C      tau( 192) = (   0.5452753  -0.0000000   0.0000000  )
       193        C      tau( 193) = (   0.5613128   0.0277778   0.0000000  )
       194        C      tau( 194) = (   0.5933878   0.0277778   0.0000000  )
       195        C      tau( 195) = (   0.6094253   0.0555556   0.0000000  )
       196        C      tau( 196) = (   0.6415003   0.0555556   0.0000000  )
       197        C      tau( 197) = (   0.6575378   0.0833333   0.0000000  )
       198        C      tau( 198) = (   0.6896128   0.0833333   0.0000000  )
       199        C      tau( 199) = (   0.7056503   0.1111111   0.0000000  )
       200        C      tau( 200) = (   0.7377253   0.1111111   0.0000000  )
       201        C      tau( 201) = (   0.7537629   0.1388889   0.0000000  )
       202        C      tau( 202) = (   0.7858379   0.1388889   0.0000000  )
       203        C      tau( 203) = (   0.8018754   0.1666667   0.0000000  )
       204        C      tau( 204) = (   0.8339504   0.1666667   0.0000000  )
       205        C      tau( 205) = (   0.8499879   0.1944444   0.0000000  )
       206        C      tau( 206) = (   0.8820629   0.1944444   0.0000000  )
       207        C      tau( 207) = (   0.8981004   0.2222222   0.0000000  )
       208        C      tau( 208) = (   0.9301754   0.2222222   0.0000000  )
       209        C      tau( 209) = (   0.9462129   0.2500000   0.0000000  )
       210        C      tau( 210) = (   0.9782880   0.2500000   0.0000000  )
       211        C      tau( 211) = (   0.9943255   0.2777778   0.0000000  )
       212        C      tau( 212) = (   1.0264005   0.2777778   0.0000000  )
       213        C      tau( 213) = (   1.0424380   0.3055556   0.0000000  )
       214        C      tau( 214) = (   1.0745130   0.3055556   0.0000000  )
       215        C      tau( 215) = (   1.0905505   0.3333333   0.0000000  )
       216        C      tau( 216) = (   1.1226255   0.3333333   0.0000000  )
       217        C      tau( 217) = (   0.3207501  -0.1666667   0.0000000  )
       218        C      tau( 218) = (   0.3528252  -0.1666667   0.0000000  )
       219        C      tau( 219) = (   0.3688627  -0.1388889   0.0000000  )
       220        C      tau( 220) = (   0.4009377  -0.1388889   0.0000000  )
       221        C      tau( 221) = (   0.4169752  -0.1111111   0.0000000  )
       222        C      tau( 222) = (   0.4490502  -0.1111111   0.0000000  )
       223        C      tau( 223) = (   0.4650877  -0.0833333   0.0000000  )
       224        C      tau( 224) = (   0.4971627  -0.0833333   0.0000000  )
       225        C      tau( 225) = (   0.5132002  -0.0555556   0.0000000  )
       226        C      tau( 226) = (   0.5452753  -0.0555556   0.0000000  )
       227        C      tau( 227) = (   0.5613128  -0.0277778   0.0000000  )
       228        C      tau( 228) = (   0.5933878  -0.0277778   0.0000000  )
       229        C      tau( 229) = (   0.6094253  -0.0000000   0.0000000  )
       230        C      tau( 230) = (   0.6415003   0.0000000   0.0000000  )
       231        C      tau( 231) = (   0.6575378   0.0277778   0.0000000  )
       232        C      tau( 232) = (   0.6896128   0.0277778   0.0000000  )
       233        C      tau( 233) = (   0.7056503   0.0555556   0.0000000  )
       234        C      tau( 234) = (   0.7377253   0.0555556   0.0000000  )
       235        C      tau( 235) = (   0.7537629   0.0833333   0.0000000  )
       236        C      tau( 236) = (   0.7858379   0.0833333   0.0000000  )
       237        C      tau( 237) = (   0.8018754   0.1111111   0.0000000  )
       238        C      tau( 238) = (   0.8339504   0.1111111   0.0000000  )
       239        C      tau( 239) = (   0.8499879   0.1388889   0.0000000  )
       240        C      tau( 240) = (   0.8820629   0.1388889   0.0000000  )
       241        C      tau( 241) = (   0.8981004   0.1666667   0.0000000  )
       242        C      tau( 242) = (   0.9301754   0.1666667   0.0000000  )
       243        C      tau( 243) = (   0.9462129   0.1944444   0.0000000  )
       244        C      tau( 244) = (   0.9782880   0.1944444   0.0000000  )
       245        C      tau( 245) = (   0.9943255   0.2222222   0.0000000  )
       246        C      tau( 246) = (   1.0264005   0.2222222   0.0000000  )
       247        C      tau( 247) = (   1.0424380   0.2500000   0.0000000  )
       248        C      tau( 248) = (   1.0745130   0.2500000   0.0000000  )
       249        C      tau( 249) = (   1.0905505   0.2777778   0.0000000  )
       250        C      tau( 250) = (   1.1226255   0.2777778   0.0000000  )
       251        C      tau( 251) = (   1.1386630   0.3055556   0.0000000  )
       252        C      tau( 252) = (   1.1707380   0.3055556   0.0000000  )
       253        C      tau( 253) = (   0.3688627  -0.1944444   0.0000000  )
       254        C      tau( 254) = (   0.4009377  -0.1944444   0.0000000  )
       255        C      tau( 255) = (   0.4169752  -0.1666667   0.0000000  )
       256        C      tau( 256) = (   0.4490502  -0.1666667   0.0000000  )
       257        C      tau( 257) = (   0.4650877  -0.1388889   0.0000000  )
       258        C      tau( 258) = (   0.4971627  -0.1388889   0.0000000  )
       259        C      tau( 259) = (   0.5132002  -0.1111111   0.0000000  )
       260        C      tau( 260) = (   0.5452753  -0.1111111   0.0000000  )
       261        C      tau( 261) = (   0.5613128  -0.0833333   0.0000000  )
       262        C      tau( 262) = (   0.5933878  -0.0833333   0.0000000  )
       263        C      tau( 263) = (   0.6094253  -0.0555556   0.0000000  )
       264        C      tau( 264) = (   0.6415003  -0.0555556   0.0000000  )
       265        C      tau( 265) = (   0.6575378  -0.0277778   0.0000000  )
       266        C      tau( 266) = (   0.6896128  -0.0277778   0.0000000  )
       267        C      tau( 267) = (   0.7056503  -0.0000000   0.0000000  )
       268        C      tau( 268) = (   0.7377253   0.0000000   0.0000000  )
       269        C      tau( 269) = (   0.7537629   0.0277778   0.0000000  )
       270        C      tau( 270) = (   0.7858379   0.0277778   0.0000000  )
       271        C      tau( 271) = (   0.8018754   0.0555556   0.0000000  )
       272        C      tau( 272) = (   0.8339504   0.0555556   0.0000000  )
       273        C      tau( 273) = (   0.8499879   0.0833333   0.0000000  )
       274        C      tau( 274) = (   0.8820629   0.0833333   0.0000000  )
       275        C      tau( 275) = (   0.8981004   0.1111111   0.0000000  )
       276        C      tau( 276) = (   0.9301754   0.1111111   0.0000000  )
       277        C      tau( 277) = (   0.9462129   0.1388889   0.0000000  )
       278        C      tau( 278) = (   0.9782880   0.1388889   0.0000000  )
       279        C      tau( 279) = (   0.9943255   0.1666667   0.0000000  )
       280        C      tau( 280) = (   1.0264005   0.1666667   0.0000000  )
       281        C      tau( 281) = (   1.0424380   0.1944444   0.0000000  )
       282        C      tau( 282) = (   1.0745130   0.1944444   0.0000000  )
       283        C      tau( 283) = (   1.0905505   0.2222222   0.0000000  )
       284        C      tau( 284) = (   1.1226255   0.2222222   0.0000000  )
       285        C      tau( 285) = (   1.1386630   0.2500000   0.0000000  )
       286        C      tau( 286) = (   1.1707380   0.2500000   0.0000000  )
       287        C      tau( 287) = (   1.1867756   0.2777778   0.0000000  )
       288        C      tau( 288) = (   1.2188506   0.2777778   0.0000000  )
       289        C      tau( 289) = (   0.4169752  -0.2222222   0.0000000  )
       290        C      tau( 290) = (   0.4490502  -0.2222222   0.0000000  )
       291        C      tau( 291) = (   0.4650877  -0.1944444   0.0000000  )
       292        C      tau( 292) = (   0.4971627  -0.1944444   0.0000000  )
       293        C      tau( 293) = (   0.5132002  -0.1666667   0.0000000  )
       294        C      tau( 294) = (   0.5452753  -0.1666667   0.0000000  )
       295        C      tau( 295) = (   0.5613128  -0.1388889   0.0000000  )
       296        C      tau( 296) = (   0.5933878  -0.1388889   0.0000000  )
       297        C      tau( 297) = (   0.6094253  -0.1111111   0.0000000  )
       298        C      tau( 298) = (   0.6415003  -0.1111111   0.0000000  )
       299        C      tau( 299) = (   0.6575378  -0.0833333   0.0000000  )
       300        C      tau( 300) = (   0.6896128  -0.0833333   0.0000000  )
       301        C      tau( 301) = (   0.7056503  -0.0555556   0.0000000  )
       302        C      tau( 302) = (   0.7377253  -0.0555556   0.0000000  )
       303        C      tau( 303) = (   0.7537629  -0.0277778   0.0000000  )
       304        C      tau( 304) = (   0.7858379  -0.0277778   0.0000000  )
       305        C      tau( 305) = (   0.8018754   0.0000000   0.0000000  )
       306        C      tau( 306) = (   0.8339504  -0.0000000   0.0000000  )
       307        C      tau( 307) = (   0.8499879   0.0277778   0.0000000  )
       308        C      tau( 308) = (   0.8820629   0.0277778   0.0000000  )
       309        C      tau( 309) = (   0.8981004   0.0555556   0.0000000  )
       310        C      tau( 310) = (   0.9301754   0.0555556   0.0000000  )
       311        C      tau( 311) = (   0.9462129   0.0833333   0.0000000  )
       312        C      tau( 312) = (   0.9782880   0.0833333   0.0000000  )
       313        C      tau( 313) = (   0.9943255   0.1111111   0.0000000  )
       314        C      tau( 314) = (   1.0264005   0.1111111   0.0000000  )
       315        C      tau( 315) = (   1.0424380   0.1388889   0.0000000  )
       316        C      tau( 316) = (   1.0745130   0.1388889   0.0000000  )
       317        C      tau( 317) = (   1.0905505   0.1666667   0.0000000  )
       318        C      tau( 318) = (   1.1226255   0.1666667   0.0000000  )
       319        C      tau( 319) = (   1.1386630   0.1944444   0.0000000  )
       320        C      tau( 320) = (   1.1707380   0.1944444   0.0000000  )
       321        C      tau( 321) = (   1.1867756   0.2222222   0.0000000  )
       322        C      tau( 322) = (   1.2188506   0.2222222   0.0000000  )
       323        C      tau( 323) = (   1.2348881   0.2500000   0.0000000  )
       324        C      tau( 324) = (   1.2669631   0.2500000   0.0000000  )
       325        C      tau( 325) = (   0.4650877  -0.2500000   0.0000000  )
       326        C      tau( 326) = (   0.4971627  -0.2500000   0.0000000  )
       327        C      tau( 327) = (   0.5132002  -0.2222222   0.0000000  )
       328        C      tau( 328) = (   0.5452753  -0.2222222   0.0000000  )
       329        C      tau( 329) = (   0.5613128  -0.1944444   0.0000000  )
       330        C      tau( 330) = (   0.5933878  -0.1944444   0.0000000  )
       331        C      tau( 331) = (   0.6094253  -0.1666667   0.0000000  )
       332        C      tau( 332) = (   0.6415003  -0.1666667   0.0000000  )
       333        C      tau( 333) = (   0.6575378  -0.1388889   0.0000000  )
       334        C      tau( 334) = (   0.6896128  -0.1388889   0.0000000  )
       335        C      tau( 335) = (   0.7056503  -0.1111111   0.0000000  )
       336        C      tau( 336) = (   0.7377253  -0.1111111   0.0000000  )
       337        C      tau( 337) = (   0.7537629  -0.0833333   0.0000000  )
       338        C      tau( 338) = (   0.7858379  -0.0833333   0.0000000  )
       339        C      tau( 339) = (   0.8018754  -0.0555556   0.0000000  )
       340        C      tau( 340) = (   0.8339504  -0.0555556   0.0000000  )
       341        C      tau( 341) = (   0.8499879  -0.0277778   0.0000000  )
       342        C      tau( 342) = (   0.8820629  -0.0277778   0.0000000  )
       343        C      tau( 343) = (   0.9301754   0.0000000   0.0000000  )
       344        C      tau( 344) = (   0.9462129   0.0277778   0.0000000  )
       345        C      tau( 345) = (   0.9782880   0.0277778   0.0000000  )
       346        C      tau( 346) = (   0.9943255   0.0555556   0.0000000  )
       347        C      tau( 347) = (   1.0264005   0.0555556   0.0000000  )
       348        C      tau( 348) = (   1.0424380   0.0833333   0.0000000  )
       349        C      tau( 349) = (   1.0745130   0.0833333   0.0000000  )
       350        C      tau( 350) = (   1.0905505   0.1111111   0.0000000  )
       351        C      tau( 351) = (   1.1226255   0.1111111   0.0000000  )
       352        C      tau( 352) = (   1.1386630   0.1388889   0.0000000  )
       353        C      tau( 353) = (   1.1707380   0.1388889   0.0000000  )
       354        C      tau( 354) = (   1.1867756   0.1666667   0.0000000  )
       355        C      tau( 355) = (   1.2188506   0.1666667   0.0000000  )
       356        C      tau( 356) = (   1.2348881   0.1944444   0.0000000  )
       357        C      tau( 357) = (   1.2669631   0.1944444   0.0000000  )
       358        C      tau( 358) = (   1.2830006   0.2222222   0.0000000  )
       359        C      tau( 359) = (   1.3150756   0.2222222   0.0000000  )
       360        C      tau( 360) = (   0.5132002  -0.2777778   0.0000000  )
       361        C      tau( 361) = (   0.5452753  -0.2777778   0.0000000  )
       362        C      tau( 362) = (   0.5613128  -0.2500000   0.0000000  )
       363        C      tau( 363) = (   0.5933878  -0.2500000   0.0000000  )
       364        C      tau( 364) = (   0.6094253  -0.2222222   0.0000000  )
       365        C      tau( 365) = (   0.6415003  -0.2222222   0.0000000  )
       366        C      tau( 366) = (   0.6575378  -0.1944444   0.0000000  )
       367        C      tau( 367) = (   0.6896128  -0.1944444   0.0000000  )
       368        C      tau( 368) = (   0.7056503  -0.1666667   0.0000000  )
       369        C      tau( 369) = (   0.7377253  -0.1666667   0.0000000  )
       370        C      tau( 370) = (   0.7537629  -0.1388889   0.0000000  )
       371        C      tau( 371) = (   0.7858379  -0.1388889   0.0000000  )
       372        C      tau( 372) = (   0.8018754  -0.1111111   0.0000000  )
       373        C      tau( 373) = (   0.8339504  -0.1111111   0.0000000  )
       374        C      tau( 374) = (   0.8499879  -0.0833333   0.0000000  )
       375        C      tau( 375) = (   0.8820629  -0.0833333   0.0000000  )
       376        C      tau( 376) = (   0.8981004  -0.0555556   0.0000000  )
       377        C      tau( 377) = (   0.9301754  -0.0555556   0.0000000  )
       378        C      tau( 378) = (   0.9462129  -0.0277778   0.0000000  )
       379        C      tau( 379) = (   0.9782880  -0.0277778   0.0000000  )
       380        C      tau( 380) = (   0.9943255  -0.0000000   0.0000000  )
       381        C      tau( 381) = (   1.0264005  -0.0000000   0.0000000  )
       382        C      tau( 382) = (   1.0424380   0.0277778   0.0000000  )
       383        C      tau( 383) = (   1.0745130   0.0277778   0.0000000  )
       384        C      tau( 384) = (   1.0905505   0.0555556   0.0000000  )
       385        C      tau( 385) = (   1.1226255   0.0555556   0.0000000  )
       386        C      tau( 386) = (   1.1386630   0.0833333   0.0000000  )
       387        C      tau( 387) = (   1.1707380   0.0833333   0.0000000  )
       388        C      tau( 388) = (   1.1867756   0.1111111   0.0000000  )
       389        C      tau( 389) = (   1.2188506   0.1111111   0.0000000  )
       390        C      tau( 390) = (   1.2348881   0.1388889   0.0000000  )
       391        C      tau( 391) = (   1.2669631   0.1388889   0.0000000  )
       392        C      tau( 392) = (   1.2830006   0.1666667   0.0000000  )
       393        C      tau( 393) = (   1.3150756   0.1666667   0.0000000  )
       394        C      tau( 394) = (   1.3311131   0.1944444   0.0000000  )
       395        C      tau( 395) = (   1.3631881   0.1944444   0.0000000  )
       396        C      tau( 396) = (   0.5613128  -0.3055556   0.0000000  )
       397        C      tau( 397) = (   0.5933878  -0.3055556   0.0000000  )
       398        C      tau( 398) = (   0.6094253  -0.2777778   0.0000000  )
       399        C      tau( 399) = (   0.6415003  -0.2777778   0.0000000  )
       400        C      tau( 400) = (   0.6575378  -0.2500000   0.0000000  )
       401        C      tau( 401) = (   0.6896128  -0.2500000   0.0000000  )
       402        C      tau( 402) = (   0.7056503  -0.2222222   0.0000000  )
       403        C      tau( 403) = (   0.7377253  -0.2222222   0.0000000  )
       404        C      tau( 404) = (   0.7537629  -0.1944444   0.0000000  )
       405        C      tau( 405) = (   0.7858379  -0.1944444   0.0000000  )
       406        C      tau( 406) = (   0.8018754  -0.1666667   0.0000000  )
       407        C      tau( 407) = (   0.8339504  -0.1666667   0.0000000  )
       408        C      tau( 408) = (   0.8499879  -0.1388889   0.0000000  )
       409        C      tau( 409) = (   0.8820629  -0.1388889   0.0000000  )
       410        C      tau( 410) = (   0.8981004  -0.1111111   0.0000000  )
       411        C      tau( 411) = (   0.9301754  -0.1111111   0.0000000  )
       412        C      tau( 412) = (   0.9462129  -0.0833333   0.0000000  )
       413        C      tau( 413) = (   0.9782880  -0.0833333   0.0000000  )
       414        C      tau( 414) = (   0.9943255  -0.0555556   0.0000000  )
       415        C      tau( 415) = (   1.0264005  -0.0555556   0.0000000  )
       416        C      tau( 416) = (   1.0424380  -0.0277778   0.0000000  )
       417        C      tau( 417) = (   1.0745130  -0.0277778   0.0000000  )
       418        C      tau( 418) = (   1.0905505  -0.0000000   0.0000000  )
       419        C      tau( 419) = (   1.1226255  -0.0000000   0.0000000  )
       420        C      tau( 420) = (   1.1386630   0.0277778   0.0000000  )
       421        C      tau( 421) = (   1.1707380   0.0277778   0.0000000  )
       422        C      tau( 422) = (   1.1867756   0.0555556   0.0000000  )
       423        C      tau( 423) = (   1.2188506   0.0555556   0.0000000  )
       424        C      tau( 424) = (   1.2348881   0.0833333   0.0000000  )
       425        C      tau( 425) = (   1.2669631   0.0833333   0.0000000  )
       426        C      tau( 426) = (   1.2830006   0.1111111   0.0000000  )
       427        C      tau( 427) = (   1.3150756   0.1111111   0.0000000  )
       428        C      tau( 428) = (   1.3311131   0.1388889   0.0000000  )
       429        C      tau( 429) = (   1.3631881   0.1388889   0.0000000  )
       430        C      tau( 430) = (   1.3792256   0.1666667   0.0000000  )
       431        C      tau( 431) = (   1.4113007   0.1666667   0.0000000  )
       432        C      tau( 432) = (   0.6094253  -0.3333333   0.0000000  )
       433        C      tau( 433) = (   0.6415003  -0.3333333   0.0000000  )
       434        C      tau( 434) = (   0.6575378  -0.3055556   0.0000000  )
       435        C      tau( 435) = (   0.6896128  -0.3055556   0.0000000  )
       436        C      tau( 436) = (   0.7056503  -0.2777778   0.0000000  )
       437        C      tau( 437) = (   0.7377253  -0.2777778   0.0000000  )
       438        C      tau( 438) = (   0.7537629  -0.2500000   0.0000000  )
       439        C      tau( 439) = (   0.7858379  -0.2500000   0.0000000  )
       440        C      tau( 440) = (   0.8018754  -0.2222222   0.0000000  )
       441        C      tau( 441) = (   0.8339504  -0.2222222   0.0000000  )
       442        C      tau( 442) = (   0.8499879  -0.1944444   0.0000000  )
       443        C      tau( 443) = (   0.8820629  -0.1944444   0.0000000  )
       444        C      tau( 444) = (   0.8981004  -0.1666667   0.0000000  )
       445        C      tau( 445) = (   0.9301754  -0.1666667   0.0000000  )
       446        C      tau( 446) = (   0.9462129  -0.1388889   0.0000000  )
       447        C      tau( 447) = (   0.9782880  -0.1388889   0.0000000  )
       448        C      tau( 448) = (   0.9943255  -0.1111111   0.0000000  )
       449        C      tau( 449) = (   1.0264005  -0.1111111   0.0000000  )
       450        C      tau( 450) = (   1.0424380  -0.0833333   0.0000000  )
       451        C      tau( 451) = (   1.0745130  -0.0833333   0.0000000  )
       452        C      tau( 452) = (   1.0905505  -0.0555556   0.0000000  )
       453        C      tau( 453) = (   1.1226255  -0.0555556   0.0000000  )
       454        C      tau( 454) = (   1.1386630  -0.0277778   0.0000000  )
       455        C      tau( 455) = (   1.1707380  -0.0277778   0.0000000  )
       456        C      tau( 456) = (   1.1867756   0.0000000   0.0000000  )
       457        C      tau( 457) = (   1.2188506  -0.0000000   0.0000000  )
       458        C      tau( 458) = (   1.2348881   0.0277778   0.0000000  )
       459        C      tau( 459) = (   1.2669631   0.0277778   0.0000000  )
       460        C      tau( 460) = (   1.2830006   0.0555556   0.0000000  )
       461        C      tau( 461) = (   1.3150756   0.0555556   0.0000000  )
       462        C      tau( 462) = (   1.3311131   0.0833333   0.0000000  )
       463        C      tau( 463) = (   1.3631881   0.0833333   0.0000000  )
       464        C      tau( 464) = (   1.3792256   0.1111111   0.0000000  )
       465        C      tau( 465) = (   1.4113007   0.1111111   0.0000000  )
       466        C      tau( 466) = (   1.4273382   0.1388889   0.0000000  )
       467        C      tau( 467) = (   1.4594132   0.1388889   0.0000000  )
       468        C      tau( 468) = (   0.6575378  -0.3611111   0.0000000  )
       469        C      tau( 469) = (   0.6896128  -0.3611111   0.0000000  )
       470        C      tau( 470) = (   0.7056503  -0.3333333   0.0000000  )
       471        C      tau( 471) = (   0.7377253  -0.3333333   0.0000000  )
       472        C      tau( 472) = (   0.7537629  -0.3055556   0.0000000  )
       473        C      tau( 473) = (   0.7858379  -0.3055556   0.0000000  )
       474        C      tau( 474) = (   0.8018754  -0.2777778   0.0000000  )
       475        C      tau( 475) = (   0.8339504  -0.2777778   0.0000000  )
       476        C      tau( 476) = (   0.8499879  -0.2500000   0.0000000  )
       477        C      tau( 477) = (   0.8820629  -0.2500000   0.0000000  )
       478        C      tau( 478) = (   0.8981004  -0.2222222   0.0000000  )
       479        C      tau( 479) = (   0.9301754  -0.2222222   0.0000000  )
       480        C      tau( 480) = (   0.9462129  -0.1944444   0.0000000  )
       481        C      tau( 481) = (   0.9782880  -0.1944444   0.0000000  )
       482        C      tau( 482) = (   0.9943255  -0.1666667   0.0000000  )
       483        C      tau( 483) = (   1.0264005  -0.1666667   0.0000000  )
       484        C      tau( 484) = (   1.0424380  -0.1388889   0.0000000  )
       485        C      tau( 485) = (   1.0745130  -0.1388889   0.0000000  )
       486        C      tau( 486) = (   1.0905505  -0.1111111   0.0000000  )
       487        C      tau( 487) = (   1.1226255  -0.1111111   0.0000000  )
       488        C      tau( 488) = (   1.1386630  -0.0833333   0.0000000  )
       489        C      tau( 489) = (   1.1707380  -0.0833333   0.0000000  )
       490        C      tau( 490) = (   1.1867756  -0.0555556   0.0000000  )
       491        C      tau( 491) = (   1.2188506  -0.0555556   0.0000000  )
       492        C      tau( 492) = (   1.2348881  -0.0277778   0.0000000  )
       493        C      tau( 493) = (   1.2669631  -0.0277778   0.0000000  )
       494        C      tau( 494) = (   1.2830006   0.0000000   0.0000000  )
       495        C      tau( 495) = (   1.3150756  -0.0000000   0.0000000  )
       496        C      tau( 496) = (   1.3311131   0.0277778   0.0000000  )
       497        C      tau( 497) = (   1.3631881   0.0277778   0.0000000  )
       498        C      tau( 498) = (   1.3792256   0.0555556   0.0000000  )
       499        C      tau( 499) = (   1.4113007   0.0555556   0.0000000  )
       500        C      tau( 500) = (   1.4273382   0.0833333   0.0000000  )
       501        C      tau( 501) = (   1.4594132   0.0833333   0.0000000  )
       502        C      tau( 502) = (   1.4754507   0.1111111   0.0000000  )
       503        C      tau( 503) = (   1.5075257   0.1111111   0.0000000  )
       504        C      tau( 504) = (   0.7056503  -0.3888889   0.0000000  )
       505        C      tau( 505) = (   0.7377253  -0.3888889   0.0000000  )
       506        C      tau( 506) = (   0.7537629  -0.3611111   0.0000000  )
       507        C      tau( 507) = (   0.7858379  -0.3611111   0.0000000  )
       508        C      tau( 508) = (   0.8018754  -0.3333333   0.0000000  )
       509        C      tau( 509) = (   0.8339504  -0.3333333   0.0000000  )
       510        C      tau( 510) = (   0.8499879  -0.3055556   0.0000000  )
       511        C      tau( 511) = (   0.8820629  -0.3055556   0.0000000  )
       512        C      tau( 512) = (   0.8981004  -0.2777778   0.0000000  )
       513        C      tau( 513) = (   0.9301754  -0.2777778   0.0000000  )
       514        C      tau( 514) = (   0.9462129  -0.2500000   0.0000000  )
       515        C      tau( 515) = (   0.9782880  -0.2500000   0.0000000  )
       516        C      tau( 516) = (   0.9943255  -0.2222222   0.0000000  )
       517        C      tau( 517) = (   1.0264005  -0.2222222   0.0000000  )
       518        C      tau( 518) = (   1.0424380  -0.1944444   0.0000000  )
       519        C      tau( 519) = (   1.0745130  -0.1944444   0.0000000  )
       520        C      tau( 520) = (   1.0905505  -0.1666667   0.0000000  )
       521        C      tau( 521) = (   1.1226255  -0.1666667   0.0000000  )
       522        C      tau( 522) = (   1.1386630  -0.1388889   0.0000000  )
       523        C      tau( 523) = (   1.1707380  -0.1388889   0.0000000  )
       524        C      tau( 524) = (   1.1867756  -0.1111111   0.0000000  )
       525        C      tau( 525) = (   1.2188506  -0.1111111   0.0000000  )
       526        C      tau( 526) = (   1.2348881  -0.0833333   0.0000000  )
       527        C      tau( 527) = (   1.2669631  -0.0833333   0.0000000  )
       528        C      tau( 528) = (   1.2830006  -0.0555556   0.0000000  )
       529        C      tau( 529) = (   1.3150756  -0.0555556   0.0000000  )
       530        C      tau( 530) = (   1.3311131  -0.0277778   0.0000000  )
       531        C      tau( 531) = (   1.3631881  -0.0277778   0.0000000  )
       532        C      tau( 532) = (   1.3792256   0.0000000   0.0000000  )
       533        C      tau( 533) = (   1.4113007  -0.0000000   0.0000000  )
       534        C      tau( 534) = (   1.4273382   0.0277778   0.0000000  )
       535        C      tau( 535) = (   1.4594132   0.0277778   0.0000000  )
       536        C      tau( 536) = (   1.4754507   0.0555556   0.0000000  )
       537        C      tau( 537) = (   1.5075257   0.0555556   0.0000000  )
       538        C      tau( 538) = (   1.5235632   0.0833333   0.0000000  )
       539        C      tau( 539) = (   1.5556382   0.0833333   0.0000000  )
       540        C      tau( 540) = (   0.7537629  -0.4166667   0.0000000  )
       541        C      tau( 541) = (   0.7858379  -0.4166667   0.0000000  )
       542        C      tau( 542) = (   0.8018754  -0.3888889   0.0000000  )
       543        C      tau( 543) = (   0.8339504  -0.3888889   0.0000000  )
       544        C      tau( 544) = (   0.8499879  -0.3611111   0.0000000  )
       545        C      tau( 545) = (   0.8820629  -0.3611111   0.0000000  )
       546        C      tau( 546) = (   0.8981004  -0.3333333   0.0000000  )
       547        C      tau( 547) = (   0.9301754  -0.3333333   0.0000000  )
       548        C      tau( 548) = (   0.9462129  -0.3055556   0.0000000  )
       549        C      tau( 549) = (   0.9782880  -0.3055556   0.0000000  )
       550        C      tau( 550) = (   0.9943255  -0.2777778   0.0000000  )
       551        C      tau( 551) = (   1.0264005  -0.2777778   0.0000000  )
       552        C      tau( 552) = (   1.0424380  -0.2500000   0.0000000  )
       553        C      tau( 553) = (   1.0745130  -0.2500000   0.0000000  )
       554        C      tau( 554) = (   1.0905505  -0.2222222   0.0000000  )
       555        C      tau( 555) = (   1.1226255  -0.2222222   0.0000000  )
       556        C      tau( 556) = (   1.1386630  -0.1944444   0.0000000  )
       557        C      tau( 557) = (   1.1707380  -0.1944444   0.0000000  )
       558        C      tau( 558) = (   1.1867756  -0.1666667   0.0000000  )
       559        C      tau( 559) = (   1.2188506  -0.1666667   0.0000000  )
       560        C      tau( 560) = (   1.2348881  -0.1388889   0.0000000  )
       561        C      tau( 561) = (   1.2669631  -0.1388889   0.0000000  )
       562        C      tau( 562) = (   1.2830006  -0.1111111   0.0000000  )
       563        C      tau( 563) = (   1.3150756  -0.1111111   0.0000000  )
       564        C      tau( 564) = (   1.3311131  -0.0833333   0.0000000  )
       565        C      tau( 565) = (   1.3631881  -0.0833333   0.0000000  )
       566        C      tau( 566) = (   1.3792256  -0.0555556   0.0000000  )
       567        C      tau( 567) = (   1.4113007  -0.0555556   0.0000000  )
       568        C      tau( 568) = (   1.4273382  -0.0277778   0.0000000  )
       569        C      tau( 569) = (   1.4594132  -0.0277778   0.0000000  )
       570        C      tau( 570) = (   1.4754507   0.0000000   0.0000000  )
       571        C      tau( 571) = (   1.5075257   0.0000000   0.0000000  )
       572        C      tau( 572) = (   1.5235632   0.0277778   0.0000000  )
       573        C      tau( 573) = (   1.5556382   0.0277778   0.0000000  )
       574        C      tau( 574) = (   1.5716757   0.0555556   0.0000000  )
       575        C      tau( 575) = (   1.6037507   0.0555556   0.0000000  )
       576        C      tau( 576) = (   0.8018754  -0.4444444   0.0000000  )
       577        C      tau( 577) = (   0.8339504  -0.4444444   0.0000000  )
       578        C      tau( 578) = (   0.8499879  -0.4166667   0.0000000  )
       579        C      tau( 579) = (   0.8820629  -0.4166667   0.0000000  )
       580        C      tau( 580) = (   0.8981004  -0.3888889   0.0000000  )
       581        C      tau( 581) = (   0.9301754  -0.3888889   0.0000000  )
       582        C      tau( 582) = (   0.9462129  -0.3611111   0.0000000  )
       583        C      tau( 583) = (   0.9782880  -0.3611111   0.0000000  )
       584        C      tau( 584) = (   0.9943255  -0.3333333   0.0000000  )
       585        C      tau( 585) = (   1.0264005  -0.3333333   0.0000000  )
       586        C      tau( 586) = (   1.0424380  -0.3055556   0.0000000  )
       587        C      tau( 587) = (   1.0745130  -0.3055556   0.0000000  )
       588        C      tau( 588) = (   1.0905505  -0.2777778   0.0000000  )
       589        C      tau( 589) = (   1.1226255  -0.2777778   0.0000000  )
       590        C      tau( 590) = (   1.1386630  -0.2500000   0.0000000  )
       591        C      tau( 591) = (   1.1707380  -0.2500000   0.0000000  )
       592        C      tau( 592) = (   1.1867756  -0.2222222   0.0000000  )
       593        C      tau( 593) = (   1.2188506  -0.2222222   0.0000000  )
       594        C      tau( 594) = (   1.2348881  -0.1944444   0.0000000  )
       595        C      tau( 595) = (   1.2669631  -0.1944444   0.0000000  )
       596        C      tau( 596) = (   1.2830006  -0.1666667   0.0000000  )
       597        C      tau( 597) = (   1.3150756  -0.1666667   0.0000000  )
       598        C      tau( 598) = (   1.3311131  -0.1388889   0.0000000  )
       599        C      tau( 599) = (   1.3631881  -0.1388889   0.0000000  )
       600        C      tau( 600) = (   1.3792256  -0.1111111   0.0000000  )
       601        C      tau( 601) = (   1.4113007  -0.1111111   0.0000000  )
       602        C      tau( 602) = (   1.4273382  -0.0833333   0.0000000  )
       603        C      tau( 603) = (   1.4594132  -0.0833333   0.0000000  )
       604        C      tau( 604) = (   1.4754507  -0.0555556   0.0000000  )
       605        C      tau( 605) = (   1.5075257  -0.0555556   0.0000000  )
       606        C      tau( 606) = (   1.5235632  -0.0277778   0.0000000  )
       607        C      tau( 607) = (   1.5556382  -0.0277778   0.0000000  )
       608        C      tau( 608) = (   1.5716757   0.0000000   0.0000000  )
       609        C      tau( 609) = (   1.6037507   0.0000000   0.0000000  )
       610        C      tau( 610) = (   1.6197883   0.0277778   0.0000000  )
       611        C      tau( 611) = (   1.6518633   0.0277778   0.0000000  )
       612        C      tau( 612) = (   0.8499879  -0.4722222   0.0000000  )
       613        C      tau( 613) = (   0.8820629  -0.4722222   0.0000000  )
       614        C      tau( 614) = (   0.8981004  -0.4444444   0.0000000  )
       615        C      tau( 615) = (   0.9301754  -0.4444444   0.0000000  )
       616        C      tau( 616) = (   0.9462129  -0.4166667   0.0000000  )
       617        C      tau( 617) = (   0.9782880  -0.4166667   0.0000000  )
       618        C      tau( 618) = (   0.9943255  -0.3888889   0.0000000  )
       619        C      tau( 619) = (   1.0264005  -0.3888889   0.0000000  )
       620        C      tau( 620) = (   1.0424380  -0.3611111   0.0000000  )
       621        C      tau( 621) = (   1.0745130  -0.3611111   0.0000000  )
       622        C      tau( 622) = (   1.0905505  -0.3333333   0.0000000  )
       623        C      tau( 623) = (   1.1226255  -0.3333333   0.0000000  )
       624        C      tau( 624) = (   1.1386630  -0.3055556   0.0000000  )
       625        C      tau( 625) = (   1.1707380  -0.3055556   0.0000000  )
       626        C      tau( 626) = (   1.1867756  -0.2777778   0.0000000  )
       627        C      tau( 627) = (   1.2188506  -0.2777778   0.0000000  )
       628        C      tau( 628) = (   1.2348881  -0.2500000   0.0000000  )
       629        C      tau( 629) = (   1.2669631  -0.2500000   0.0000000  )
       630        C      tau( 630) = (   1.2830006  -0.2222222   0.0000000  )
       631        C      tau( 631) = (   1.3150756  -0.2222222   0.0000000  )
       632        C      tau( 632) = (   1.3311131  -0.1944444   0.0000000  )
       633        C      tau( 633) = (   1.3631881  -0.1944444   0.0000000  )
       634        C      tau( 634) = (   1.3792256  -0.1666667   0.0000000  )
       635        C      tau( 635) = (   1.4113007  -0.1666667   0.0000000  )
       636        C      tau( 636) = (   1.4273382  -0.1388889   0.0000000  )
       637        C      tau( 637) = (   1.4594132  -0.1388889   0.0000000  )
       638        C      tau( 638) = (   1.4754507  -0.1111111   0.0000000  )
       639        C      tau( 639) = (   1.5075257  -0.1111111   0.0000000  )
       640        C      tau( 640) = (   1.5235632  -0.0833333   0.0000000  )
       641        C      tau( 641) = (   1.5556382  -0.0833333   0.0000000  )
       642        C      tau( 642) = (   1.5716757  -0.0555556   0.0000000  )
       643        C      tau( 643) = (   1.6037507  -0.0555556   0.0000000  )
       644        C      tau( 644) = (   1.6197883  -0.0277778   0.0000000  )
       645        C      tau( 645) = (   1.6518633  -0.0277778   0.0000000  )
       646        C      tau( 646) = (   1.6679008  -0.0000000   0.0000000  )
       647        C      tau( 647) = (   1.6999758   0.0000000   0.0000000  )

     number of k points=     1  Marzari-Vanderbilt smearing, width (Ry)=  0.0100
                       cart. coord. in units 2pi/alat
        k(    1) = (   0.0000000   0.0000000   0.0000000), wk =   2.0000000

     Dense  grid: 12346386 G-vectors     FFT dimensions: ( 540, 540, 192)

     Estimated max dynamical RAM per process >       4.43 GB

     Estimated total dynamical RAM >     283.48 GB
 ----2D----2D----2D----2D----2D----2D----2D----2D----2D----2D----2D----2D
  The code is running with the 2D cutoff
  Please refer to:
  Sohier, T., Calandra, M., & Mauri, F. (2017), 
  Density functional perturbation theory for gated two-dimensional heterostructures:
  Theoretical developments and application to flexural phonons in graphene.
  Physical Review B, 96(7), 75448. https://doi.org/10.1103/PhysRevB.96.075448
 ----2D----2D----2D----2D----2D----2D----2D----2D----2D----2D----2D----2D

     Initial potential from superposition of free atoms

     starting charge    2587.9711, renormalised to    2588.0000

     negative rho (up, down):  4.908E-04 0.000E+00
     Starting wfcs are 2588 randomized atomic wfcs

     total cpu time spent up to now is      174.3 secs

     per-process dynamical memory:  2705.8 Mb

     Self-consistent Calculation

     iteration #  1     ecut=   100.00 Ry     beta= 0.30
     Davidson diagonalization with overlap
     ethr =  1.00E-02,  avg # of iterations =  2.0

     negative rho (up, down):  1.947E-06 0.000E+00

     total cpu time spent up to now is      434.1 secs

     total energy              =   -7801.62766564 Ry
     estimated scf accuracy    <      55.07723546 Ry

     iteration #  2     ecut=   100.00 Ry     beta= 0.30
     Davidson diagonalization with overlap
     ethr =  2.13E-03,  avg # of iterations =  2.0

     negative rho (up, down):  8.817E-07 0.000E+00

     total cpu time spent up to now is      619.0 secs

     WARNING: integrated charge=  2588.00052675, expected=  2588.00000000

     total energy              =   -7791.85522075 Ry
     estimated scf accuracy    <      29.87361239 Ry

     iteration #  3     ecut=   100.00 Ry     beta= 0.30
     Davidson diagonalization with overlap
     ethr =  1.15E-03,  avg # of iterations = 16.0

     negative rho (up, down):  9.876E-08 0.000E+00

     total cpu time spent up to now is      844.5 secs

     WARNING: integrated charge=  2588.00086921, expected=  2588.00000000

     total energy              =   -7782.20512604 Ry
     estimated scf accuracy    <     155.52464361 Ry

     iteration #  4     ecut=   100.00 Ry     beta= 0.30
     Davidson diagonalization with overlap
     ethr =  1.15E-03,  avg # of iterations = 12.0

     negative rho (up, down):  1.892E-08 0.000E+00

     total cpu time spent up to now is     1080.3 secs

     WARNING: integrated charge=  2588.00080686, expected=  2588.00000000

     total energy              =   -7793.31882639 Ry
     estimated scf accuracy    <       9.56693704 Ry

     iteration #  5     ecut=   100.00 Ry     beta= 0.30
     Davidson diagonalization with overlap
     ethr =  3.70E-04,  avg # of iterations =  6.0

     negative rho (up, down):  2.543E-08 0.000E+00

     total cpu time spent up to now is     1279.7 secs

     WARNING: integrated charge=  2588.00066272, expected=  2588.00000000

     total energy              =   -7794.38301575 Ry
     estimated scf accuracy    <       1.29384865 Ry

     iteration #  6     ecut=   100.00 Ry     beta= 0.30
     Davidson diagonalization with overlap
     ethr =  5.00E-05,  avg # of iterations = 14.0

     negative rho (up, down):  5.212E-08 0.000E+00

     total cpu time spent up to now is     1496.2 secs

     total energy              =   -7794.20990448 Ry
     estimated scf accuracy    <       0.82289014 Ry

     iteration #  7     ecut=   100.00 Ry     beta= 0.30
     Davidson diagonalization with overlap
     c_bands:  2 eigenvalues not converged
     ethr =  3.18E-05,  avg # of iterations = 20.0

     total cpu time spent up to now is     1779.0 secs

     total energy              =   -7794.38357775 Ry
     estimated scf accuracy    <       1.09392164 Ry

     iteration #  8     ecut=   100.00 Ry     beta= 0.30
     Davidson diagonalization with overlap
     ethr =  3.18E-05,  avg # of iterations =  5.0

     negative rho (up, down):  1.977E-08 0.000E+00

     total cpu time spent up to now is     1967.8 secs

     total energy              =   -7794.30965704 Ry
     estimated scf accuracy    <       0.52808420 Ry

     iteration #  9     ecut=   100.00 Ry     beta= 0.30
     Davidson diagonalization with overlap
     ethr =  2.04E-05,  avg # of iterations =  6.0

     total cpu time spent up to now is     2174.9 secs

     total energy              =   -7794.21285919 Ry
     estimated scf accuracy    <       2.50703604 Ry

     iteration # 10     ecut=   100.00 Ry     beta= 0.30
     Davidson diagonalization with overlap
     ethr =  2.04E-05,  avg # of iterations =  5.0

     total cpu time spent up to now is     2368.7 secs

     total energy              =   -7794.38040204 Ry
     estimated scf accuracy    <       0.32086041 Ry

     iteration # 11     ecut=   100.00 Ry     beta= 0.30
     Davidson diagonalization with overlap
     ethr =  1.24E-05,  avg # of iterations =  1.0

     total cpu time spent up to now is     2542.6 secs

     total energy              =   -7794.37286980 Ry
     estimated scf accuracy    <       0.24040365 Ry

     iteration # 12     ecut=   100.00 Ry     beta= 0.30
     Davidson diagonalization with overlap
     ethr =  9.29E-06,  avg # of iterations =  2.0

     total cpu time spent up to now is     2734.1 secs

     total energy              =   -7794.36274314 Ry
     estimated scf accuracy    <       0.18402840 Ry

     iteration # 13     ecut=   100.00 Ry     beta= 0.30
     Davidson diagonalization with overlap
     ethr =  7.11E-06,  avg # of iterations =  5.0

     total cpu time spent up to now is     2940.1 secs

     total energy              =   -7794.36029218 Ry
     estimated scf accuracy    <       0.09187646 Ry

     iteration # 14     ecut=   100.00 Ry     beta= 0.30
     Davidson diagonalization with overlap
     c_bands:  3 eigenvalues not converged
     ethr =  3.55E-06,  avg # of iterations = 20.0

     total cpu time spent up to now is     3159.3 secs

     total energy              =   -7794.36185436 Ry
     estimated scf accuracy    <       0.00140375 Ry

     iteration # 15     ecut=   100.00 Ry     beta= 0.30
     Davidson diagonalization with overlap
     c_bands:  4 eigenvalues not converged
     ethr =  5.42E-08,  avg # of iterations = 20.0

     total cpu time spent up to now is     3420.4 secs

     total energy              =   -7794.36154168 Ry
     estimated scf accuracy    <       0.00418090 Ry

     iteration # 16     ecut=   100.00 Ry     beta= 0.30
     Davidson diagonalization with overlap
     ethr =  5.42E-08,  avg # of iterations = 12.0

     negative rho (up, down):  1.744E-06 0.000E+00

     total cpu time spent up to now is     3622.2 secs

     total energy              =   -7794.36140756 Ry
     estimated scf accuracy    <       0.04776308 Ry

     iteration # 17     ecut=   100.00 Ry     beta= 0.30
     Davidson diagonalization with overlap
     ethr =  5.42E-08,  avg # of iterations =  5.0

     negative rho (up, down):  5.432E-07 0.000E+00

     total cpu time spent up to now is     3800.3 secs

     total energy              =   -7794.36208210 Ry
     estimated scf accuracy    <       0.00033250 Ry

     iteration # 18     ecut=   100.00 Ry     beta= 0.30
     Davidson diagonalization with overlap
     ethr =  1.28E-08,  avg # of iterations =  7.0

     negative rho (up, down):  1.406E-06 0.000E+00

     total cpu time spent up to now is     3988.0 secs

     total energy              =   -7794.36215057 Ry
     estimated scf accuracy    <       0.00349968 Ry

     iteration # 19     ecut=   100.00 Ry     beta= 0.30
     Davidson diagonalization with overlap
     ethr =  1.28E-08,  avg # of iterations =  6.0

     total cpu time spent up to now is     4166.3 secs

     total energy              =   -7794.36198727 Ry
     estimated scf accuracy    <       0.00297869 Ry

     iteration # 20     ecut=   100.00 Ry     beta= 0.30
     Davidson diagonalization with overlap
     ethr =  1.28E-08,  avg # of iterations =  6.0

     negative rho (up, down):  4.560E-06 0.000E+00

     total cpu time spent up to now is     4347.9 secs

     total energy              =   -7794.36201523 Ry
     estimated scf accuracy    <       0.00355652 Ry

     iteration # 21     ecut=   100.00 Ry     beta= 0.30
     Davidson diagonalization with overlap
     ethr =  1.28E-08,  avg # of iterations =  5.0

     negative rho (up, down):  8.562E-08 0.000E+00

     total cpu time spent up to now is     4528.0 secs

     total energy              =   -7794.36211093 Ry
     estimated scf accuracy    <       0.00125009 Ry

     iteration # 22     ecut=   100.00 Ry     beta= 0.30
     Davidson diagonalization with overlap
     ethr =  1.28E-08,  avg # of iterations =  2.0

     total cpu time spent up to now is     4695.7 secs

     total energy              =   -7794.36212408 Ry
     estimated scf accuracy    <       0.00001861 Ry

     iteration # 23     ecut=   100.00 Ry     beta= 0.30
     Davidson diagonalization with overlap
     ethr =  7.19E-10,  avg # of iterations =  5.0

     total cpu time spent up to now is     4869.3 secs

     total energy              =   -7794.36212464 Ry
     estimated scf accuracy    <       0.00000317 Ry

     iteration # 24     ecut=   100.00 Ry     beta= 0.30
     Davidson diagonalization with overlap
     ethr =  1.23E-10,  avg # of iterations =  5.0

     total cpu time spent up to now is     5048.4 secs

     total energy              =   -7794.36212486 Ry
     estimated scf accuracy    <       0.00000069 Ry

     iteration # 25     ecut=   100.00 Ry     beta= 0.30
     Davidson diagonalization with overlap
     ethr =  2.67E-11,  avg # of iterations =  6.0

     total cpu time spent up to now is     5233.3 secs

     total energy              =   -7794.36212490 Ry
     estimated scf accuracy    <       0.00000008 Ry

     iteration # 26     ecut=   100.00 Ry     beta= 0.30
     Davidson diagonalization with overlap
     ethr =  2.94E-12,  avg # of iterations =  6.0

     total cpu time spent up to now is     5466.0 secs

     total energy              =   -7794.36212492 Ry
     estimated scf accuracy    <       0.00000001 Ry

     iteration # 27     ecut=   100.00 Ry     beta= 0.30
     Davidson diagonalization with overlap
     ethr =  5.15E-13,  avg # of iterations =  5.0

     total cpu time spent up to now is     5659.9 secs

     total energy              =   -7794.36212492 Ry
     estimated scf accuracy    <          4.0E-09 Ry

     iteration # 28     ecut=   100.00 Ry     beta= 0.30
     Davidson diagonalization with overlap
     ethr =  1.54E-13,  avg # of iterations =  5.0

     total cpu time spent up to now is     5855.5 secs

     total energy              =   -7794.36212492 Ry
     estimated scf accuracy    <          6.4E-10 Ry

     iteration # 29     ecut=   100.00 Ry     beta= 0.30
     Davidson diagonalization with overlap
     ethr =  1.00E-13,  avg # of iterations =  2.0

     total cpu time spent up to now is     6025.8 secs

     total energy              =   -7794.36212492 Ry
     estimated scf accuracy    <          1.8E-10 Ry

     iteration # 30     ecut=   100.00 Ry     beta= 0.30
     Davidson diagonalization with overlap
     ethr =  1.00E-13,  avg # of iterations =  2.0

     total cpu time spent up to now is     6195.4 secs

     End of self-consistent calculation

          k = 0.0000 0.0000 0.0000 (****** PWs)   bands (ev):

   -23.7890 -23.7230 -23.7212 -23.7212 -23.7143 -23.7143 -23.6894 -23.5733
   -23.5733 -23.5732 -23.5699 -23.5699 -23.5552 -23.5009 -23.5009 -23.4987
   -23.4965 -23.4965 -23.4650 -23.2854 -23.2853 -23.2853 -23.2849 -23.2849
   -23.2834 -23.2810 -23.2810 -23.2790 -23.2740 -23.2740 -23.2295 -23.1389
   -23.1389 -23.1346 -23.1345 -23.1345 -23.0978 -22.9213 -22.9213 -22.9209
   -22.9182 -22.9182 -22.9056 -22.8513 -22.8513 -22.8487 -22.8485 -22.8480
   -22.8480 -22.8474 -22.8474 -22.8455 -22.8420 -22.8420 -22.7676 -22.6338
   -22.6338 -22.6299 -22.6289 -22.6289 -22.5922 -22.4203 -22.4203 -22.4198
   -22.4198 -22.4198 -22.4197 -22.4163 -22.4149 -22.4149 -22.4067 -22.4067
   -22.3637 -22.2767 -22.2767 -22.2749 -22.2732 -22.2730 -22.2730 -22.2730
   -22.2730 -22.2707 -22.2649 -22.2649 -22.1717 -21.9895 -21.9895 -21.9863
   -21.9829 -21.9829 -21.9537 -21.8479 -21.8474 -21.8474 -21.8415 -21.8415
   -21.8306 -21.7777 -21.7772 -21.7772 -21.7751 -21.7751 -21.7749 -21.7738
   -21.7738 -21.7736 -21.7618 -21.7618 -21.6877 -21.5647 -21.5647 -21.5626
   -21.5622 -21.5622 -21.5616 -21.5616 -21.5608 -21.5605 -21.5484 -21.5484
   -21.4498 -21.2100 -21.2100 -21.2094 -21.2022 -21.2022 -21.1909 -21.1441
   -21.1435 -21.1435 -21.1433 -21.1433 -21.1432 -21.1432 -21.1371 -21.1371
   -21.1236 -21.1236 -21.0783 -21.0039 -21.0012 -21.0012 -20.9994 -20.9994
   -20.9985 -20.9984 -20.9982 -20.9982 -20.9836 -20.9836 -20.8809 -20.7228
   -20.7228 -20.7206 -20.7203 -20.7203 -20.7197 -20.7197 -20.7189 -20.7185
   -20.7032 -20.7032 -20.6108 -20.3803 -20.3760 -20.3760 -20.3708 -20.3708
   -20.3637 -20.3142 -20.3086 -20.3086 -20.3073 -20.3073 -20.3065 -20.3064
   -20.3060 -20.3060 -20.3058 -20.3058 -20.3054 -20.3042 -20.3042 -20.3035
   -20.2792 -20.2792 -20.1960 -20.1039 -20.1029 -20.1029 -20.1013 -20.1013
   -20.1006 -20.0998 -20.0998 -20.0988 -20.0810 -20.0810 -19.9597 -19.7657
   -19.7657 -19.7647 -19.7640 -19.7640 -19.7629 -19.7629 -19.7628 -19.7607
   -19.7450 -19.7450 -19.6706 -19.4999 -19.4979 -19.4979 -19.4978 -19.4978
   -19.4976 -19.4976 -19.4903 -19.4903 -19.4739 -19.4739 -19.4431 -19.3688
   -19.3649 -19.3649 -19.3637 -19.3637 -19.3627 -19.3617 -19.3617 -19.3612
   -19.3439 -19.3439 -19.3273 -19.3080 -19.3080 -19.3054 -19.2934 -19.2934
   -19.2101 -19.1134 -19.1118 -19.1118 -19.1113 -19.1113 -19.1092 -19.1092
   -19.1089 -19.1087 -19.0885 -19.0885 -18.9637 -18.7759 -18.7758 -18.7758
   -18.7738 -18.7736 -18.7736 -18.7715 -18.7715 -18.7712 -18.7580 -18.7580
   -18.6945 -18.5876 -18.5833 -18.5833 -18.5778 -18.5778 -18.5744 -18.5486
   -18.5486 -18.5457 -18.5351 -18.5302 -18.5302 -18.5294 -18.5294 -18.5290
   -18.5274 -18.5264 -18.5264 -18.5025 -18.5025 -18.4527 -18.3966 -18.3946
   -18.3946 -18.3927 -18.3927 -18.3926 -18.3915 -18.3915 -18.3914 -18.3783
   -18.3783 -18.3757 -18.3637 -18.3637 -18.3634 -18.3414 -18.3414 -17.9697
   -17.8050 -17.8034 -17.8034 -17.7954 -17.7954 -17.7453 -17.6549 -17.6549
   -17.6548 -17.6538 -17.6518 -17.6518 -17.6502 -17.6479 -17.6479 -17.6254
   -17.6254 -17.5319 -17.5064 -17.5064 -17.4135 -17.3337 -17.3336 -17.3336
   -17.3174 -17.3174 -17.2821 -17.1758 -17.1758 -17.1757 -17.1739 -17.1736
   -17.1736 -17.1711 -17.1710 -17.1710 -17.1347 -17.1347 -17.0551 -16.8729
   -16.8697 -16.8697 -16.8664 -16.8538 -16.8538 -16.8538 -16.8493 -16.8493
   -16.8481 -16.8346 -16.8346 -16.8346 -16.8329 -16.8329 -16.8318 -16.8302
   -16.8298 -16.8298 -16.7796 -16.7796 -16.7150 -16.6506 -16.6500 -16.6500
   -16.6329 -16.6329 -16.5938 -16.4854 -16.4854 -16.4854 -16.4848 -16.4848
   -16.4841 -16.4833 -16.4812 -16.4812 -16.4554 -16.4554 -16.4418 -16.3992
   -16.3992 -16.3985 -16.3984 -16.3960 -16.3960 -16.3939 -16.3939 -16.3928
   -16.3505 -16.3505 -16.2055 -16.0677 -16.0676 -16.0676 -16.0667 -16.0667
   -16.0644 -16.0640 -16.0626 -16.0626 -16.0400 -16.0400 -16.0151 -15.9707
   -15.9707 -15.9706 -15.9704 -15.9704 -15.9700 -15.9694 -15.9666 -15.9666
   -15.9230 -15.9230 -15.7943 -15.6848 -15.6848 -15.6841 -15.6838 -15.6838
   -15.6818 -15.6811 -15.6785 -15.6785 -15.6484 -15.6484 -15.6167 -15.5837
   -15.5823 -15.5823 -15.5600 -15.5600 -15.4142 -15.3307 -15.3295 -15.3295
   -15.3153 -15.3153 -15.2723 -15.1955 -15.1955 -15.1949 -15.1949 -15.1948
   -15.1936 -15.1934 -15.1904 -15.1904 -15.1567 -15.1567 -15.0509 -14.9565
   -14.9565 -14.9561 -14.9561 -14.9561 -14.9555 -14.9523 -14.9514 -14.9514
   -14.9187 -14.9187 -14.8263 -14.8263 -14.7314 -14.5982 -14.5982 -14.5980
   -14.5980 -14.5980 -14.5977 -14.5963 -14.5939 -14.5939 -14.5698 -14.5698
   -14.4929 -14.4114 -14.4114 -14.4089 -14.4089 -14.4089 -14.4076 -14.4069
   -14.4055 -14.4055 -14.3990 -14.3990 -14.3980 -14.3980 -14.3975 -14.3970
   -14.3970 -14.3967 -14.3924 -14.3904 -14.3898 -14.3898 -14.2986 -14.2986
   -14.1193 -13.9642 -13.9642 -13.9613 -13.9601 -13.9575 -13.9575 -13.9543
   -13.9541 -13.9541 -13.9344 -13.9344 -13.9298 -13.9068 -13.9059 -13.9059
   -13.8862 -13.8862 -13.8649 -13.8219 -13.8219 -13.8205 -13.8205 -13.8205
   -13.8195 -13.8189 -13.8162 -13.8162 -13.7680 -13.7680 -13.5674 -13.5314
   -13.5306 -13.5306 -13.5147 -13.5147 -13.4817 -13.4273 -13.4273 -13.4263
   -13.4261 -13.4257 -13.4257 -13.4245 -13.4245 -13.4242 -13.3719 -13.3719
   -13.3422 -13.1600 -13.1600 -13.1594 -13.1593 -13.1592 -13.1592 -13.1577
   -13.1576 -13.1576 -13.1570 -13.1570 -13.1563 -13.1560 -13.1560 -13.1554
   -13.1554 -13.1554 -13.1552 -13.1520 -13.1502 -13.1502 -13.1177 -13.1177
   -13.0908 -13.0874 -13.0873 -13.0873 -13.0865 -13.0865 -13.0824 -13.0822
   -13.0822 -13.0803 -12.9708 -12.9708 -12.6857 -12.4974 -12.4974 -12.4973
   -12.4970 -12.4970 -12.4970 -12.4923 -12.4915 -12.4915 -12.4829 -12.4754
   -12.4754 -12.4375 -12.4375 -12.4375 -12.4374 -12.4374 -12.4371 -12.4367
   -12.4367 -12.4359 -12.4351 -12.4351 -12.4348 -12.4335 -12.4325 -12.4325
   -12.4284 -12.4284 -12.4251 -12.4232 -12.4229 -12.4229 -12.3789 -12.3789
   -12.3453 -12.3307 -12.3307 -12.3296 -12.3292 -12.3285 -12.3285 -12.3276
   -12.3267 -12.3267 -12.2303 -12.2303 -12.1161 -12.0432 -12.0427 -12.0427
   -12.0314 -12.0314 -12.0036 -11.9928 -11.9928 -11.9916 -11.9915 -11.9915
   -11.9907 -11.9905 -11.9893 -11.9893 -11.9206 -11.9206 -11.8764 -11.8161
   -11.7967 -11.7948 -11.7948 -11.7875 -11.7874 -11.7576 -11.7093 -11.7093
   -11.7091 -11.7086 -11.7086 -11.7086 -11.7064 -11.7048 -11.7048 -11.6831
   -11.6831 -11.6181 -11.6176 -11.6176 -11.6142 -11.6142 -11.6077 -11.5995
   -11.5982 -11.5982 -11.5962 -11.5850 -11.5850 -11.5473 -11.5309 -11.5309
   -11.5295 -11.5264 -11.5264 -11.5253 -11.5244 -11.5244 -11.5226 -11.5226
   -11.5224 -11.5224 -11.5203 -11.5203 -11.4939 -11.4939 -11.4896 -11.4735
   -11.4600 -11.4600 -11.4599 -11.4592 -11.4592 -11.4576 -11.4544 -11.4535
   -11.4535 -11.3918 -11.3918 -11.3361 -11.2987 -11.2987 -11.2986 -11.2980
   -11.2980 -11.2975 -11.2971 -11.2951 -11.2951 -11.2744 -11.2740 -11.2740
   -11.2736 -11.2736 -11.2723 -11.2677 -11.2677 -11.2677 -11.2612 -11.2612
   -11.2355 -11.2355 -11.2193 -11.2106 -11.1241 -11.1241 -11.1241 -11.1238
   -11.1238 -11.1236 -11.1199 -11.1185 -11.1185 -11.0993 -11.0993 -11.0962
   -11.0952 -11.0952 -11.0846 -11.0846 -11.0556 -11.0125 -10.9755 -10.9747
   -10.9747 -10.9719 -10.9719 -10.9375 -10.9300 -10.9295 -10.9295 -10.9294
   -10.9290 -10.9290 -10.9284 -10.9278 -10.9278 -10.9266 -10.9266 -10.9264
   -10.9260 -10.9248 -10.9248 -10.9243 -10.9243 -10.9240 -10.9214 -10.9209
   -10.9209 -10.8480 -10.8480 -10.8419 -10.8415 -10.8415 -10.8390 -10.8390
   -10.8248 -10.7877 -10.7834 -10.7810 -10.7810 -10.7795 -10.7795 -10.7794
   -10.7792 -10.7783 -10.7783 -10.7574 -10.7574 -10.7573 -10.7569 -10.7568
   -10.7568 -10.7559 -10.7559 -10.7539 -10.7489 -10.7489 -10.7379 -10.7379
   -10.7046 -10.7012 -10.7012 -10.7011 -10.6918 -10.6908 -10.6908 -10.6703
   -10.6614 -10.6614 -10.6330 -10.6303 -10.6303 -10.6299 -10.5769 -10.5769
   -10.5221 -10.5034 -10.5034 -10.5005 -10.4994 -10.4994 -10.4954 -10.4936
   -10.4936 -10.4929 -10.4929 -10.4927 -10.4918 -10.4918 -10.4917 -10.4638
   -10.4638 -10.4617 -10.4614 -10.4188 -10.4163 -10.4163 -10.4151 -10.4151
   -10.4150 -10.4145 -10.4145 -10.4143 -10.4135 -10.4133 -10.4133 -10.4131
   -10.4119 -10.4119 -10.3802 -10.3469 -10.3469 -10.3168 -10.3168 -10.3168
   -10.3164 -10.3164 -10.3164 -10.3141 -10.3130 -10.3130 -10.2529 -10.2529
   -10.2527 -10.2526 -10.2526 -10.2525 -10.2473 -10.2449 -10.2449 -10.2390
   -10.2390 -10.1927 -10.1798 -10.1798 -10.0911 -10.0849 -10.0842 -10.0842
   -10.0839 -10.0835 -10.0835 -10.0834 -10.0834 -10.0803 -10.0783 -10.0772
   -10.0772 -10.0766 -10.0755 -10.0755 -10.0754 -10.0753 -10.0753 -10.0748
   -10.0748 -10.0727 -10.0727 -10.0656 -10.0637 -10.0637 -10.0622 -10.0306
   -10.0017 -10.0017  -9.9841  -9.9835  -9.9835  -9.9819  -9.8593  -9.8593
    -9.7890  -9.7744  -9.7737  -9.7737  -9.7731  -9.7731  -9.7714  -9.7703
    -9.7657  -9.7657  -9.7552  -9.7552  -9.7531  -9.7510  -9.7510  -9.7205
    -9.6797  -9.6797  -9.6580  -9.6007  -9.6007  -9.5994  -9.5994  -9.5994
    -9.5993  -9.5981  -9.5961  -9.5961  -9.5860  -9.5856  -9.5856  -9.5814
    -9.5814  -9.5741  -9.5741  -9.5694  -9.5522  -9.5506  -9.5500  -9.5484
    -9.5484  -9.5478  -9.5478  -9.5473  -9.5448  -9.5448  -9.5065  -9.5063
    -9.5063  -9.5058  -9.5053  -9.5053  -9.5047  -9.5043  -9.5043  -9.4951
    -9.4951  -9.4195  -9.2691  -9.2691  -9.2687  -9.2687  -9.2687  -9.2676
    -9.2671  -9.2671  -9.2659  -9.2582  -9.2582  -9.2576  -9.2576  -9.2256
    -9.1624  -9.0857  -9.0853  -9.0853  -9.0845  -9.0845  -9.0840  -9.0800
    -9.0795  -9.0795  -9.0590  -9.0590  -9.0433  -9.0421  -9.0397  -9.0397
    -9.0331  -9.0331  -9.0292  -9.0276  -9.0268  -9.0268  -8.9799  -8.9799
    -8.9492  -8.9479  -8.9452  -8.9445  -8.9445  -8.9442  -8.9442  -8.9433
    -8.9402  -8.9402  -8.8781  -8.8771  -8.8771  -8.8728  -8.8728  -8.8569
    -8.7831  -8.7831  -8.7830  -8.7830  -8.7830  -8.7829  -8.7799  -8.7733
    -8.7733  -8.7671  -8.7671  -8.7216  -8.6352  -8.6324  -8.6324  -8.6320
    -8.6320  -8.6317  -8.6310  -8.6301  -8.6301  -8.6228  -8.6228  -8.5818
    -8.5818  -8.5547  -8.5254  -8.4464  -8.4442  -8.4421  -8.4421  -8.4345
    -8.4345  -8.4243  -8.4243  -8.4243  -8.3714  -8.3714  -8.3450  -8.3450
    -8.3443  -8.3443  -8.3442  -8.3430  -8.3415  -8.3415  -8.3412  -8.3334
    -8.3334  -8.3305  -8.3253  -8.3245  -8.3245  -8.3237  -8.3237  -8.3229
    -8.3213  -8.3168  -8.3168  -8.2462  -8.2415  -8.1719  -8.1719  -8.1381
    -8.1379  -8.1379  -7.9617  -7.9444  -7.9444  -7.9268  -7.9250  -7.9250
    -7.9246  -7.9236  -7.9236  -7.9227  -7.9227  -7.9221  -7.9177  -7.9177
    -7.9008  -7.8844  -7.8816  -7.8809  -7.8809  -7.8657  -7.8623  -7.8623
    -7.8618  -7.8618  -7.8616  -7.8615  -7.8577  -7.8577  -7.8497  -7.8497
    -7.8169  -7.8169  -7.7791  -7.7785  -7.7785  -7.7774  -7.7767  -7.6807
    -7.6802  -7.6802  -7.6793  -7.6793  -7.6785  -7.6768  -7.6761  -7.6761
    -7.6692  -7.6692  -7.6461  -7.6461  -7.6095  -7.6076  -7.6076  -7.5769
    -7.5659  -7.5019  -7.5019  -7.4690  -7.4657  -7.4657  -7.4623  -7.3949
    -7.3946  -7.3946  -7.3933  -7.3933  -7.3929  -7.3920  -7.3920  -7.3901
    -7.3838  -7.3838  -7.3226  -7.3226  -7.2922  -7.0371  -7.0371  -7.0357
    -7.0328  -7.0328  -7.0233  -6.9828  -6.9828  -6.9826  -6.9826  -6.9826
    -6.9826  -6.9799  -6.9725  -6.9725  -6.9666  -6.9666  -6.9474  -6.9078
    -6.9060  -6.9060  -6.9054  -6.9054  -6.9047  -6.9026  -6.9018  -6.9018
    -6.8932  -6.8932  -6.8446  -6.7848  -6.7841  -6.7841  -6.7821  -6.7821
    -6.7815  -6.7813  -6.7813  -6.7806  -6.7729  -6.7729  -6.7176  -6.6675
    -6.6675  -6.6675  -6.6657  -6.6655  -6.6655  -6.6606  -6.6606  -6.6603
    -6.6528  -6.6528  -6.6252  -6.6072  -6.6072  -6.4382  -6.3461  -6.3461
    -6.3457  -6.3412  -6.3412  -6.2736  -6.1459  -6.1456  -6.1456  -6.1449
    -6.1449  -6.1448  -6.1393  -6.1393  -6.1386  -6.1300  -6.1300  -6.0975
    -6.0524  -6.0513  -6.0513  -6.0507  -6.0507  -6.0507  -6.0491  -6.0491
    -6.0481  -6.0441  -6.0441  -6.0377  -6.0288  -6.0237  -6.0237  -6.0103
    -6.0103  -5.6436  -5.5511  -5.5511  -5.5511  -5.5451  -5.5451  -5.3348
    -5.1564  -5.1560  -5.1560  -5.1549  -5.1517  -5.1517  -5.1501  -5.1501
    -5.1452  -5.1305  -5.1305  -4.6451  -4.2457  -4.2415  -4.2415  -4.1543
    -4.1501  -4.1501  -3.3760  -3.3757  -3.3757  -3.3746  -3.3712  -3.3712
    -3.3703  -3.3703  -3.3642  -3.3520  -3.3520  -3.2764  -3.0795  -3.0795
    -3.0795  -3.0739  -3.0739  -3.0297  -2.6433  -2.6429  -2.6423  -2.6419
    -2.6417  -2.6331  -2.6320  -2.6316

     the Fermi energy is    -4.2188 ev

!    total energy              =   -7794.36212492 Ry
     estimated scf accuracy    <          4.5E-11 Ry
     smearing contrib. (-TS)   =      -0.01630549 Ry
     internal energy E=F+TS    =   -7794.34581943 Ry

     The total energy is F=E-TS. E is the sum of the following terms:
     one-electron contribution =  -88598.04886168 Ry
     hartree contribution      =   44541.95273922 Ry
     xc contribution           =   -2774.57872803 Ry
     ewald contribution        =   39036.32903105 Ry

     convergence has been achieved in  30 iterations

     Writing all to output data dir /home/gregb26/links/scratch/qe_tmp/defect_18x18_d/defect_18x18_d.save/ :
     XML data file, charge density, pseudopotentials, collected wavefunctions

     init_run     :    163.21s CPU    168.90s WALL (       1 calls)
     electrons    :   5735.87s CPU   6024.82s WALL (       1 calls)

     Called by init_run:
     wfcinit      :    151.82s CPU    157.06s WALL (       1 calls)
     potinit      :      0.55s CPU      0.71s WALL (       1 calls)
     hinit0       :      2.57s CPU      2.65s WALL (       1 calls)

     Called by electrons:
     c_bands      :   5224.37s CPU   5490.29s WALL (      30 calls)
     sum_band     :    490.71s CPU    505.87s WALL (      30 calls)
     v_of_rho     :     15.22s CPU     19.95s WALL (      31 calls)
     mix_rho      :      4.35s CPU      4.72s WALL (      30 calls)

     Called by c_bands:
     init_us_2    :     52.78s CPU     68.81s WALL (      61 calls)
     regterg      :   5165.60s CPU   5422.25s WALL (      30 calls)

     Called by *egterg:
     rdiaghg      :     38.14s CPU     44.92s WALL (     245 calls)
     h_psi        :   3803.89s CPU   3975.93s WALL (     246 calls)
     g_psi        :      5.24s CPU      5.31s WALL (     215 calls)

     Called by h_psi:
     h_psi:calbec :    940.89s CPU   1000.48s WALL (     246 calls)
     vloc_psi     :   1940.08s CPU   2011.01s WALL (     246 calls)
                                        0.00s GPU  (     246 calls)
     add_vuspsi   :    911.10s CPU    950.91s WALL (     246 calls)

     General routines
     calbec       :    940.89s CPU   1000.47s WALL (     246 calls)
     fft          :     10.39s CPU     13.68s WALL (     248 calls)
     ffts         :      1.07s CPU      1.13s WALL (      30 calls)
     fftw         :   1742.42s CPU   1804.54s WALL (  109344 calls)

     Parallel routines

     PWSCF        :   5975.72s CPU   6306.28s WALL


   This run was terminated on:  17:42:49  25Sep2026            

=------------------------------------------------------------------------------=
   JOB DONE.
=------------------------------------------------------------------------------=
