
     Program PWSCF v.7.5 starts on 22Sep2026 at  9:16: 0 

     This program is part of the open-source Quantum ESPRESSO suite
     for quantum simulation of materials; please cite
         "P. Giannozzi et al., J. Phys.:Condens. Matter 21 395502 (2009);
         "P. Giannozzi et al., J. Phys.:Condens. Matter 29 465901 (2017);
         "P. Giannozzi et al., J. Chem. Phys. 152 154105 (2020);
          URL http://www.quantum-espresso.org", 
     in publications or presentations arising from this work. More details at
     http://www.quantum-espresso.org/quote

     Parallel version (MPI & OpenMP), running on      64 processor cores
     Number of MPI processes:                64
     Threads/MPI process:                     1

     MPI processes distributed on     4 nodes
     576096 MiB available memory on the printing compute node when the environment starts

     Waiting for input...
     Reading input from standard input

     Current dimensions of program PWSCF are:
     Max number of different atomic species (ntypx) = 10
     Max number of k-points (npk) =  40000
     Max angular momentum in pseudopotentials (lmaxx) =  4

     gamma-point specific algorithms are used

     R & G space division:  proc/nbgrp/npool/nimage =      64
     Subspace diagonalization in iterative solution of the eigenvalue problem:
     one sub-group per band group will be used
     ELPA distributed-memory algorithm (size of sub-group:  4*  4 procs)


     Parallelization info
     --------------------
     sticks:   dense  smooth     PW     G-vecs:    dense   smooth      PW
     Min         757     757    188                96450    96450   12044
     Max         758     758    190                96458    96458   12062
     Sum       48511   48511  12109              6173045  6173045  771419

     Using Slab Decomposition



     bravais-lattice index     =            0
     lattice parameter (alat)  =      41.9381  a.u.
     unit-cell volume          =   45694.9917 (a.u.)^3
     number of atoms/cell      =          161
     number of atomic types    =            1
     number of electrons       =       644.00
     number of Kohn-Sham states=          352
     kinetic-energy cutoff     =     100.0000  Ry
     charge density cutoff     =     400.0000  Ry
     scf convergence threshold =      1.0E-10
     mixing beta               =       0.3000
     number of iterations used =            8  plain     mixing
     energy convergence thresh.=      1.0E-05
     force convergence thresh. =      1.0E-04
     Exchange-correlation= PBE
                           (   1   4   3   4   0   0   0)
     nstep                     =          200


     celldm(1)=  41.938062  celldm(2)=   0.000000  celldm(3)=   0.000000
     celldm(4)=   0.000000  celldm(5)=   0.000000  celldm(6)=   0.000000

     crystal axes: (cart. coord. in units of alat)
               a(1) = (   0.866025  -0.500000   0.000000 )  
               a(2) = (   0.866025   0.500000   0.000000 )  
               a(3) = (   0.000000   0.000000   0.715341 )  

     reciprocal axes: (cart. coord. in units 2 pi/alat)
               b(1) = (  0.577350 -1.000000  0.000000 )  
               b(2) = (  0.577350  1.000000 -0.000000 )  
               b(3) = ( -0.000000  0.000000  1.397935 )  


     PseudoPot. # 1 for C  read from file:
     /home/gregb26/links/projects/rrg-cotemich-ac/gregb26/abinit_processing/pseudo/C.upf
     MD5 check sum: 34a24e64c0a39f27c6c36b90a16ac686
     Pseudo is Norm-conserving + core correction, Zval =  4.0
     Generated using ONCVPSP code by D. R. Hamann
     Using radial grid of 1248 points,  4 beta functions with: 
                l(1) =   0
                l(2) =   0
                l(3) =   1
                l(4) =   1

     atomic species   valence    mass     pseudopotential
     C                 4.00    12.01100     C ( 1.00)

     No symmetry found



   Cartesian axes

     site n.     atom                  positions (alat units)
         1        C      tau(   1) = (   0.0641500  -0.0000000   0.0000000  )
         2        C      tau(   2) = (   0.1283001  -0.0000000   0.0000000  )
         3        C      tau(   3) = (   0.1603751   0.0555556   0.0000000  )
         4        C      tau(   4) = (   0.2245251   0.0555556   0.0000000  )
         5        C      tau(   5) = (   0.2566001   0.1111111   0.0000000  )
         6        C      tau(   6) = (   0.3207501   0.1111111   0.0000000  )
         7        C      tau(   7) = (   0.3528252   0.1666667   0.0000000  )
         8        C      tau(   8) = (   0.4169752   0.1666667   0.0000000  )
         9        C      tau(   9) = (   0.4490502   0.2222222   0.0000000  )
        10        C      tau(  10) = (   0.5132002   0.2222222   0.0000000  )
        11        C      tau(  11) = (   0.5452753   0.2777778   0.0000000  )
        12        C      tau(  12) = (   0.6094253   0.2777778   0.0000000  )
        13        C      tau(  13) = (   0.6415003   0.3333333   0.0000000  )
        14        C      tau(  14) = (   0.7056503   0.3333333   0.0000000  )
        15        C      tau(  15) = (   0.7377253   0.3888889   0.0000000  )
        16        C      tau(  16) = (   0.8018754   0.3888889   0.0000000  )
        17        C      tau(  17) = (   0.8339504   0.4444444   0.0000000  )
        18        C      tau(  18) = (   0.8981004   0.4444444   0.0000000  )
        19        C      tau(  19) = (   0.1603751  -0.0555556   0.0000000  )
        20        C      tau(  20) = (   0.2245251  -0.0555556   0.0000000  )
        21        C      tau(  21) = (   0.2566001  -0.0000000   0.0000000  )
        22        C      tau(  22) = (   0.3207501   0.0000000   0.0000000  )
        23        C      tau(  23) = (   0.3528252   0.0555556   0.0000000  )
        24        C      tau(  24) = (   0.4169752   0.0555556   0.0000000  )
        25        C      tau(  25) = (   0.4490502   0.1111111   0.0000000  )
        26        C      tau(  26) = (   0.5132002   0.1111111   0.0000000  )
        27        C      tau(  27) = (   0.5452753   0.1666667   0.0000000  )
        28        C      tau(  28) = (   0.6094253   0.1666667   0.0000000  )
        29        C      tau(  29) = (   0.6415003   0.2222222   0.0000000  )
        30        C      tau(  30) = (   0.7056503   0.2222222   0.0000000  )
        31        C      tau(  31) = (   0.7377253   0.2777778   0.0000000  )
        32        C      tau(  32) = (   0.8018754   0.2777778   0.0000000  )
        33        C      tau(  33) = (   0.8339504   0.3333333   0.0000000  )
        34        C      tau(  34) = (   0.8981004   0.3333333   0.0000000  )
        35        C      tau(  35) = (   0.9301754   0.3888889   0.0000000  )
        36        C      tau(  36) = (   0.9943255   0.3888889   0.0000000  )
        37        C      tau(  37) = (   0.2566001  -0.1111111   0.0000000  )
        38        C      tau(  38) = (   0.3207501  -0.1111111   0.0000000  )
        39        C      tau(  39) = (   0.3528252  -0.0555556   0.0000000  )
        40        C      tau(  40) = (   0.4169752  -0.0555556   0.0000000  )
        41        C      tau(  41) = (   0.4490502  -0.0000000   0.0000000  )
        42        C      tau(  42) = (   0.5132002  -0.0000000   0.0000000  )
        43        C      tau(  43) = (   0.5452753   0.0555556   0.0000000  )
        44        C      tau(  44) = (   0.6094253   0.0555556   0.0000000  )
        45        C      tau(  45) = (   0.6415003   0.1111111   0.0000000  )
        46        C      tau(  46) = (   0.7056503   0.1111111   0.0000000  )
        47        C      tau(  47) = (   0.7377253   0.1666667   0.0000000  )
        48        C      tau(  48) = (   0.8018754   0.1666667   0.0000000  )
        49        C      tau(  49) = (   0.8339504   0.2222222   0.0000000  )
        50        C      tau(  50) = (   0.8981004   0.2222222   0.0000000  )
        51        C      tau(  51) = (   0.9301754   0.2777778   0.0000000  )
        52        C      tau(  52) = (   0.9943255   0.2777778   0.0000000  )
        53        C      tau(  53) = (   1.0264005   0.3333333   0.0000000  )
        54        C      tau(  54) = (   1.0905505   0.3333333   0.0000000  )
        55        C      tau(  55) = (   0.3528252  -0.1666667   0.0000000  )
        56        C      tau(  56) = (   0.4169752  -0.1666667   0.0000000  )
        57        C      tau(  57) = (   0.4490502  -0.1111111   0.0000000  )
        58        C      tau(  58) = (   0.5132002  -0.1111111   0.0000000  )
        59        C      tau(  59) = (   0.5452753  -0.0555556   0.0000000  )
        60        C      tau(  60) = (   0.6094253  -0.0555556   0.0000000  )
        61        C      tau(  61) = (   0.6415003   0.0000000   0.0000000  )
        62        C      tau(  62) = (   0.7056503  -0.0000000   0.0000000  )
        63        C      tau(  63) = (   0.7377253   0.0555556   0.0000000  )
        64        C      tau(  64) = (   0.8018754   0.0542038   0.0000000  )
        65        C      tau(  65) = (   0.8339504   0.1111111   0.0000000  )
        66        C      tau(  66) = (   0.8981004   0.1111111   0.0000000  )
        67        C      tau(  67) = (   0.9301754   0.1666667   0.0000000  )
        68        C      tau(  68) = (   0.9943255   0.1666667   0.0000000  )
        69        C      tau(  69) = (   1.0264005   0.2222222   0.0000000  )
        70        C      tau(  70) = (   1.0905505   0.2222222   0.0000000  )
        71        C      tau(  71) = (   1.1226255   0.2777778   0.0000000  )
        72        C      tau(  72) = (   1.1867756   0.2777778   0.0000000  )
        73        C      tau(  73) = (   0.4490502  -0.2222222   0.0000000  )
        74        C      tau(  74) = (   0.5132002  -0.2222222   0.0000000  )
        75        C      tau(  75) = (   0.5452753  -0.1666667   0.0000000  )
        76        C      tau(  76) = (   0.6094253  -0.1666667   0.0000000  )
        77        C      tau(  77) = (   0.6415003  -0.1111111   0.0000000  )
        78        C      tau(  78) = (   0.7056503  -0.1111111   0.0000000  )
        79        C      tau(  79) = (   0.7377253  -0.0555556   0.0000000  )
        80        C      tau(  80) = (   0.8018754  -0.0542038   0.0000000  )
        81        C      tau(  81) = (   0.8981004  -0.0000000   0.0000000  )
        82        C      tau(  82) = (   0.9301754   0.0555556   0.0000000  )
        83        C      tau(  83) = (   0.9943255   0.0555556   0.0000000  )
        84        C      tau(  84) = (   1.0264005   0.1111111   0.0000000  )
        85        C      tau(  85) = (   1.0905505   0.1111111   0.0000000  )
        86        C      tau(  86) = (   1.1226255   0.1666667   0.0000000  )
        87        C      tau(  87) = (   1.1867756   0.1666667   0.0000000  )
        88        C      tau(  88) = (   1.2188506   0.2222222   0.0000000  )
        89        C      tau(  89) = (   1.2830006   0.2222222   0.0000000  )
        90        C      tau(  90) = (   0.5452753  -0.2777778   0.0000000  )
        91        C      tau(  91) = (   0.6094253  -0.2777778   0.0000000  )
        92        C      tau(  92) = (   0.6415003  -0.2222222   0.0000000  )
        93        C      tau(  93) = (   0.7056503  -0.2222222   0.0000000  )
        94        C      tau(  94) = (   0.7377253  -0.1666667   0.0000000  )
        95        C      tau(  95) = (   0.8018754  -0.1666667   0.0000000  )
        96        C      tau(  96) = (   0.8339504  -0.1111111   0.0000000  )
        97        C      tau(  97) = (   0.8981004  -0.1111111   0.0000000  )
        98        C      tau(  98) = (   0.9301754  -0.0555556   0.0000000  )
        99        C      tau(  99) = (   0.9943255  -0.0555556   0.0000000  )
       100        C      tau( 100) = (   1.0264005  -0.0000000   0.0000000  )
       101        C      tau( 101) = (   1.0905505  -0.0000000   0.0000000  )
       102        C      tau( 102) = (   1.1226255   0.0555556   0.0000000  )
       103        C      tau( 103) = (   1.1867756   0.0555556   0.0000000  )
       104        C      tau( 104) = (   1.2188506   0.1111111   0.0000000  )
       105        C      tau( 105) = (   1.2830006   0.1111111   0.0000000  )
       106        C      tau( 106) = (   1.3150756   0.1666667   0.0000000  )
       107        C      tau( 107) = (   1.3792256   0.1666667   0.0000000  )
       108        C      tau( 108) = (   0.6415003  -0.3333333   0.0000000  )
       109        C      tau( 109) = (   0.7056503  -0.3333333   0.0000000  )
       110        C      tau( 110) = (   0.7377253  -0.2777778   0.0000000  )
       111        C      tau( 111) = (   0.8018754  -0.2777778   0.0000000  )
       112        C      tau( 112) = (   0.8339504  -0.2222222   0.0000000  )
       113        C      tau( 113) = (   0.8981004  -0.2222222   0.0000000  )
       114        C      tau( 114) = (   0.9301754  -0.1666667   0.0000000  )
       115        C      tau( 115) = (   0.9943255  -0.1666667   0.0000000  )
       116        C      tau( 116) = (   1.0264005  -0.1111111   0.0000000  )
       117        C      tau( 117) = (   1.0905505  -0.1111111   0.0000000  )
       118        C      tau( 118) = (   1.1226255  -0.0555556   0.0000000  )
       119        C      tau( 119) = (   1.1867756  -0.0555556   0.0000000  )
       120        C      tau( 120) = (   1.2188506  -0.0000000   0.0000000  )
       121        C      tau( 121) = (   1.2830006   0.0000000   0.0000000  )
       122        C      tau( 122) = (   1.3150756   0.0555556   0.0000000  )
       123        C      tau( 123) = (   1.3792256   0.0555556   0.0000000  )
       124        C      tau( 124) = (   1.4113007   0.1111111   0.0000000  )
       125        C      tau( 125) = (   1.4754507   0.1111111   0.0000000  )
       126        C      tau( 126) = (   0.7377253  -0.3888889   0.0000000  )
       127        C      tau( 127) = (   0.8018754  -0.3888889   0.0000000  )
       128        C      tau( 128) = (   0.8339504  -0.3333333   0.0000000  )
       129        C      tau( 129) = (   0.8981004  -0.3333333   0.0000000  )
       130        C      tau( 130) = (   0.9301754  -0.2777778   0.0000000  )
       131        C      tau( 131) = (   0.9943255  -0.2777778   0.0000000  )
       132        C      tau( 132) = (   1.0264005  -0.2222222   0.0000000  )
       133        C      tau( 133) = (   1.0905505  -0.2222222   0.0000000  )
       134        C      tau( 134) = (   1.1226255  -0.1666667   0.0000000  )
       135        C      tau( 135) = (   1.1867756  -0.1666667   0.0000000  )
       136        C      tau( 136) = (   1.2188506  -0.1111111   0.0000000  )
       137        C      tau( 137) = (   1.2830006  -0.1111111   0.0000000  )
       138        C      tau( 138) = (   1.3150756  -0.0555556   0.0000000  )
       139        C      tau( 139) = (   1.3792256  -0.0555556   0.0000000  )
       140        C      tau( 140) = (   1.4113007  -0.0000000   0.0000000  )
       141        C      tau( 141) = (   1.4754507   0.0000000   0.0000000  )
       142        C      tau( 142) = (   1.5075257   0.0555556   0.0000000  )
       143        C      tau( 143) = (   1.5716757   0.0555556   0.0000000  )
       144        C      tau( 144) = (   0.8339504  -0.4444444   0.0000000  )
       145        C      tau( 145) = (   0.8981004  -0.4444444   0.0000000  )
       146        C      tau( 146) = (   0.9301754  -0.3888889   0.0000000  )
       147        C      tau( 147) = (   0.9943255  -0.3888889   0.0000000  )
       148        C      tau( 148) = (   1.0264005  -0.3333333   0.0000000  )
       149        C      tau( 149) = (   1.0905505  -0.3333333   0.0000000  )
       150        C      tau( 150) = (   1.1226255  -0.2777778   0.0000000  )
       151        C      tau( 151) = (   1.1867756  -0.2777778   0.0000000  )
       152        C      tau( 152) = (   1.2188506  -0.2222222   0.0000000  )
       153        C      tau( 153) = (   1.2830006  -0.2222222   0.0000000  )
       154        C      tau( 154) = (   1.3150756  -0.1666667   0.0000000  )
       155        C      tau( 155) = (   1.3792256  -0.1666667   0.0000000  )
       156        C      tau( 156) = (   1.4113007  -0.1111111   0.0000000  )
       157        C      tau( 157) = (   1.4754507  -0.1111111   0.0000000  )
       158        C      tau( 158) = (   1.5075257  -0.0555556   0.0000000  )
       159        C      tau( 159) = (   1.5716757  -0.0555556   0.0000000  )
       160        C      tau( 160) = (   1.6037507   0.0000000   0.0000000  )
       161        C      tau( 161) = (   1.6679008  -0.0000000   0.0000000  )

     number of k points=     1  Marzari-Vanderbilt smearing, width (Ry)=  0.0100
                       cart. coord. in units 2pi/alat
        k(    1) = (   0.0000000   0.0000000   0.0000000), wk =   2.0000000

     Dense  grid:  3086523 G-vectors     FFT dimensions: ( 270, 270, 192)

     Estimated max dynamical RAM per process >     320.05 MB

     Estimated total dynamical RAM >      20.00 GB
 ----2D----2D----2D----2D----2D----2D----2D----2D----2D----2D----2D----2D
  The code is running with the 2D cutoff
  Please refer to:
  Sohier, T., Calandra, M., & Mauri, F. (2017), 
  Density functional perturbation theory for gated two-dimensional heterostructures:
  Theoretical developments and application to flexural phonons in graphene.
  Physical Review B, 96(7), 75448. https://doi.org/10.1103/PhysRevB.96.075448
 ----2D----2D----2D----2D----2D----2D----2D----2D----2D----2D----2D----2D

     Initial potential from superposition of free atoms

     starting charge     643.9928, renormalised to     644.0000

     negative rho (up, down):  1.225E-04 0.000E+00
     Starting wfcs are  644 randomized atomic wfcs

     total cpu time spent up to now is        6.9 secs

     per-process dynamical memory:   307.7 Mb

     Self-consistent Calculation

     iteration #  1     ecut=   100.00 Ry     beta= 0.30
     Davidson diagonalization with overlap
     ethr =  1.00E-02,  avg # of iterations =  2.0

     negative rho (up, down):  5.720E-07 0.000E+00

     total cpu time spent up to now is       16.4 secs

     total energy              =   -1940.60360873 Ry
     estimated scf accuracy    <      14.13035182 Ry

     iteration #  2     ecut=   100.00 Ry     beta= 0.30
     Davidson diagonalization with overlap
     ethr =  2.19E-03,  avg # of iterations =  2.0

     negative rho (up, down):  3.965E-07 0.000E+00

     total cpu time spent up to now is       23.6 secs

     total energy              =   -1938.97128029 Ry
     estimated scf accuracy    <      11.45254622 Ry

     iteration #  3     ecut=   100.00 Ry     beta= 0.30
     Davidson diagonalization with overlap
     ethr =  1.78E-03,  avg # of iterations =  2.0

     negative rho (up, down):  1.766E-08 0.000E+00

     total cpu time spent up to now is       30.9 secs

     total energy              =   -1938.36663088 Ry
     estimated scf accuracy    <       7.48466787 Ry

     iteration #  4     ecut=   100.00 Ry     beta= 0.30
     Davidson diagonalization with overlap
     ethr =  1.16E-03,  avg # of iterations =  2.0

     negative rho (up, down):  1.279E-08 0.000E+00

     total cpu time spent up to now is       38.4 secs

     total energy              =   -1939.06078178 Ry
     estimated scf accuracy    <       1.29276968 Ry

     iteration #  5     ecut=   100.00 Ry     beta= 0.30
     Davidson diagonalization with overlap
     ethr =  2.01E-04,  avg # of iterations =  2.0

     total cpu time spent up to now is       45.4 secs

     total energy              =   -1939.01020865 Ry
     estimated scf accuracy    <       0.64278077 Ry

     iteration #  6     ecut=   100.00 Ry     beta= 0.30
     Davidson diagonalization with overlap
     ethr =  9.98E-05,  avg # of iterations =  4.0

     total cpu time spent up to now is       52.8 secs

     total energy              =   -1938.98626465 Ry
     estimated scf accuracy    <       0.20175081 Ry

     iteration #  7     ecut=   100.00 Ry     beta= 0.30
     Davidson diagonalization with overlap
     ethr =  3.13E-05,  avg # of iterations =  6.0

     total cpu time spent up to now is       60.7 secs

     total energy              =   -1938.91633354 Ry
     estimated scf accuracy    <       3.51646912 Ry

     iteration #  8     ecut=   100.00 Ry     beta= 0.30
     Davidson diagonalization with overlap
     ethr =  3.13E-05,  avg # of iterations =  6.0

     total cpu time spent up to now is       68.2 secs

     total energy              =   -1939.02452212 Ry
     estimated scf accuracy    <       0.22266020 Ry

     iteration #  9     ecut=   100.00 Ry     beta= 0.30
     Davidson diagonalization with overlap
     ethr =  3.13E-05,  avg # of iterations =  1.0

     total cpu time spent up to now is       74.5 secs

     total energy              =   -1939.03122110 Ry
     estimated scf accuracy    <       0.02731190 Ry

     iteration # 10     ecut=   100.00 Ry     beta= 0.30
     Davidson diagonalization with overlap
     ethr =  4.24E-06,  avg # of iterations =  2.0

     total cpu time spent up to now is       81.2 secs

     total energy              =   -1939.03012712 Ry
     estimated scf accuracy    <       0.01245466 Ry

     iteration # 11     ecut=   100.00 Ry     beta= 0.30
     Davidson diagonalization with overlap
     ethr =  1.93E-06,  avg # of iterations =  5.0

     total cpu time spent up to now is       88.5 secs

     total energy              =   -1939.03081290 Ry
     estimated scf accuracy    <       0.07556189 Ry

     iteration # 12     ecut=   100.00 Ry     beta= 0.30
     Davidson diagonalization with overlap
     ethr =  1.93E-06,  avg # of iterations =  1.0

     total cpu time spent up to now is       94.8 secs

     total energy              =   -1939.03000476 Ry
     estimated scf accuracy    <       0.02242587 Ry

     iteration # 13     ecut=   100.00 Ry     beta= 0.30
     Davidson diagonalization with overlap
     ethr =  1.93E-06,  avg # of iterations =  2.0

     total cpu time spent up to now is      101.8 secs

     total energy              =   -1939.03097596 Ry
     estimated scf accuracy    <       0.01198084 Ry

     iteration # 14     ecut=   100.00 Ry     beta= 0.30
     Davidson diagonalization with overlap
     ethr =  1.86E-06,  avg # of iterations =  1.0

     total cpu time spent up to now is      107.9 secs

     total energy              =   -1939.03068459 Ry
     estimated scf accuracy    <       0.01270158 Ry

     iteration # 15     ecut=   100.00 Ry     beta= 0.30
     Davidson diagonalization with overlap
     ethr =  1.86E-06,  avg # of iterations =  1.0

     total cpu time spent up to now is      114.2 secs

     total energy              =   -1939.03083279 Ry
     estimated scf accuracy    <       0.00034622 Ry

     iteration # 16     ecut=   100.00 Ry     beta= 0.30
     Davidson diagonalization with overlap
     ethr =  5.38E-08,  avg # of iterations =  5.0

     negative rho (up, down):  1.061E-08 0.000E+00

     total cpu time spent up to now is      121.6 secs

     total energy              =   -1939.03084588 Ry
     estimated scf accuracy    <       0.00018539 Ry

     iteration # 17     ecut=   100.00 Ry     beta= 0.30
     Davidson diagonalization with overlap
     ethr =  2.88E-08,  avg # of iterations =  2.0

     total cpu time spent up to now is      128.4 secs

     total energy              =   -1939.03085089 Ry
     estimated scf accuracy    <       0.00004273 Ry

     iteration # 18     ecut=   100.00 Ry     beta= 0.30
     Davidson diagonalization with overlap
     ethr =  6.64E-09,  avg # of iterations =  5.0

     negative rho (up, down):  1.811E-06 0.000E+00

     total cpu time spent up to now is      135.8 secs

     total energy              =   -1939.03085488 Ry
     estimated scf accuracy    <       0.00001682 Ry

     iteration # 19     ecut=   100.00 Ry     beta= 0.30
     Davidson diagonalization with overlap
     ethr =  2.61E-09,  avg # of iterations =  2.0

     negative rho (up, down):  5.934E-07 0.000E+00

     total cpu time spent up to now is      143.0 secs

     total energy              =   -1939.03085565 Ry
     estimated scf accuracy    <       0.00000079 Ry

     iteration # 20     ecut=   100.00 Ry     beta= 0.30
     Davidson diagonalization with overlap
     ethr =  1.23E-10,  avg # of iterations =  5.0

     negative rho (up, down):  7.404E-07 0.000E+00

     total cpu time spent up to now is      152.4 secs

     total energy              =   -1939.03085601 Ry
     estimated scf accuracy    <       0.00000230 Ry

     iteration # 21     ecut=   100.00 Ry     beta= 0.30
     Davidson diagonalization with overlap
     ethr =  1.23E-10,  avg # of iterations =  1.0

     negative rho (up, down):  4.136E-07 0.000E+00

     total cpu time spent up to now is      158.6 secs

     total energy              =   -1939.03085605 Ry
     estimated scf accuracy    <       0.00000003 Ry

     iteration # 22     ecut=   100.00 Ry     beta= 0.30
     Davidson diagonalization with overlap
     ethr =  5.00E-12,  avg # of iterations =  4.0

     negative rho (up, down):  3.495E-07 0.000E+00

     total cpu time spent up to now is      166.4 secs

     total energy              =   -1939.03085605 Ry
     estimated scf accuracy    <          5.1E-09 Ry

     iteration # 23     ecut=   100.00 Ry     beta= 0.30
     Davidson diagonalization with overlap
     ethr =  7.96E-13,  avg # of iterations =  4.0

     negative rho (up, down):  2.525E-07 0.000E+00

     total cpu time spent up to now is      174.5 secs

     total energy              =   -1939.03085605 Ry
     estimated scf accuracy    <          2.4E-09 Ry

     iteration # 24     ecut=   100.00 Ry     beta= 0.30
     Davidson diagonalization with overlap
     ethr =  3.77E-13,  avg # of iterations =  2.0

     negative rho (up, down):  1.843E-07 0.000E+00

     total cpu time spent up to now is      181.5 secs

     total energy              =   -1939.03085605 Ry
     estimated scf accuracy    <          2.5E-09 Ry

     iteration # 25     ecut=   100.00 Ry     beta= 0.30
     Davidson diagonalization with overlap
     ethr =  3.77E-13,  avg # of iterations =  2.0

     negative rho (up, down):  6.347E-08 0.000E+00

     total cpu time spent up to now is      188.3 secs

     total energy              =   -1939.03085605 Ry
     estimated scf accuracy    <          6.1E-10 Ry

     iteration # 26     ecut=   100.00 Ry     beta= 0.30
     Davidson diagonalization with overlap
     ethr =  1.00E-13,  avg # of iterations =  2.0

     total cpu time spent up to now is      195.6 secs

     End of self-consistent calculation

          k = 0.0000 0.0000 0.0000 (385710 PWs)   bands (ev):

   -23.7961 -23.5271 -23.5250 -23.5176 -23.5162 -23.5159 -23.4081 -22.9456
   -22.9445 -22.9444 -22.9336 -22.9329 -22.8415 -22.6606 -22.6596 -22.6514
   -22.6424 -22.6396 -22.4507 -21.8096 -21.8065 -21.8049 -21.7996 -21.7989
   -21.7978 -21.7930 -21.7930 -21.7888 -21.7513 -21.7422 -21.5204 -21.2378
   -21.2327 -21.2324 -21.1981 -21.1918 -20.9915 -20.4142 -20.3955 -20.3945
   -20.3691 -20.3650 -20.3158 -20.1338 -20.1322 -20.1302 -20.1266 -20.1255
   -20.1243 -20.1159 -20.1152 -20.1129 -20.0436 -20.0318 -19.6906 -19.3331
   -19.3296 -19.3238 -19.2912 -19.2879 -19.0910 -18.5678 -18.5578 -18.5567
   -18.5518 -18.5513 -18.5503 -18.5430 -18.5405 -18.5396 -18.4797 -18.4749
   -18.4524 -18.3900 -18.3880 -18.3862 -18.3343 -18.3238 -17.6668 -17.3580
   -17.3564 -17.3559 -17.2800 -17.2738 -17.1837 -16.8887 -16.8688 -16.8678
   -16.8029 -16.6707 -16.6691 -16.6631 -16.6036 -16.5983 -16.4264 -16.0977
   -16.0956 -16.0924 -16.0912 -16.0883 -16.0841 -16.0839 -16.0768 -16.0729
   -15.9475 -15.9429 -15.5773 -15.2219 -15.2211 -15.2198 -15.2186 -15.2166
   -15.2158 -15.2105 -15.2033 -15.1909 -15.0784 -15.0780 -14.7982 -14.7933
   -14.4753 -13.9818 -13.9793 -13.9740 -13.9586 -13.9571 -13.9530 -13.9246
   -13.9228 -13.9149 -13.8386 -13.8340 -13.5565 -13.4536 -13.4530 -13.4489
   -13.4463 -13.4459 -13.4451 -13.4444 -13.4430 -13.4354 -13.2144 -13.2080
   -12.9228 -12.4674 -12.4664 -12.4642 -12.4582 -12.4575 -12.4562 -12.4552
   -12.4546 -12.4542 -12.4512 -12.4506 -12.4393 -12.4355 -12.4316 -12.4130
   -12.1894 -12.1893 -11.8799 -11.7108 -11.6224 -11.6212 -11.6156 -11.5534
   -11.5520 -11.5489 -11.5480 -11.5479 -11.5443 -11.5434 -11.4575 -11.4214
   -11.3262 -11.3252 -11.3240 -11.3229 -11.3224 -11.3218 -11.3150 -11.3136
   -11.2986 -11.1686 -11.1386 -11.1382 -10.9948 -10.9895 -10.9833 -10.8943
   -10.8928 -10.8635 -10.8624 -10.8608 -10.8517 -10.8512 -10.7530 -10.6579
   -10.6513 -10.6511 -10.6480 -10.5861 -10.5857 -10.5381 -10.5259 -10.5253
   -10.5200 -10.5112 -10.5090 -10.4428 -10.4423 -10.4413 -10.4363 -10.4333
   -10.4324 -10.4257 -10.4195 -10.4176 -10.3207 -10.2205 -10.2196 -10.1916
   -10.0914 -10.0899 -10.0896 -10.0712 -10.0393 -10.0381 -10.0085 -10.0015
    -9.9927  -9.5315  -9.5297  -9.5292  -9.5286  -9.5277  -9.5256  -9.5216
    -9.5213  -9.5188  -9.4899  -9.4824  -9.4482  -9.4456  -9.2531  -9.1079
    -9.0714  -9.0632  -9.0582  -9.0579  -9.0541  -9.0540  -9.0507  -9.0392
    -9.0322  -8.9046  -8.8938  -8.8937  -8.8754  -8.8706  -8.8283  -8.6833
    -8.6128  -8.6122  -8.4432  -8.4432  -8.4413  -8.0763  -8.0753  -8.0563
    -7.9537  -7.9397  -7.9387  -7.9263  -7.9230  -7.9098  -7.9034  -7.8993
    -7.8957  -7.8775  -7.7068  -7.7060  -7.7028  -7.7023  -7.7019  -7.7011
    -7.6913  -7.6882  -7.6875  -7.6533  -7.6494  -7.3973  -7.3973  -7.3498
    -7.0570  -7.0562  -7.0540  -7.0379  -7.0354  -6.7995  -6.3695  -6.3679
    -6.3662  -6.3493  -6.3431  -6.2647  -6.0767  -6.0757  -6.0741  -6.0733
    -6.0718  -6.0711  -6.0629  -6.0625  -6.0621  -6.0140  -6.0098  -5.0127
    -4.2608  -4.2466  -4.2465  -4.1805  -4.1366  -4.0027  -2.6592  -2.6572
    -2.6570  -2.6391  -2.6359  -2.6306  -2.5580  -2.5579  -2.5569  -2.5551
    -2.5516  -2.5514  -2.5479  -2.5474  -2.5457  -2.4935  -2.4923  -2.2159
    -2.0393  -2.0379  -2.0361  -2.0088  -2.0026  -1.6019  -0.9414  -0.9390

     the Fermi energy is    -4.2215 ev

!    total energy              =   -1939.03085605 Ry
     estimated scf accuracy    <          9.9E-11 Ry
     smearing contrib. (-TS)   =      -0.01395399 Ry
     internal energy E=F+TS    =   -1939.01690206 Ry

     The total energy is F=E-TS. E is the sum of the following terms:
     one-electron contribution =  -21952.59071496 Ry
     hartree contribution      =   11036.34645003 Ry
     xc contribution           =    -689.84851527 Ry
     ewald contribution        =    9667.07587814 Ry

     convergence has been achieved in  26 iterations

     Forces acting on atoms (cartesian axes, Ry/au):

     atom    1 type  1   force =     0.00124938    0.00000003   -0.00000004
     atom    2 type  1   force =    -0.00099645    0.00000005    0.00000003
     atom    3 type  1   force =     0.00016656    0.00126000   -0.00000004
     atom    4 type  1   force =    -0.00071513    0.00034857   -0.00000003
     atom    5 type  1   force =    -0.00091454    0.00122895    0.00000002
     atom    6 type  1   force =     0.00023508    0.00128470    0.00000000
     atom    7 type  1   force =    -0.00085232   -0.00123031   -0.00000001
     atom    8 type  1   force =     0.00122103   -0.00004056   -0.00000004
     atom    9 type  1   force =     0.00127707   -0.00092601    0.00000004
     atom   10 type  1   force =    -0.00149045    0.00229669    0.00000001
     atom   11 type  1   force =    -0.00041044   -0.00020266    0.00000005
     atom   12 type  1   force =    -0.00018864    0.00107043   -0.00000002
     atom   13 type  1   force =     0.00063958   -0.00154078   -0.00000004
     atom   14 type  1   force =    -0.00046551    0.00010091   -0.00000001
     atom   15 type  1   force =     0.00114077    0.00019487    0.00000001
     atom   16 type  1   force =    -0.00203165    0.00198550   -0.00000005
     atom   17 type  1   force =     0.00047377   -0.00086247   -0.00000004
     atom   18 type  1   force =    -0.00084033   -0.00069875   -0.00000001
     atom   19 type  1   force =     0.00016661   -0.00125993   -0.00000000
     atom   20 type  1   force =    -0.00071510   -0.00034852    0.00000006
     atom   21 type  1   force =    -0.00004253    0.00000001   -0.00000001
     atom   22 type  1   force =     0.00069443   -0.00000001    0.00000002
     atom   23 type  1   force =     0.00191104   -0.00083440   -0.00000000
     atom   24 type  1   force =    -0.00228247    0.00255096    0.00000002
     atom   25 type  1   force =    -0.00066208   -0.00014623    0.00000001
     atom   26 type  1   force =    -0.00020196    0.00130375   -0.00000000
     atom   27 type  1   force =     0.00100508   -0.00273901   -0.00000005
     atom   28 type  1   force =     0.00065231    0.00143152    0.00000004
     atom   29 type  1   force =     0.00280512   -0.00033332   -0.00000001
     atom   30 type  1   force =    -0.00390148    0.00567969    0.00000003
     atom   31 type  1   force =    -0.00103008   -0.00170179    0.00000000
     atom   32 type  1   force =    -0.00182326    0.00040831    0.00000002
     atom   33 type  1   force =     0.00156382   -0.00251718    0.00000004
     atom   34 type  1   force =    -0.00062981    0.00019820   -0.00000002
     atom   35 type  1   force =     0.00119475    0.00043463   -0.00000002
     atom   36 type  1   force =    -0.00179489    0.00260373    0.00000001
     atom   37 type  1   force =    -0.00091445   -0.00122896   -0.00000001
     atom   38 type  1   force =     0.00023520   -0.00128470    0.00000002
     atom   39 type  1   force =     0.00191111    0.00083434   -0.00000001
     atom   40 type  1   force =    -0.00228239   -0.00255103   -0.00000004
     atom   41 type  1   force =     0.00683703   -0.00000005   -0.00000001
     atom   42 type  1   force =    -0.00619523    0.00000001    0.00000001
     atom   43 type  1   force =     0.00637939    0.00088411    0.00000000
     atom   44 type  1   force =    -0.00867610    0.00888711   -0.00000001
     atom   45 type  1   force =    -0.00215488   -0.00806505    0.00000007
     atom   46 type  1   force =     0.00623133    0.02063774    0.00000001
     atom   47 type  1   force =     0.00247266   -0.00708035    0.00000004
     atom   48 type  1   force =    -0.02044801   -0.00115321    0.00000003
     atom   49 type  1   force =     0.00992547   -0.00190619   -0.00000000
     atom   50 type  1   force =    -0.00438788    0.01041628    0.00000002
     atom   51 type  1   force =    -0.00329077   -0.00372975   -0.00000001
     atom   52 type  1   force =     0.00252613    0.00541766    0.00000000
     atom   53 type  1   force =    -0.00350085   -0.00566820    0.00000001
     atom   54 type  1   force =     0.00342951    0.00022813   -0.00000001
     atom   55 type  1   force =    -0.00085232    0.00123034    0.00000001
     atom   56 type  1   force =     0.00122116    0.00004063   -0.00000002
     atom   57 type  1   force =    -0.00066211    0.00014613   -0.00000002
     atom   58 type  1   force =    -0.00020192   -0.00130381   -0.00000002
     atom   59 type  1   force =     0.00637942   -0.00088420   -0.00000002
     atom   60 type  1   force =    -0.00867610   -0.00888725   -0.00000000
     atom   61 type  1   force =     0.02808520    0.00000003    0.00000000
     atom   62 type  1   force =    -0.05406618   -0.00000007   -0.00000000
     atom   63 type  1   force =     0.06011257   -0.05441485   -0.00000002
     atom   64 type  1   force =    -0.03372971    0.06757087    0.00000001
     atom   65 type  1   force =     0.01166483   -0.09651537    0.00000010
     atom   66 type  1   force =     0.01818573    0.03975152    0.00000004
     atom   67 type  1   force =    -0.01346835   -0.02268666    0.00000003
     atom   68 type  1   force =     0.01163508    0.00228630   -0.00000006
     atom   69 type  1   force =    -0.00152821   -0.00574013   -0.00000003
     atom   70 type  1   force =     0.00038097   -0.00093597   -0.00000003
     atom   71 type  1   force =     0.00053712    0.00132183   -0.00000002
     atom   72 type  1   force =    -0.00093815   -0.00067070    0.00000003
     atom   73 type  1   force =     0.00127718    0.00092596   -0.00000004
     atom   74 type  1   force =    -0.00149045   -0.00229675   -0.00000002
     atom   75 type  1   force =     0.00100508    0.00273891   -0.00000004
     atom   76 type  1   force =     0.00065227   -0.00143162   -0.00000003
     atom   77 type  1   force =    -0.00215496    0.00806506    0.00000003
     atom   78 type  1   force =     0.00623144   -0.02063768    0.00000001
     atom   79 type  1   force =     0.06011290    0.05441465    0.00000009
     atom   80 type  1   force =    -0.03372975   -0.06757085    0.00000001
     atom   81 type  1   force =     0.07294428   -0.00000008    0.00000002
     atom   82 type  1   force =    -0.06670108   -0.03032932   -0.00000002
     atom   83 type  1   force =     0.01429826   -0.01384940   -0.00000003
     atom   84 type  1   force =    -0.00466314    0.00651211    0.00000000
     atom   85 type  1   force =     0.00051023   -0.00062179    0.00000002
     atom   86 type  1   force =    -0.00307235    0.00032104   -0.00000002
     atom   87 type  1   force =     0.00292202   -0.00024357   -0.00000005
     atom   88 type  1   force =    -0.00069320   -0.00072134   -0.00000002
     atom   89 type  1   force =     0.00010777   -0.00105341   -0.00000000
     atom   90 type  1   force =    -0.00041037    0.00020268    0.00000005
     atom   91 type  1   force =    -0.00018868   -0.00107037    0.00000000
     atom   92 type  1   force =     0.00280510    0.00033327    0.00000003
     atom   93 type  1   force =    -0.00390140   -0.00567967    0.00000000
     atom   94 type  1   force =     0.00247297    0.00708024   -0.00000005
     atom   95 type  1   force =    -0.02044789    0.00115323   -0.00000005
     atom   96 type  1   force =     0.01166486    0.09651544    0.00000004
     atom   97 type  1   force =     0.01818547   -0.03975156    0.00000002
     atom   98 type  1   force =    -0.06670130    0.03032918   -0.00000004
     atom   99 type  1   force =     0.01429806    0.01384922   -0.00000002
     atom  100 type  1   force =    -0.00815877   -0.00000016   -0.00000002
     atom  101 type  1   force =     0.00723989   -0.00000004    0.00000002
     atom  102 type  1   force =    -0.00077016   -0.00256194   -0.00000000
     atom  103 type  1   force =     0.00015114   -0.00085236   -0.00000001
     atom  104 type  1   force =     0.00036382    0.00113402    0.00000001
     atom  105 type  1   force =    -0.00082377   -0.00047944   -0.00000002
     atom  106 type  1   force =    -0.00068550    0.00091714    0.00000001
     atom  107 type  1   force =     0.00102691    0.00002698    0.00000001
     atom  108 type  1   force =     0.00063961    0.00154076   -0.00000005
     atom  109 type  1   force =    -0.00046550   -0.00010088    0.00000002
     atom  110 type  1   force =    -0.00103008    0.00170181   -0.00000005
     atom  111 type  1   force =    -0.00182318   -0.00040828   -0.00000002
     atom  112 type  1   force =     0.00992554    0.00190624    0.00000004
     atom  113 type  1   force =    -0.00438802   -0.01041627   -0.00000009
     atom  114 type  1   force =    -0.01346844    0.02268677   -0.00000002
     atom  115 type  1   force =     0.01163517   -0.00228633   -0.00000002
     atom  116 type  1   force =    -0.00466315   -0.00651223    0.00000006
     atom  117 type  1   force =     0.00051019    0.00062177    0.00000003
     atom  118 type  1   force =    -0.00077013    0.00256193    0.00000000
     atom  119 type  1   force =     0.00015117    0.00085237    0.00000003
     atom  120 type  1   force =    -0.00186934   -0.00000004    0.00000002
     atom  121 type  1   force =     0.00215840    0.00000002    0.00000000
     atom  122 type  1   force =    -0.00003219   -0.00063641    0.00000003
     atom  123 type  1   force =    -0.00052649   -0.00000362   -0.00000002
     atom  124 type  1   force =     0.00085795    0.00045029    0.00000000
     atom  125 type  1   force =    -0.00135747   -0.00147911    0.00000003
     atom  126 type  1   force =     0.00114081   -0.00019477    0.00000005
     atom  127 type  1   force =    -0.00203163   -0.00198543   -0.00000001
     atom  128 type  1   force =     0.00156384    0.00251725    0.00000002
     atom  129 type  1   force =    -0.00062977   -0.00019815    0.00000005
     atom  130 type  1   force =    -0.00329093    0.00372980    0.00000000
     atom  131 type  1   force =     0.00252606   -0.00541768   -0.00000002
     atom  132 type  1   force =    -0.00152819    0.00574011   -0.00000000
     atom  133 type  1   force =     0.00038089    0.00093603   -0.00000001
     atom  134 type  1   force =    -0.00307249   -0.00032108    0.00000001
     atom  135 type  1   force =     0.00292196    0.00024355    0.00000003
     atom  136 type  1   force =     0.00036379   -0.00113396    0.00000002
     atom  137 type  1   force =    -0.00082380    0.00047947    0.00000002
     atom  138 type  1   force =    -0.00003224    0.00063641   -0.00000001
     atom  139 type  1   force =    -0.00052646    0.00000367   -0.00000003
     atom  140 type  1   force =    -0.00014634    0.00000003   -0.00000003
     atom  141 type  1   force =     0.00049106    0.00000003   -0.00000003
     atom  142 type  1   force =     0.00023887    0.00024384   -0.00000002
     atom  143 type  1   force =    -0.00074828    0.00050979    0.00000001
     atom  144 type  1   force =     0.00047380    0.00086256   -0.00000004
     atom  145 type  1   force =    -0.00084029    0.00069874   -0.00000000
     atom  146 type  1   force =     0.00119471   -0.00043451    0.00000004
     atom  147 type  1   force =    -0.00179487   -0.00260372   -0.00000002
     atom  148 type  1   force =    -0.00350090    0.00566823    0.00000002
     atom  149 type  1   force =     0.00342944   -0.00022821   -0.00000000
     atom  150 type  1   force =     0.00053709   -0.00132177   -0.00000001
     atom  151 type  1   force =    -0.00093821    0.00067079    0.00000003
     atom  152 type  1   force =    -0.00069326    0.00072134    0.00000000
     atom  153 type  1   force =     0.00010768    0.00105345   -0.00000002
     atom  154 type  1   force =    -0.00068563   -0.00091708    0.00000002
     atom  155 type  1   force =     0.00102690   -0.00002694    0.00000003
     atom  156 type  1   force =     0.00085784   -0.00045025   -0.00000001
     atom  157 type  1   force =    -0.00135747    0.00147916    0.00000001
     atom  158 type  1   force =     0.00023885   -0.00024381   -0.00000000
     atom  159 type  1   force =    -0.00074829   -0.00050971    0.00000001
     atom  160 type  1   force =     0.00090638    0.00000004   -0.00000004
     atom  161 type  1   force =    -0.00075549    0.00000004   -0.00000002

     Total force =     0.270970     Total SCF correction =     0.000020

     BFGS Geometry Optimization
     Energy error            =      7.3E-02 Ry
     Gradient error          =      9.7E-02 Ry/Bohr

     number of scf cycles    =   1
     number of bfgs steps    =   0

     energy             new  =   -1939.0308560486 Ry

     new trust radius        =       0.0972177957 bohr
     new conv_thr            =            1.0E-10 Ry


ATOMIC_POSITIONS (crystal)
C                0.0370542361        0.0370542376       -0.0000000012
C                0.0740603550        0.0740603575        0.0000000011
C                0.0370092857        0.1481804854       -0.0000000015
C                0.0740559174        0.1851836518       -0.0000000011
C                0.0369951428        0.2592759732        0.0000000008
C                0.0740466770        0.2963301659        0.0000000001
C                0.0370546397        0.3703293005       -0.0000000004
C                0.0740918509        0.4074232498       -0.0000000013
C                0.0370766984        0.4814769822        0.0000000014
C                0.0739987915        0.5185527638        0.0000000003
C                0.0370362189        0.5925821100        0.0000000018
C                0.0740459531        0.6296525567       -0.0000000007
C                0.0370825813        0.7036757692       -0.0000000012
C                0.0740652595        0.7407367383       -0.0000000003
C                0.0370480952        0.8148351660        0.0000000004
C                0.0739987612        0.8518712264       -0.0000000017
C                0.0370641245        0.9259118829       -0.0000000013
C                0.0740791670        0.9629347330       -0.0000000002
C                0.1481804844        0.0370092880       -0.0000000001
C                0.1851836511        0.0740559192        0.0000000019
C                0.1481475624        0.1481475629       -0.0000000004
C                0.1851947456        0.1851947450        0.0000000006
C                0.1481943527        0.2592656721       -0.0000000001
C                0.1850929362        0.2963257010        0.0000000006
C                0.1481425202        0.3703577688        0.0000000004
C                0.1851513174        0.4074357147       -0.0000000002
C                0.1482272956        0.4814300073       -0.0000000016
C                0.1851600313        0.5185616328        0.0000000012
C                0.1481947132        0.5926232621       -0.0000000003
C                0.1849960440        0.6297113495        0.0000000009
C                0.1481745458        0.7036489442        0.0000000002
C                0.1851503488        0.7407253763        0.0000000007
C                0.1482296982        0.8147763221        0.0000000012
C                0.1851717888        0.8518479075       -0.0000000008
C                0.1481542324        0.9259527373       -0.0000000007
C                0.1850983904        0.9630003382        0.0000000003
C                0.2592759744        0.0369951439       -0.0000000004
C                0.2963301675        0.0740466787        0.0000000008
C                0.2592656745        0.1481943524       -0.0000000003
C                0.2963257036        0.1850929357       -0.0000000015
C                0.2593533840        0.2593533818       -0.0000000004
C                0.2962110081        0.2962110085        0.0000000005
C                0.2593260012        0.3704792751        0.0000000001
C                0.2959649444        0.4074998761       -0.0000000004
C                0.2594219021        0.4812595074        0.0000000023
C                0.2958899810        0.5190964040        0.0000000003
C                0.2594621285        0.5924578042        0.0000000014
C                0.2960422919        0.6293206293        0.0000000011
C                0.2594413532        0.7037948925       -0.0000000001
C                0.2959875165        0.7409287069        0.0000000007
C                0.2593028908        0.8146805770       -0.0000000002
C                0.2962018903        0.8520158110        0.0000000000
C                0.2593462204        0.9257425742        0.0000000003
C                0.2963380697        0.9630156160       -0.0000000003
C                0.3703292996        0.0370546405        0.0000000003
C                0.4074232500        0.0740918544       -0.0000000006
C                0.3703577710        0.1481425174       -0.0000000006
C                0.4074357166        0.1851513165       -0.0000000006
C                0.3704792777        0.2593259996       -0.0000000008
C                0.4074998795        0.2959649411       -0.0000000001
C                0.3707570114        0.3707570125        0.0000000001
C                0.4066630942        0.4066630909       -0.0000000002
C                0.3724954296        0.4810115303       -0.0000000006
C                0.4066836510        0.5183135789        0.0000000004
C                0.3728323360        0.5904518004        0.0000000033
C                0.4067099028        0.6308278504        0.0000000012
C                0.3707259115        0.7029773322        0.0000000010
C                0.4075130684        0.7409554339       -0.0000000019
C                0.3704862037        0.8146569047       -0.0000000009
C                0.4074349700        0.8518347787       -0.0000000009
C                0.3703462462        0.9259648390       -0.0000000008
C                0.4074104848        0.9629340551        0.0000000010
C                0.4814769848        0.0370766988       -0.0000000013
C                0.5185527652        0.0739987903       -0.0000000006
C                0.4814300097        0.1482272933       -0.0000000013
C                0.5185616347        0.1851600284       -0.0000000010
C                0.4812595058        0.2594219014        0.0000000010
C                0.5190964041        0.2958899839        0.0000000002
C                0.4810115396        0.3724954293        0.0000000029
C                0.5183135778        0.4066836509        0.0000000005
C                0.5195227251        0.5195227214        0.0000000007
C                0.4812864184        0.5909511432       -0.0000000008
C                0.5190455936        0.6294962354       -0.0000000009
C                0.4812620060        0.7037947867        0.0000000001
C                0.5185403691        0.7407329384        0.0000000007
C                0.4814315301        0.8147801737       -0.0000000008
C                0.5185645531        0.8518862707       -0.0000000017
C                0.4814891385        0.9258991827       -0.0000000007
C                0.5185451203        0.9629393284       -0.0000000001
C                0.5925821103        0.0370362204        0.0000000016
C                0.6296525548        0.0740459540        0.0000000000
C                0.5926232628        0.1481947119        0.0000000011
C                0.6297113501        0.1849960456        0.0000000001
C                0.5924578111        0.2594621302       -0.0000000015
C                0.6293206305        0.2960422940       -0.0000000018
C                0.5904517990        0.3728323380        0.0000000014
C                0.6308278478        0.4067098984        0.0000000008
C                0.5909511434        0.4812864121       -0.0000000013
C                0.6294962368        0.5190455865       -0.0000000008
C                0.5924802768        0.5924802693       -0.0000000007
C                0.6297293001        0.6297292984        0.0000000005
C                0.5926430787        0.7036320125       -0.0000000002
C                0.6296520346        0.7407224970       -0.0000000002
C                0.5925705609        0.8148468638        0.0000000005
C                0.6296297211        0.8518290792       -0.0000000006
C                0.5925612866        0.9259383577        0.0000000005
C                0.6296431234        0.9629777436        0.0000000002
C                0.7036757702        0.0370825813       -0.0000000016
C                0.7407367378        0.0740652602        0.0000000007
C                0.7036489437        0.1481745463       -0.0000000018
C                0.7407253768        0.1851503506       -0.0000000007
C                0.7037948922        0.2594413553        0.0000000012
C                0.7409287048        0.2959875149       -0.0000000028
C                0.7029773281        0.3707259129       -0.0000000006
C                0.7409554359        0.4075130690       -0.0000000008
C                0.7037947894        0.4812620032        0.0000000020
C                0.7407329383        0.5185403682        0.0000000011
C                0.7036320132        0.5926430787        0.0000000000
C                0.7407224973        0.6296520353        0.0000000010
C                0.7036779700        0.7036779679        0.0000000005
C                0.7407704544        0.7407704554        0.0000000000
C                0.7037184356        0.8147991965        0.0000000009
C                0.7407335790        0.8518445176       -0.0000000007
C                0.7037047778        0.9259484742        0.0000000001
C                0.7407573215        0.9629090062        0.0000000010
C                0.8148351642        0.0370480980        0.0000000016
C                0.8518712248        0.0739987633       -0.0000000005
C                0.8147763206        0.1482297002        0.0000000007
C                0.8518479069        0.1851717904        0.0000000017
C                0.8146805737        0.2593028898        0.0000000001
C                0.8520158106        0.2962018890       -0.0000000006
C                0.8146569056        0.3704862033       -0.0000000001
C                0.8518347762        0.4074349703       -0.0000000004
C                0.8147801727        0.4814315273        0.0000000002
C                0.8518862703        0.5185645518        0.0000000011
C                0.8148468619        0.5925705620        0.0000000006
C                0.8518290781        0.6296297212        0.0000000007
C                0.8147991960        0.7037184348       -0.0000000003
C                0.8518445167        0.7407335805       -0.0000000011
C                0.8148127995        0.8148128009       -0.0000000012
C                0.8518586115        0.8518586128       -0.0000000008
C                0.8148122889        0.9259350287       -0.0000000008
C                0.8518293947        0.9629648175        0.0000000004
C                0.9259118811        0.0370641271       -0.0000000014
C                0.9629347338        0.0740791673       -0.0000000001
C                0.9259527338        0.1481542347        0.0000000014
C                0.9630003383        0.1850983909       -0.0000000005
C                0.9257425728        0.2593462205        0.0000000006
C                0.9630156166        0.2963380669       -0.0000000002
C                0.9259648371        0.3703462473       -0.0000000003
C                0.9629340520        0.4074104861        0.0000000011
C                0.9258991818        0.4814891376        0.0000000001
C                0.9629393263        0.5185451201       -0.0000000006
C                0.9259383546        0.5925612861        0.0000000008
C                0.9629777424        0.6296431244        0.0000000009
C                0.9259484717        0.7037047773       -0.0000000004
C                0.9629090049        0.7407573229        0.0000000004
C                0.9259350278        0.8148122893       -0.0000000001
C                0.9629648153        0.8518293967        0.0000000004
C                0.9259384028        0.9259384049       -0.0000000012
C                0.9629525614        0.9629525634       -0.0000000006



     Writing config-only to output data dir /home/gregb26/links/scratch/qe_tmp/vacancy_relaxed/nspin1/vac_9x9_relax_nspin1.save/ :
     XML data file
     NEW-OLD atomic charge density approx. for the potential

     negative rho (up, down):  2.097E-05 0.000E+00

     total cpu time spent up to now is      199.1 secs

     per-process dynamical memory:   348.7 Mb

     Self-consistent Calculation

     iteration #  1     ecut=   100.00 Ry     beta= 0.30
     Davidson diagonalization with overlap
     c_bands:  2 eigenvalues not converged
     ethr =  1.00E-06,  avg # of iterations = 20.0

     negative rho (up, down):  1.398E-05 0.000E+00

     total cpu time spent up to now is      222.6 secs

     total energy              =   -1939.04373438 Ry
     estimated scf accuracy    <       0.03425839 Ry

     iteration #  2     ecut=   100.00 Ry     beta= 0.30
     Davidson diagonalization with overlap
     ethr =  5.32E-06,  avg # of iterations =  7.0

     negative rho (up, down):  1.365E-05 0.000E+00

     total cpu time spent up to now is      230.7 secs

     total energy              =   -1939.00525562 Ry
     estimated scf accuracy    <       2.32627552 Ry

     iteration #  3     ecut=   100.00 Ry     beta= 0.30
     Davidson diagonalization with overlap
     ethr =  5.32E-06,  avg # of iterations =  6.0

     negative rho (up, down):  9.184E-06 0.000E+00

     total cpu time spent up to now is      238.5 secs

     total energy              =   -1939.04899854 Ry
     estimated scf accuracy    <       0.02217674 Ry

     iteration #  4     ecut=   100.00 Ry     beta= 0.30
     Davidson diagonalization with overlap
     ethr =  3.44E-06,  avg # of iterations =  6.0

     negative rho (up, down):  5.845E-06 0.000E+00

     total cpu time spent up to now is      246.2 secs

     total energy              =   -1939.04860138 Ry
     estimated scf accuracy    <       0.01622081 Ry

     iteration #  5     ecut=   100.00 Ry     beta= 0.30
     Davidson diagonalization with overlap
     ethr =  2.52E-06,  avg # of iterations =  2.0

     negative rho (up, down):  2.986E-06 0.000E+00

     total cpu time spent up to now is      253.0 secs

     total energy              =   -1939.04884946 Ry
     estimated scf accuracy    <       0.00624548 Ry

     iteration #  6     ecut=   100.00 Ry     beta= 0.30
     Davidson diagonalization with overlap
     ethr =  9.70E-07,  avg # of iterations =  2.0

     negative rho (up, down):  1.261E-06 0.000E+00

     total cpu time spent up to now is      260.5 secs

     total energy              =   -1939.04904557 Ry
     estimated scf accuracy    <       0.00104198 Ry

     iteration #  7     ecut=   100.00 Ry     beta= 0.30
     Davidson diagonalization with overlap
     ethr =  1.62E-07,  avg # of iterations =  4.0

     negative rho (up, down):  3.606E-07 0.000E+00

     total cpu time spent up to now is      267.3 secs

     total energy              =   -1939.04908972 Ry
     estimated scf accuracy    <       0.00005816 Ry

     iteration #  8     ecut=   100.00 Ry     beta= 0.30
     Davidson diagonalization with overlap
     ethr =  9.03E-09,  avg # of iterations =  5.0

     negative rho (up, down):  1.970E-07 0.000E+00

     total cpu time spent up to now is      275.8 secs

     total energy              =   -1939.04909703 Ry
     estimated scf accuracy    <       0.00002427 Ry

     iteration #  9     ecut=   100.00 Ry     beta= 0.30
     Davidson diagonalization with overlap
     ethr =  3.77E-09,  avg # of iterations =  2.0

     negative rho (up, down):  1.295E-07 0.000E+00

     total cpu time spent up to now is      282.9 secs

     total energy              =   -1939.04909751 Ry
     estimated scf accuracy    <       0.00000889 Ry

     iteration # 10     ecut=   100.00 Ry     beta= 0.30
     Davidson diagonalization with overlap
     ethr =  1.38E-09,  avg # of iterations =  2.0

     negative rho (up, down):  3.250E-08 0.000E+00

     total cpu time spent up to now is      289.9 secs

     total energy              =   -1939.04909836 Ry
     estimated scf accuracy    <       0.00000195 Ry

     iteration # 11     ecut=   100.00 Ry     beta= 0.30
     Davidson diagonalization with overlap
     ethr =  3.03E-10,  avg # of iterations =  4.0

     total cpu time spent up to now is      297.5 secs

     total energy              =   -1939.04909856 Ry
     estimated scf accuracy    <       0.00000018 Ry

     iteration # 12     ecut=   100.00 Ry     beta= 0.30
     Davidson diagonalization with overlap
     ethr =  2.84E-11,  avg # of iterations =  5.0

     total cpu time spent up to now is      308.2 secs

     total energy              =   -1939.04909862 Ry
     estimated scf accuracy    <       0.00000005 Ry

     iteration # 13     ecut=   100.00 Ry     beta= 0.30
     Davidson diagonalization with overlap
     ethr =  8.45E-12,  avg # of iterations =  2.0

     total cpu time spent up to now is      315.1 secs

     total energy              =   -1939.04909862 Ry
     estimated scf accuracy    <          9.7E-09 Ry

     iteration # 14     ecut=   100.00 Ry     beta= 0.30
     Davidson diagonalization with overlap
     ethr =  1.50E-12,  avg # of iterations =  5.0

     total cpu time spent up to now is      324.3 secs

     total energy              =   -1939.04909863 Ry
     estimated scf accuracy    <          4.6E-09 Ry

     iteration # 15     ecut=   100.00 Ry     beta= 0.30
     Davidson diagonalization with overlap
     ethr =  7.18E-13,  avg # of iterations =  2.0

     total cpu time spent up to now is      331.5 secs

     total energy              =   -1939.04909863 Ry
     estimated scf accuracy    <          2.8E-09 Ry

     iteration # 16     ecut=   100.00 Ry     beta= 0.30
     Davidson diagonalization with overlap
     ethr =  4.38E-13,  avg # of iterations =  2.0

     total cpu time spent up to now is      338.6 secs

     total energy              =   -1939.04909863 Ry
     estimated scf accuracy    <          8.5E-10 Ry

     iteration # 17     ecut=   100.00 Ry     beta= 0.30
     Davidson diagonalization with overlap
     ethr =  1.32E-13,  avg # of iterations =  4.0

     total cpu time spent up to now is      346.2 secs

     total energy              =   -1939.04909863 Ry
     estimated scf accuracy    <          4.7E-10 Ry

     iteration # 18     ecut=   100.00 Ry     beta= 0.30
     Davidson diagonalization with overlap
     ethr =  1.00E-13,  avg # of iterations =  1.0

     total cpu time spent up to now is      352.7 secs

     total energy              =   -1939.04909863 Ry
     estimated scf accuracy    <          1.7E-10 Ry

     iteration # 19     ecut=   100.00 Ry     beta= 0.30
     Davidson diagonalization with overlap
     ethr =  1.00E-13,  avg # of iterations =  1.0

     total cpu time spent up to now is      358.9 secs

     End of self-consistent calculation

          k = 0.0000 0.0000 0.0000 (385710 PWs)   bands (ev):

   -23.7887 -23.5283 -23.5260 -23.5033 -23.5032 -23.4954 -23.4362 -22.9430
   -22.9401 -22.9352 -22.9340 -22.9331 -22.8399 -22.6511 -22.6501 -22.6486
   -22.6475 -22.6437 -22.4947 -21.8246 -21.8219 -21.7970 -21.7920 -21.7889
   -21.7854 -21.7821 -21.7814 -21.7742 -21.7728 -21.7716 -21.5554 -21.2532
   -21.2223 -21.2187 -21.2126 -21.2115 -21.0359 -20.4243 -20.4210 -20.3833
   -20.3823 -20.3679 -20.3045 -20.1541 -20.1363 -20.1355 -20.1219 -20.1185
   -20.1184 -20.1060 -20.1056 -20.0922 -20.0877 -20.0862 -19.7255 -19.3438
   -19.3299 -19.3232 -19.3054 -19.3031 -19.1367 -18.6023 -18.6002 -18.5448
   -18.5443 -18.5436 -18.5368 -18.5358 -18.5356 -18.5168 -18.5155 -18.5130
   -18.4279 -18.3883 -18.3840 -18.3743 -18.3714 -18.3713 -17.8194 -17.3524
   -17.3487 -17.3478 -17.3004 -17.2926 -17.1757 -16.8978 -16.8723 -16.8710
   -16.7787 -16.6971 -16.6953 -16.6719 -16.6012 -16.5990 -16.4363 -16.1258
   -16.1206 -16.1201 -16.0791 -16.0782 -16.0742 -16.0704 -16.0642 -16.0605
   -15.9561 -15.9554 -15.5320 -15.2676 -15.2668 -15.2500 -15.2235 -15.2110
   -15.2091 -15.2061 -15.2019 -15.1982 -15.0838 -15.0795 -14.7931 -14.7876
   -14.4401 -13.9881 -13.9853 -13.9840 -13.9718 -13.9581 -13.9552 -13.9386
   -13.9367 -13.9351 -13.8474 -13.8397 -13.5979 -13.5125 -13.4466 -13.4463
   -13.4311 -13.4256 -13.4245 -13.4191 -13.4168 -13.4147 -13.2294 -13.2222
   -12.8983 -12.5544 -12.5259 -12.5256 -12.4923 -12.4772 -12.4717 -12.4497
   -12.4496 -12.4449 -12.4420 -12.4384 -12.4351 -12.4342 -12.4252 -12.4231
   -12.1465 -12.1444 -11.8725 -11.7048 -11.6654 -11.6139 -11.6129 -11.5519
   -11.5508 -11.5479 -11.5449 -11.5326 -11.5326 -11.5262 -11.4532 -11.4324
   -11.3935 -11.3465 -11.3450 -11.3256 -11.3143 -11.3131 -11.3020 -11.3009
   -11.2703 -11.1913 -11.1653 -11.1630 -11.0467 -11.0123 -11.0117 -10.8636
   -10.8626 -10.8582 -10.8556 -10.8534 -10.8533 -10.8520 -10.7551 -10.7124
   -10.6695 -10.6676 -10.6278 -10.6084 -10.6050 -10.5573 -10.5192 -10.5169
   -10.5164 -10.5138 -10.5136 -10.5058 -10.4610 -10.4561 -10.4400 -10.4249
   -10.4224 -10.4190 -10.4182 -10.3657 -10.3567 -10.2187 -10.2162 -10.2154
   -10.1156 -10.1141 -10.1117 -10.0595 -10.0585 -10.0317 -10.0029  -9.9996
    -9.9697  -9.5437  -9.5413  -9.5331  -9.5285  -9.5224  -9.5147  -9.5129
    -9.5120  -9.5034  -9.5002  -9.5001  -9.4993  -9.4924  -9.2899  -9.1504
    -9.1281  -9.1196  -9.1159  -9.0356  -9.0345  -9.0316  -9.0300  -9.0294
    -8.9629  -8.9173  -8.8986  -8.8964  -8.8738  -8.8728  -8.7720  -8.7204
    -8.6715  -8.6601  -8.4557  -8.4398  -8.4374  -8.0806  -8.0788  -7.9611
    -7.9579  -7.9504  -7.9490  -7.9360  -7.9196  -7.9174  -7.9145  -7.8647
    -7.8465  -7.7510  -7.7235  -7.7190  -7.7147  -7.7073  -7.7052  -7.6926
    -7.6907  -7.6903  -7.6664  -7.6643  -7.6613  -7.3994  -7.3921  -7.3644
    -7.0690  -7.0641  -7.0559  -7.0318  -7.0285  -6.8326  -6.3825  -6.3778
    -6.3551  -6.3529  -6.3512  -6.2645  -6.1223  -6.1210  -6.0802  -6.0789
    -6.0615  -6.0508  -6.0492  -6.0486  -6.0445  -6.0444  -6.0252  -5.0854
    -4.2649  -4.2502  -4.2475  -4.1609  -4.1149  -3.9472  -2.6954  -2.6918
    -2.6810  -2.6398  -2.6387  -2.6225  -2.6048  -2.5648  -2.5647  -2.5373
    -2.5369  -2.5272  -2.5243  -2.5226  -2.5206  -2.4483  -2.4435  -2.2085
    -2.0722  -2.0649  -2.0092  -1.9798  -1.9781  -1.5439  -1.0021  -0.9963

     the Fermi energy is    -4.2188 ev

!    total energy              =   -1939.04909863 Ry
     estimated scf accuracy    <          3.6E-11 Ry
     smearing contrib. (-TS)   =      -0.01256084 Ry
     internal energy E=F+TS    =   -1939.03653779 Ry

     The total energy is F=E-TS. E is the sum of the following terms:
     one-electron contribution =  -21953.43310291 Ry
     hartree contribution      =   11036.71262068 Ry
     xc contribution           =    -689.95194603 Ry
     ewald contribution        =    9667.63589047 Ry

     convergence has been achieved in  19 iterations

     Forces acting on atoms (cartesian axes, Ry/au):

     atom    1 type  1   force =    -0.00137347   -0.00000005    0.00000004
     atom    2 type  1   force =     0.00090738   -0.00000004   -0.00000002
     atom    3 type  1   force =    -0.00027023   -0.00101042    0.00000001
     atom    4 type  1   force =    -0.00016617    0.00027982    0.00000001
     atom    5 type  1   force =     0.00105939   -0.00026572   -0.00000003
     atom    6 type  1   force =    -0.00046438   -0.00079055   -0.00000001
     atom    7 type  1   force =     0.00071778    0.00121536    0.00000000
     atom    8 type  1   force =    -0.00046583   -0.00015531    0.00000001
     atom    9 type  1   force =    -0.00019941    0.00092525   -0.00000003
     atom   10 type  1   force =     0.00076909   -0.00182056   -0.00000002
     atom   11 type  1   force =     0.00070949    0.00082025   -0.00000002
     atom   12 type  1   force =    -0.00028134   -0.00028516    0.00000000
     atom   13 type  1   force =    -0.00052855    0.00112969    0.00000001
     atom   14 type  1   force =     0.00013407    0.00030144    0.00000001
     atom   15 type  1   force =    -0.00104190   -0.00029216   -0.00000000
     atom   16 type  1   force =     0.00121700   -0.00169752    0.00000000
     atom   17 type  1   force =    -0.00066032    0.00066132    0.00000003
     atom   18 type  1   force =     0.00032641    0.00032852    0.00000000
     atom   19 type  1   force =    -0.00027025    0.00101037    0.00000001
     atom   20 type  1   force =    -0.00016616   -0.00027992   -0.00000002
     atom   21 type  1   force =    -0.00007225   -0.00000000    0.00000001
     atom   22 type  1   force =     0.00048999   -0.00000004    0.00000000
     atom   23 type  1   force =    -0.00085347    0.00073288    0.00000001
     atom   24 type  1   force =     0.00261747   -0.00166536   -0.00000000
     atom   25 type  1   force =     0.00027837    0.00091715   -0.00000004
     atom   26 type  1   force =     0.00107893   -0.00131176   -0.00000002
     atom   27 type  1   force =     0.00039973    0.00270675    0.00000002
     atom   28 type  1   force =     0.00070710   -0.00269360   -0.00000002
     atom   29 type  1   force =    -0.00022228    0.00131427    0.00000001
     atom   30 type  1   force =    -0.00016380    0.00029043   -0.00000006
     atom   31 type  1   force =    -0.00074931    0.00037853   -0.00000004
     atom   32 type  1   force =     0.00173970   -0.00231677    0.00000002
     atom   33 type  1   force =    -0.00244940    0.00097639    0.00000001
     atom   34 type  1   force =     0.00053702   -0.00135490    0.00000002
     atom   35 type  1   force =    -0.00091245    0.00013349   -0.00000000
     atom   36 type  1   force =     0.00013963   -0.00286261   -0.00000001
     atom   37 type  1   force =     0.00105937    0.00026570    0.00000002
     atom   38 type  1   force =    -0.00046448    0.00079058    0.00000002
     atom   39 type  1   force =    -0.00085350   -0.00073284    0.00000001
     atom   40 type  1   force =     0.00261742    0.00166536   -0.00000000
     atom   41 type  1   force =    -0.00506963    0.00000001    0.00000002
     atom   42 type  1   force =     0.00796278   -0.00000004   -0.00000001
     atom   43 type  1   force =    -0.00651708   -0.00025409   -0.00000000
     atom   44 type  1   force =     0.01026375   -0.00854896   -0.00000000
     atom   45 type  1   force =     0.00763797    0.00593550   -0.00000002
     atom   46 type  1   force =     0.01310896   -0.03652480    0.00000002
     atom   47 type  1   force =    -0.00327494    0.00885985   -0.00000002
     atom   48 type  1   force =     0.02335869   -0.03224519    0.00000002
     atom   49 type  1   force =    -0.01067464   -0.00837904    0.00000001
     atom   50 type  1   force =     0.00361577   -0.01187812   -0.00000001
     atom   51 type  1   force =     0.00308888    0.00472275   -0.00000002
     atom   52 type  1   force =    -0.00370396   -0.00640788   -0.00000001
     atom   53 type  1   force =     0.00242379    0.00405108   -0.00000000
     atom   54 type  1   force =    -0.00264688   -0.00133332    0.00000000
     atom   55 type  1   force =     0.00071793   -0.00121541   -0.00000001
     atom   56 type  1   force =    -0.00046596    0.00015514    0.00000002
     atom   57 type  1   force =     0.00027850   -0.00091707   -0.00000000
     atom   58 type  1   force =     0.00107890    0.00131174   -0.00000001
     atom   59 type  1   force =    -0.00651711    0.00025412    0.00000003
     atom   60 type  1   force =     0.01026373    0.00854913   -0.00000000
     atom   61 type  1   force =    -0.04808240   -0.00000013    0.00000001
     atom   62 type  1   force =     0.05312577   -0.00000009    0.00000001
     atom   63 type  1   force =    -0.04210187    0.01791669    0.00000003
     atom   64 type  1   force =     0.00354972   -0.00043183    0.00000004
     atom   65 type  1   force =     0.00157412    0.03932746   -0.00000002
     atom   66 type  1   force =    -0.02112206   -0.04660824   -0.00000001
     atom   67 type  1   force =     0.01720472    0.03308236    0.00000001
     atom   68 type  1   force =    -0.01222738   -0.00465611    0.00000002
     atom   69 type  1   force =     0.00267332    0.00533924   -0.00000001
     atom   70 type  1   force =    -0.00160367   -0.00027874    0.00000001
     atom   71 type  1   force =     0.00062815   -0.00068839    0.00000002
     atom   72 type  1   force =     0.00005309    0.00047194   -0.00000003
     atom   73 type  1   force =    -0.00019949   -0.00092517    0.00000001
     atom   74 type  1   force =     0.00076912    0.00182054   -0.00000000
     atom   75 type  1   force =     0.00039976   -0.00270669    0.00000001
     atom   76 type  1   force =     0.00070717    0.00269376    0.00000002
     atom   77 type  1   force =     0.00763815   -0.00593556   -0.00000001
     atom   78 type  1   force =     0.01310906    0.03652454    0.00000001
     atom   79 type  1   force =    -0.04210250   -0.01791614   -0.00000001
     atom   80 type  1   force =     0.00355019    0.00043170    0.00000002
     atom   81 type  1   force =    -0.00179974   -0.00000019   -0.00000005
     atom   82 type  1   force =     0.03357563    0.02904516    0.00000002
     atom   83 type  1   force =    -0.03345798    0.00389872   -0.00000002
     atom   84 type  1   force =     0.00174548   -0.00832402   -0.00000002
     atom   85 type  1   force =    -0.00220043    0.00041602    0.00000002
     atom   86 type  1   force =     0.00223203   -0.00146453   -0.00000001
     atom   87 type  1   force =    -0.00199277    0.00017239    0.00000001
     atom   88 type  1   force =     0.00095292   -0.00025977    0.00000001
     atom   89 type  1   force =    -0.00050651    0.00081579   -0.00000000
     atom   90 type  1   force =     0.00070939   -0.00082028   -0.00000003
     atom   91 type  1   force =    -0.00028126    0.00028501    0.00000001
     atom   92 type  1   force =    -0.00022216   -0.00131420   -0.00000001
     atom   93 type  1   force =    -0.00016381   -0.00029040   -0.00000001
     atom   94 type  1   force =    -0.00327527   -0.00885963    0.00000001
     atom   95 type  1   force =     0.02335862    0.03224525    0.00000001
     atom   96 type  1   force =     0.00157435   -0.03932754    0.00000000
     atom   97 type  1   force =    -0.02112188    0.04660820    0.00000001
     atom   98 type  1   force =     0.03357583   -0.02904505    0.00000002
     atom   99 type  1   force =    -0.03345793   -0.00389873    0.00000000
     atom  100 type  1   force =     0.01199306    0.00000008    0.00000000
     atom  101 type  1   force =    -0.00062384    0.00000001    0.00000002
     atom  102 type  1   force =     0.00123369   -0.00018476   -0.00000001
     atom  103 type  1   force =    -0.00007693    0.00032976    0.00000002
     atom  104 type  1   force =     0.00036384   -0.00098138   -0.00000000
     atom  105 type  1   force =     0.00013084    0.00041168    0.00000001
     atom  106 type  1   force =     0.00053729   -0.00088553   -0.00000002
     atom  107 type  1   force =    -0.00047763    0.00006972    0.00000001
     atom  108 type  1   force =    -0.00052864   -0.00112957    0.00000001
     atom  109 type  1   force =     0.00013409   -0.00030143   -0.00000001
     atom  110 type  1   force =    -0.00074922   -0.00037856    0.00000003
     atom  111 type  1   force =     0.00173963    0.00231681    0.00000001
     atom  112 type  1   force =    -0.01067468    0.00837898   -0.00000002
     atom  113 type  1   force =     0.00361588    0.01187821    0.00000003
     atom  114 type  1   force =     0.01720475   -0.03308248   -0.00000001
     atom  115 type  1   force =    -0.01222753    0.00465612    0.00000002
     atom  116 type  1   force =     0.00174546    0.00832413   -0.00000000
     atom  117 type  1   force =    -0.00220040   -0.00041597    0.00000001
     atom  118 type  1   force =     0.00123368    0.00018478    0.00000001
     atom  119 type  1   force =    -0.00007697   -0.00032975   -0.00000000
     atom  120 type  1   force =     0.00132655    0.00000009   -0.00000001
     atom  121 type  1   force =    -0.00102509   -0.00000002    0.00000003
     atom  122 type  1   force =     0.00042682    0.00003316   -0.00000002
     atom  123 type  1   force =     0.00002299   -0.00006167    0.00000000
     atom  124 type  1   force =    -0.00022105   -0.00033986   -0.00000000
     atom  125 type  1   force =     0.00047794    0.00089344   -0.00000004
     atom  126 type  1   force =    -0.00104194    0.00029209   -0.00000002
     atom  127 type  1   force =     0.00121703    0.00169753    0.00000002
     atom  128 type  1   force =    -0.00244939   -0.00097642   -0.00000002
     atom  129 type  1   force =     0.00053695    0.00135492   -0.00000002
     atom  130 type  1   force =     0.00308900   -0.00472278    0.00000002
     atom  131 type  1   force =    -0.00370397    0.00640790    0.00000003
     atom  132 type  1   force =     0.00267327   -0.00533926    0.00000000
     atom  133 type  1   force =    -0.00160363    0.00027866   -0.00000002
     atom  134 type  1   force =     0.00223220    0.00146459    0.00000001
     atom  135 type  1   force =    -0.00199277   -0.00017231    0.00000000
     atom  136 type  1   force =     0.00036381    0.00098126    0.00000002
     atom  137 type  1   force =     0.00013082   -0.00041168    0.00000000
     atom  138 type  1   force =     0.00042691   -0.00003313    0.00000001
     atom  139 type  1   force =     0.00002290    0.00006166    0.00000000
     atom  140 type  1   force =     0.00001346   -0.00000000    0.00000000
     atom  141 type  1   force =    -0.00009397   -0.00000001   -0.00000002
     atom  142 type  1   force =    -0.00011158   -0.00037083    0.00000000
     atom  143 type  1   force =     0.00022451   -0.00039276   -0.00000002
     atom  144 type  1   force =    -0.00066032   -0.00066137   -0.00000002
     atom  145 type  1   force =     0.00032637   -0.00032838   -0.00000001
     atom  146 type  1   force =    -0.00091240   -0.00013362   -0.00000001
     atom  147 type  1   force =     0.00013953    0.00286265   -0.00000001
     atom  148 type  1   force =     0.00242378   -0.00405110   -0.00000003
     atom  149 type  1   force =    -0.00264682    0.00133346   -0.00000001
     atom  150 type  1   force =     0.00062811    0.00068829   -0.00000000
     atom  151 type  1   force =     0.00005312   -0.00047204   -0.00000001
     atom  152 type  1   force =     0.00095294    0.00025982    0.00000000
     atom  153 type  1   force =    -0.00050649   -0.00081584    0.00000002
     atom  154 type  1   force =     0.00053741    0.00088548   -0.00000001
     atom  155 type  1   force =    -0.00047775   -0.00006974   -0.00000002
     atom  156 type  1   force =    -0.00022090    0.00033987    0.00000000
     atom  157 type  1   force =     0.00047790   -0.00089351   -0.00000001
     atom  158 type  1   force =    -0.00011157    0.00037085    0.00000001
     atom  159 type  1   force =     0.00022447    0.00039277   -0.00000002
     atom  160 type  1   force =    -0.00102307   -0.00000001    0.00000001
     atom  161 type  1   force =     0.00096424    0.00000001    0.00000001

     Total force =     0.188660     Total SCF correction =     0.000013
     Energy error            =      1.8E-02 Ry
     Gradient error          =      5.3E-02 Ry/Bohr

     number of scf cycles    =   2
     number of bfgs steps    =   1

     energy             old  =   -1939.0308560486 Ry
     energy             new  =   -1939.0490986264 Ry

     CASE: energy            _new < energy            _old

     new trust radius        =       0.0298542398 bohr
     new conv_thr            =            1.0E-10 Ry


ATOMIC_POSITIONS (crystal)
C                0.0370434097        0.0370434098       -0.0000000004
C                0.0740672762        0.0740672777        0.0000000007
C                0.0370200422        0.1481652533       -0.0000000015
C                0.0740481921        0.1851864046       -0.0000000010
C                0.0370048669        0.2592830849        0.0000000002
C                0.0740522259        0.2963167869       -0.0000000001
C                0.0370437264        0.3703509888       -0.0000000004
C                0.0740918096        0.4074181121       -0.0000000012
C                0.0370641795        0.4814893328        0.0000000010
C                0.0740271312        0.5185344019       -0.0000000000
C                0.0370296532        0.5926004995        0.0000000015
C                0.0740451177        0.6296477492       -0.0000000007
C                0.0370644127        0.7036860359       -0.0000000011
C                0.0740608519        0.7407423267       -0.0000000000
C                0.0370442997        0.8148230590        0.0000000004
C                0.0740292389        0.8518574249       -0.0000000018
C                0.0370503310        0.9259149211       -0.0000000007
C                0.0740774573        0.9629401132       -0.0000000001
C                0.1481652528        0.0370200437        0.0000000001
C                0.1851864054        0.0740481927        0.0000000016
C                0.1481468458        0.1481468463       -0.0000000002
C                0.1852001570        0.1852001550        0.0000000007
C                0.1481795535        0.2592700969        0.0000000000
C                0.1851340051        0.2963261666        0.0000000006
C                0.1481300187        0.3703735488       -0.0000000004
C                0.1851785315        0.4074276278       -0.0000000007
C                0.1481959989        0.4814713231       -0.0000000014
C                0.1852065381        0.5185297922        0.0000000010
C                0.1481765228        0.5926450166       -0.0000000002
C                0.1849713083        0.6297225030       -0.0000000004
C                0.1481643391        0.7036426890       -0.0000000007
C                0.1851993647        0.7407031347        0.0000000012
C                0.1481999875        0.8147656117        0.0000000016
C                0.1851967622        0.8518310170       -0.0000000004
C                0.1481444044        0.9259491701       -0.0000000008
C                0.1851363124        0.9629600883        0.0000000001
C                0.2592830863        0.0370048676        0.0000000001
C                0.2963167874        0.0740522271        0.0000000013
C                0.2592700987        0.1481795534       -0.0000000001
C                0.2963261690        0.1851340043       -0.0000000017
C                0.2593164419        0.2593164398        0.0000000000
C                0.2962752023        0.2962752016        0.0000000004
C                0.2592771733        0.3704265800        0.0000000001
C                0.2961608636        0.4074675683       -0.0000000005
C                0.2594138481        0.4814009977        0.0000000021
C                0.2965462743        0.5186960917        0.0000000007
C                0.2593123521        0.5925545729        0.0000000011
C                0.2967394783        0.6289938887        0.0000000015
C                0.2594943116        0.7035742228        0.0000000000
C                0.2961776224        0.7407926232        0.0000000004
C                0.2592607723        0.8147700885       -0.0000000007
C                0.2962600059        0.8518970090       -0.0000000001
C                0.2593129191        0.9258105694        0.0000000003
C                0.2963391125        0.9629756173       -0.0000000003
C                0.3703509899        0.0370437279        0.0000000002
C                0.4074181138        0.0740918095       -0.0000000003
C                0.3703735510        0.1481300181       -0.0000000007
C                0.4074276300        0.1851785299       -0.0000000009
C                0.3704265820        0.2592771717       -0.0000000002
C                0.4074675692        0.2961608623       -0.0000000002
C                0.3703567261        0.3703567234        0.0000000004
C                0.4070740912        0.4070740849        0.0000000000
C                0.3720381769        0.4808642471       -0.0000000001
C                0.4065181223        0.5184522425        0.0000000013
C                0.3724684148        0.5908761056        0.0000000032
C                0.4071846010        0.6300173508        0.0000000011
C                0.3703953815        0.7035850369        0.0000000014
C                0.4074855332        0.7407915841       -0.0000000017
C                0.3704376812        0.8147500286       -0.0000000011
C                0.4074274682        0.8518140701       -0.0000000007
C                0.3703604661        0.9259635328       -0.0000000004
C                0.4074038191        0.9629391413        0.0000000005
C                0.4814893336        0.0370641805       -0.0000000013
C                0.5185344040        0.0740271298       -0.0000000007
C                0.4814713249        0.1481959976       -0.0000000013
C                0.5185297927        0.1852065379       -0.0000000006
C                0.4814009986        0.2594138480        0.0000000008
C                0.5186960967        0.2965462744        0.0000000005
C                0.4808642430        0.3720381795        0.0000000029
C                0.5184522476        0.4065181244        0.0000000009
C                0.5196053646        0.5196053544       -0.0000000003
C                0.4811146135        0.5915541047       -0.0000000005
C                0.5187309322        0.6292395766       -0.0000000015
C                0.4813877363        0.7036882238       -0.0000000002
C                0.5185158902        0.7407186752        0.0000000012
C                0.4814700849        0.8147739795       -0.0000000012
C                0.5185482006        0.8518742177       -0.0000000016
C                0.4815026851        0.9259011312       -0.0000000005
C                0.5185302417        0.9629452627       -0.0000000001
C                0.5926004995        0.0370296535        0.0000000011
C                0.6296477503        0.0740451170        0.0000000002
C                0.5926450174        0.1481765236        0.0000000011
C                0.6297225030        0.1849713105       -0.0000000000
C                0.5925545740        0.2593123544       -0.0000000014
C                0.6289938885        0.2967394809       -0.0000000019
C                0.5908761074        0.3724684179        0.0000000016
C                0.6300173502        0.4071845971        0.0000000010
C                0.5915541050        0.4811146101       -0.0000000011
C                0.6292395787        0.5187309249       -0.0000000008
C                0.5925785520        0.5925785465       -0.0000000008
C                0.6297334425        0.6297334407        0.0000000010
C                0.5926622250        0.7036332725       -0.0000000004
C                0.6296483352        0.7407252040        0.0000000001
C                0.5925872045        0.8148378433        0.0000000005
C                0.6296244213        0.8518345278       -0.0000000005
C                0.5925770833        0.9259304977        0.0000000001
C                0.6296389981        0.9629759476        0.0000000005
C                0.7036860344        0.0370644137       -0.0000000015
C                0.7407423261        0.0740608531        0.0000000006
C                0.7036426899        0.1481643398       -0.0000000014
C                0.7407031341        0.1851993666       -0.0000000005
C                0.7035742230        0.2594943125        0.0000000009
C                0.7407926205        0.2961776231       -0.0000000024
C                0.7035850346        0.3703953814       -0.0000000010
C                0.7407915846        0.4074855327       -0.0000000004
C                0.7036882249        0.4813877348        0.0000000021
C                0.7407186746        0.5185158902        0.0000000016
C                0.7036332728        0.5926622254        0.0000000002
C                0.7407252039        0.6296483355        0.0000000010
C                0.7036875261        0.7036875266        0.0000000003
C                0.7407640385        0.7407640390        0.0000000006
C                0.7037232568        0.8148020715        0.0000000006
C                0.7407340562        0.8518430298       -0.0000000007
C                0.7037082357        0.9259433152        0.0000000000
C                0.7407492048        0.9629221524        0.0000000002
C                0.8148230577        0.0370443014        0.0000000013
C                0.8518574234        0.0740292416       -0.0000000002
C                0.8147656105        0.1481999892        0.0000000003
C                0.8518310154        0.1851967636        0.0000000015
C                0.8147700865        0.2592607717        0.0000000006
C                0.8518970082        0.2962600046       -0.0000000001
C                0.8147500294        0.3704376800       -0.0000000001
C                0.8518140690        0.4074274677       -0.0000000009
C                0.8147739789        0.4814700842        0.0000000004
C                0.8518742160        0.5185482004        0.0000000012
C                0.8148378429        0.5925872035        0.0000000011
C                0.8518345264        0.6296244214        0.0000000009
C                0.8148020713        0.7037232572       -0.0000000001
C                0.8518430282        0.7407340569       -0.0000000012
C                0.8148127234        0.8148127249       -0.0000000012
C                0.8518584217        0.8518584226       -0.0000000013
C                0.8148168789        0.9259290526       -0.0000000008
C                0.8518354297        0.9629608445        0.0000000000
C                0.9259149200        0.0370503331       -0.0000000019
C                0.9629401115        0.0740774593       -0.0000000002
C                0.9259491688        0.1481444054        0.0000000013
C                0.9629600868        0.1851363127       -0.0000000008
C                0.9258105682        0.2593129185       -0.0000000000
C                0.9629756164        0.2963391122       -0.0000000003
C                0.9259635320        0.3703604654       -0.0000000004
C                0.9629391398        0.4074038192        0.0000000011
C                0.9259011297        0.4815026852        0.0000000002
C                0.9629452613        0.5185302410       -0.0000000003
C                0.9259304961        0.5925770831        0.0000000007
C                0.9629759454        0.6296389977        0.0000000007
C                0.9259433136        0.7037082367       -0.0000000003
C                0.9629221517        0.7407492047        0.0000000001
C                0.9259290514        0.8148168798        0.0000000001
C                0.9629608417        0.8518354317        0.0000000001
C                0.9259303051        0.9259303070       -0.0000000011
C                0.9629603274        0.9629603299       -0.0000000004



     Writing config-only to output data dir /home/gregb26/links/scratch/qe_tmp/vacancy_relaxed/nspin1/vac_9x9_relax_nspin1.save/ :
     XML data file
     NEW-OLD atomic charge density approx. for the potential

     negative rho (up, down):  7.641E-06 0.000E+00

     total cpu time spent up to now is      361.8 secs

     per-process dynamical memory:   348.7 Mb

     Self-consistent Calculation

     iteration #  1     ecut=   100.00 Ry     beta= 0.30
     Davidson diagonalization with overlap
     ethr =  1.00E-06,  avg # of iterations =  7.0

     negative rho (up, down):  5.050E-06 0.000E+00

     total cpu time spent up to now is      378.8 secs

     total energy              =   -1939.05790739 Ry
     estimated scf accuracy    <       0.00542282 Ry

     iteration #  2     ecut=   100.00 Ry     beta= 0.30
     Davidson diagonalization with overlap
     ethr =  8.42E-07,  avg # of iterations =  4.0

     negative rho (up, down):  4.893E-06 0.000E+00

     total cpu time spent up to now is      386.5 secs

     total energy              =   -1939.05497476 Ry
     estimated scf accuracy    <       0.11822040 Ry

     iteration #  3     ecut=   100.00 Ry     beta= 0.30
     Davidson diagonalization with overlap
     ethr =  8.42E-07,  avg # of iterations =  2.0

     negative rho (up, down):  3.556E-06 0.000E+00

     total cpu time spent up to now is      393.6 secs

     total energy              =   -1939.05788705 Ry
     estimated scf accuracy    <       0.01769374 Ry

     iteration #  4     ecut=   100.00 Ry     beta= 0.30
     Davidson diagonalization with overlap
     ethr =  8.42E-07,  avg # of iterations =  2.0

     negative rho (up, down):  2.610E-06 0.000E+00

     total cpu time spent up to now is      400.7 secs

     total energy              =   -1939.05788398 Ry
     estimated scf accuracy    <       0.00921665 Ry

     iteration #  5     ecut=   100.00 Ry     beta= 0.30
     Davidson diagonalization with overlap
     ethr =  8.42E-07,  avg # of iterations =  2.0

     negative rho (up, down):  1.296E-06 0.000E+00

     total cpu time spent up to now is      407.8 secs

     total energy              =   -1939.05837949 Ry
     estimated scf accuracy    <       0.00082680 Ry

     iteration #  6     ecut=   100.00 Ry     beta= 0.30
     Davidson diagonalization with overlap
     ethr =  1.28E-07,  avg # of iterations =  2.0

     negative rho (up, down):  4.943E-07 0.000E+00

     total cpu time spent up to now is      414.7 secs

     total energy              =   -1939.05840479 Ry
     estimated scf accuracy    <       0.00004407 Ry

     iteration #  7     ecut=   100.00 Ry     beta= 0.30
     Davidson diagonalization with overlap
     ethr =  6.84E-09,  avg # of iterations =  5.0

     negative rho (up, down):  1.962E-07 0.000E+00

     total cpu time spent up to now is      423.5 secs

     total energy              =   -1939.05841107 Ry
     estimated scf accuracy    <       0.00003070 Ry

     iteration #  8     ecut=   100.00 Ry     beta= 0.30
     Davidson diagonalization with overlap
     ethr =  4.77E-09,  avg # of iterations =  1.0

     negative rho (up, down):  9.349E-08 0.000E+00

     total cpu time spent up to now is      429.9 secs

     total energy              =   -1939.05841206 Ry
     estimated scf accuracy    <       0.00000213 Ry

     iteration #  9     ecut=   100.00 Ry     beta= 0.30
     Davidson diagonalization with overlap
     ethr =  3.31E-10,  avg # of iterations =  5.0

     negative rho (up, down):  5.825E-08 0.000E+00

     total cpu time spent up to now is      439.1 secs

     total energy              =   -1939.05841234 Ry
     estimated scf accuracy    <       0.00000331 Ry

     iteration # 10     ecut=   100.00 Ry     beta= 0.30
     Davidson diagonalization with overlap
     ethr =  3.31E-10,  avg # of iterations =  2.0

     negative rho (up, down):  3.223E-08 0.000E+00

     total cpu time spent up to now is      446.1 secs

     total energy              =   -1939.05841256 Ry
     estimated scf accuracy    <       0.00000072 Ry

     iteration # 11     ecut=   100.00 Ry     beta= 0.30
     Davidson diagonalization with overlap
     ethr =  1.12E-10,  avg # of iterations =  2.0

     total cpu time spent up to now is      453.0 secs

     total energy              =   -1939.05841260 Ry
     estimated scf accuracy    <       0.00000011 Ry

     iteration # 12     ecut=   100.00 Ry     beta= 0.30
     Davidson diagonalization with overlap
     ethr =  1.63E-11,  avg # of iterations =  5.0

     total cpu time spent up to now is      461.7 secs

     total energy              =   -1939.05841261 Ry
     estimated scf accuracy    <       0.00000004 Ry

     iteration # 13     ecut=   100.00 Ry     beta= 0.30
     Davidson diagonalization with overlap
     ethr =  5.60E-12,  avg # of iterations =  2.0

     total cpu time spent up to now is      468.9 secs

     total energy              =   -1939.05841261 Ry
     estimated scf accuracy    <       0.00000003 Ry

     iteration # 14     ecut=   100.00 Ry     beta= 0.30
     Davidson diagonalization with overlap
     ethr =  5.27E-12,  avg # of iterations =  2.0

     total cpu time spent up to now is      476.0 secs

     total energy              =   -1939.05841262 Ry
     estimated scf accuracy    <          3.8E-09 Ry

     iteration # 15     ecut=   100.00 Ry     beta= 0.30
     Davidson diagonalization with overlap
     ethr =  5.95E-13,  avg # of iterations =  4.0

     total cpu time spent up to now is      483.7 secs

     total energy              =   -1939.05841262 Ry
     estimated scf accuracy    <          7.0E-10 Ry

     iteration # 16     ecut=   100.00 Ry     beta= 0.30
     Davidson diagonalization with overlap
     ethr =  1.09E-13,  avg # of iterations =  4.0

     total cpu time spent up to now is      491.3 secs

     total energy              =   -1939.05841262 Ry
     estimated scf accuracy    <          4.0E-10 Ry

     iteration # 17     ecut=   100.00 Ry     beta= 0.30
     Davidson diagonalization with overlap
     ethr =  1.00E-13,  avg # of iterations =  2.0

     total cpu time spent up to now is      498.6 secs

     End of self-consistent calculation

          k = 0.0000 0.0000 0.0000 (385710 PWs)   bands (ev):

   -23.7898 -23.5259 -23.5224 -23.5058 -23.5057 -23.5004 -23.4358 -22.9452
   -22.9407 -22.9357 -22.9351 -22.9317 -22.8451 -22.6553 -22.6522 -22.6487
   -22.6449 -22.6446 -22.4997 -21.8214 -21.8185 -21.7981 -21.7922 -21.7918
   -21.7860 -21.7857 -21.7845 -21.7775 -21.7766 -21.7754 -21.5507 -21.2413
   -21.2254 -21.2240 -21.2183 -21.2136 -21.0337 -20.4118 -20.4110 -20.3850
   -20.3811 -20.3796 -20.3070 -20.1387 -20.1381 -20.1354 -20.1197 -20.1183
   -20.1158 -20.1137 -20.1119 -20.1050 -20.0890 -20.0856 -19.7143 -19.3393
   -19.3364 -19.3340 -19.3003 -19.3003 -19.1150 -18.5812 -18.5809 -18.5617
   -18.5429 -18.5411 -18.5406 -18.5379 -18.5367 -18.5316 -18.5072 -18.5054
   -18.4330 -18.3818 -18.3805 -18.3762 -18.3745 -18.3738 -17.7819 -17.3548
   -17.3527 -17.3503 -17.2919 -17.2862 -17.1766 -16.9045 -16.8734 -16.8709
   -16.7883 -16.6834 -16.6829 -16.6822 -16.6012 -16.5999 -16.4274 -16.1245
   -16.1033 -16.1017 -16.0881 -16.0859 -16.0813 -16.0753 -16.0728 -16.0717
   -15.9614 -15.9587 -15.5445 -15.2548 -15.2418 -15.2405 -15.2227 -15.2170
   -15.2148 -15.2090 -15.2060 -15.2050 -15.0866 -15.0824 -14.7977 -14.7930
   -14.4455 -13.9874 -13.9840 -13.9836 -13.9586 -13.9560 -13.9557 -13.9427
   -13.9392 -13.9354 -13.8546 -13.8473 -13.5643 -13.4912 -13.4476 -13.4469
   -13.4376 -13.4375 -13.4370 -13.4296 -13.4289 -13.4282 -13.2300 -13.2273
   -12.8989 -12.5250 -12.5079 -12.5057 -12.4915 -12.4705 -12.4674 -12.4502
   -12.4481 -12.4465 -12.4443 -12.4440 -12.4412 -12.4368 -12.4351 -12.4329
   -12.1676 -12.1639 -11.8737 -11.6997 -11.6640 -11.6189 -11.6184 -11.5498
   -11.5476 -11.5437 -11.5429 -11.5355 -11.5354 -11.5311 -11.4510 -11.4404
   -11.3893 -11.3329 -11.3297 -11.3244 -11.3153 -11.3141 -11.3129 -11.3122
   -11.2878 -11.1721 -11.1698 -11.1674 -11.0222 -11.0092 -11.0086 -10.8803
   -10.8777 -10.8597 -10.8562 -10.8540 -10.8535 -10.8513 -10.7591 -10.7118
   -10.6452 -10.6448 -10.6352 -10.6004 -10.5999 -10.5501 -10.5222 -10.5192
   -10.5169 -10.5132 -10.5119 -10.4924 -10.4618 -10.4581 -10.4424 -10.4301
   -10.4283 -10.4248 -10.4239 -10.3933 -10.3676 -10.2211 -10.2197 -10.1937
   -10.1112 -10.1094 -10.1074 -10.0568 -10.0566 -10.0545 -10.0163 -10.0127
    -9.9876  -9.5386  -9.5356  -9.5347  -9.5321  -9.5212  -9.5167  -9.5159
    -9.5117  -9.5065  -9.5050  -9.5048  -9.4896  -9.4891  -9.2839  -9.1286
    -9.1067  -9.1046  -9.1022  -9.0410  -9.0406  -9.0394  -9.0390  -9.0381
    -9.0266  -8.9063  -8.8953  -8.8931  -8.8836  -8.8820  -8.7441  -8.7169
    -8.6565  -8.6533  -8.4517  -8.4488  -8.4430  -8.0789  -8.0784  -7.9477
    -7.9471  -7.9452  -7.9445  -7.9278  -7.9276  -7.9117  -7.9093  -7.8800
    -7.8672  -7.7754  -7.7092  -7.7089  -7.7045  -7.6992  -7.6977  -7.6923
    -7.6918  -7.6877  -7.6866  -7.6863  -7.6765  -7.3997  -7.3934  -7.3594
    -7.0621  -7.0574  -7.0507  -7.0465  -7.0447  -6.8140  -6.3731  -6.3677
    -6.3579  -6.3572  -6.3547  -6.2582  -6.0873  -6.0848  -6.0758  -6.0751
    -6.0618  -6.0592  -6.0583  -6.0572  -6.0511  -6.0510  -6.0504  -5.0508
    -4.2651  -4.2503  -4.2493  -4.1633  -4.1222  -3.9783  -2.6738  -2.6692
    -2.6653  -2.6380  -2.6370  -2.6268  -2.5940  -2.5595  -2.5592  -2.5408
    -2.5401  -2.5389  -2.5381  -2.5365  -2.5312  -2.4761  -2.4714  -2.2120
    -2.0488  -2.0443  -2.0249  -1.9920  -1.9909  -1.5500  -0.9686  -0.9641

     the Fermi energy is    -4.2203 ev

!    total energy              =   -1939.05841262 Ry
     estimated scf accuracy    <          7.2E-11 Ry
     smearing contrib. (-TS)   =      -0.01281831 Ry
     internal energy E=F+TS    =   -1939.04559430 Ry

     The total energy is F=E-TS. E is the sum of the following terms:
     one-electron contribution =  -21953.47559620 Ry
     hartree contribution      =   11036.73393055 Ry
     xc contribution           =    -689.94704454 Ry
     ewald contribution        =    9667.64311590 Ry

     convergence has been achieved in  17 iterations

     Forces acting on atoms (cartesian axes, Ry/au):

     atom    1 type  1   force =    -0.00016844    0.00000003    0.00000001
     atom    2 type  1   force =    -0.00007547   -0.00000002   -0.00000002
     atom    3 type  1   force =    -0.00046527    0.00037063    0.00000001
     atom    4 type  1   force =     0.00025126    0.00013982    0.00000000
     atom    5 type  1   force =    -0.00031855    0.00015120   -0.00000001
     atom    6 type  1   force =     0.00026990   -0.00005479   -0.00000001
     atom    7 type  1   force =     0.00005073    0.00016428    0.00000001
     atom    8 type  1   force =    -0.00006248    0.00042041    0.00000001
     atom    9 type  1   force =    -0.00034300   -0.00004996   -0.00000001
     atom   10 type  1   force =     0.00088271    0.00016990    0.00000001
     atom   11 type  1   force =    -0.00021037   -0.00012305   -0.00000001
     atom   12 type  1   force =     0.00031211   -0.00004822    0.00000001
     atom   13 type  1   force =    -0.00026243    0.00047722    0.00000001
     atom   14 type  1   force =    -0.00010374   -0.00003541    0.00000000
     atom   15 type  1   force =    -0.00026472    0.00007596   -0.00000002
     atom   16 type  1   force =    -0.00015295   -0.00049083    0.00000002
     atom   17 type  1   force =    -0.00002527   -0.00016236   -0.00000000
     atom   18 type  1   force =    -0.00009501    0.00015213   -0.00000001
     atom   19 type  1   force =    -0.00046525   -0.00037061    0.00000001
     atom   20 type  1   force =     0.00025126   -0.00013982   -0.00000002
     atom   21 type  1   force =    -0.00007208   -0.00000002    0.00000001
     atom   22 type  1   force =     0.00011036    0.00000002   -0.00000000
     atom   23 type  1   force =     0.00004911    0.00017049    0.00000001
     atom   24 type  1   force =     0.00040793   -0.00021288   -0.00000001
     atom   25 type  1   force =     0.00070940    0.00005772    0.00000000
     atom   26 type  1   force =    -0.00036878    0.00030225   -0.00000000
     atom   27 type  1   force =     0.00049041   -0.00044469    0.00000001
     atom   28 type  1   force =     0.00315586   -0.00035633    0.00000000
     atom   29 type  1   force =    -0.00203342    0.00004194   -0.00000000
     atom   30 type  1   force =     0.00136067   -0.00138747    0.00000001
     atom   31 type  1   force =     0.00068422    0.00144026    0.00000002
     atom   32 type  1   force =    -0.00100384   -0.00472479    0.00000000
     atom   33 type  1   force =     0.00029573   -0.00096370   -0.00000001
     atom   34 type  1   force =    -0.00029115    0.00067319   -0.00000000
     atom   35 type  1   force =    -0.00078622   -0.00058936    0.00000001
     atom   36 type  1   force =     0.00039954   -0.00009218   -0.00000002
     atom   37 type  1   force =    -0.00031857   -0.00015116    0.00000002
     atom   38 type  1   force =     0.00026990    0.00005475   -0.00000001
     atom   39 type  1   force =     0.00004908   -0.00017046    0.00000001
     atom   40 type  1   force =     0.00040791    0.00021286    0.00000001
     atom   41 type  1   force =     0.00048979    0.00000002    0.00000000
     atom   42 type  1   force =    -0.00023586   -0.00000001   -0.00000001
     atom   43 type  1   force =     0.00102282    0.00071316   -0.00000000
     atom   44 type  1   force =    -0.00431946    0.00238860    0.00000003
     atom   45 type  1   force =     0.00759955   -0.00330066   -0.00000002
     atom   46 type  1   force =    -0.00167413   -0.00228034    0.00000002
     atom   47 type  1   force =     0.00566519   -0.01027613    0.00000000
     atom   48 type  1   force =     0.00253163   -0.00227844   -0.00000001
     atom   49 type  1   force =    -0.00154878   -0.01033199    0.00000002
     atom   50 type  1   force =    -0.00085505    0.00315511    0.00000002
     atom   51 type  1   force =    -0.00120126   -0.00128143   -0.00000000
     atom   52 type  1   force =     0.00050191    0.00021430   -0.00000000
     atom   53 type  1   force =    -0.00034160   -0.00057696   -0.00000001
     atom   54 type  1   force =    -0.00027797   -0.00002294   -0.00000000
     atom   55 type  1   force =     0.00005070   -0.00016430   -0.00000001
     atom   56 type  1   force =    -0.00006246   -0.00042038   -0.00000000
     atom   57 type  1   force =     0.00070936   -0.00005772   -0.00000000
     atom   58 type  1   force =    -0.00036874   -0.00030224   -0.00000002
     atom   59 type  1   force =     0.00102283   -0.00071317   -0.00000001
     atom   60 type  1   force =    -0.00431942   -0.00238862    0.00000002
     atom   61 type  1   force =     0.01284842   -0.00000004   -0.00000002
     atom   62 type  1   force =    -0.01483418    0.00000026   -0.00000001
     atom   63 type  1   force =    -0.00427093    0.00698994    0.00000001
     atom   64 type  1   force =    -0.00377644    0.00134015    0.00000000
     atom   65 type  1   force =    -0.00229646    0.00806780   -0.00000001
     atom   66 type  1   force =     0.00609753    0.00876655    0.00000000
     atom   67 type  1   force =    -0.00651169   -0.01182098   -0.00000001
     atom   68 type  1   force =     0.00223499    0.00180561    0.00000004
     atom   69 type  1   force =    -0.00096469   -0.00151146    0.00000000
     atom   70 type  1   force =     0.00084476    0.00031246   -0.00000002
     atom   71 type  1   force =    -0.00061071   -0.00096273    0.00000000
     atom   72 type  1   force =     0.00065595   -0.00024908    0.00000000
     atom   73 type  1   force =    -0.00034302    0.00004992    0.00000002
     atom   74 type  1   force =     0.00088271   -0.00016985   -0.00000001
     atom   75 type  1   force =     0.00049037    0.00044470   -0.00000002
     atom   76 type  1   force =     0.00315590    0.00035633    0.00000001
     atom   77 type  1   force =     0.00759967    0.00330057   -0.00000002
     atom   78 type  1   force =    -0.00167421    0.00228050    0.00000003
     atom   79 type  1   force =    -0.00427063   -0.00699018   -0.00000005
     atom   80 type  1   force =    -0.00377659   -0.00134002    0.00000001
     atom   81 type  1   force =     0.00468135    0.00000017   -0.00000001
     atom   82 type  1   force =     0.00788674   -0.00013440    0.00000000
     atom   83 type  1   force =     0.00155970    0.00278499    0.00000001
     atom   84 type  1   force =    -0.00632034   -0.00533374   -0.00000001
     atom   85 type  1   force =    -0.00097402   -0.00232618   -0.00000003
     atom   86 type  1   force =    -0.00052923   -0.00020210   -0.00000000
     atom   87 type  1   force =    -0.00017747   -0.00053369    0.00000002
     atom   88 type  1   force =    -0.00032658    0.00027903    0.00000001
     atom   89 type  1   force =     0.00036712   -0.00008668    0.00000001
     atom   90 type  1   force =    -0.00021030    0.00012304   -0.00000001
     atom   91 type  1   force =     0.00031211    0.00004827   -0.00000000
     atom   92 type  1   force =    -0.00203339   -0.00004191   -0.00000001
     atom   93 type  1   force =     0.00136069    0.00138748   -0.00000001
     atom   94 type  1   force =     0.00566516    0.01027608    0.00000000
     atom   95 type  1   force =     0.00253166    0.00227831    0.00000001
     atom   96 type  1   force =    -0.00229676   -0.00806785   -0.00000001
     atom   97 type  1   force =     0.00609775   -0.00876659   -0.00000003
     atom   98 type  1   force =     0.00788681    0.00013418   -0.00000000
     atom   99 type  1   force =     0.00155988   -0.00278493    0.00000000
     atom  100 type  1   force =    -0.00938832    0.00000005   -0.00000001
     atom  101 type  1   force =    -0.00041737    0.00000001   -0.00000002
     atom  102 type  1   force =     0.00055065    0.00155862    0.00000001
     atom  103 type  1   force =     0.00036834    0.00002569    0.00000000
     atom  104 type  1   force =    -0.00030511   -0.00015779   -0.00000001
     atom  105 type  1   force =     0.00045888   -0.00022785    0.00000002
     atom  106 type  1   force =    -0.00004350   -0.00000086   -0.00000001
     atom  107 type  1   force =     0.00002319   -0.00021794   -0.00000000
     atom  108 type  1   force =    -0.00026239   -0.00047730    0.00000001
     atom  109 type  1   force =    -0.00010376    0.00003540   -0.00000002
     atom  110 type  1   force =     0.00068417   -0.00144023    0.00000003
     atom  111 type  1   force =    -0.00100383    0.00472474    0.00000000
     atom  112 type  1   force =    -0.00154887    0.01033210   -0.00000003
     atom  113 type  1   force =    -0.00085495   -0.00315523    0.00000003
     atom  114 type  1   force =    -0.00651161    0.01182098   -0.00000002
     atom  115 type  1   force =     0.00223494   -0.00180571    0.00000004
     atom  116 type  1   force =    -0.00632032    0.00533377   -0.00000001
     atom  117 type  1   force =    -0.00097402    0.00232617   -0.00000001
     atom  118 type  1   force =     0.00055066   -0.00155864    0.00000002
     atom  119 type  1   force =     0.00036834   -0.00002570    0.00000000
     atom  120 type  1   force =     0.00048300    0.00000001   -0.00000001
     atom  121 type  1   force =    -0.00007144   -0.00000002    0.00000000
     atom  122 type  1   force =    -0.00018496    0.00020279   -0.00000000
     atom  123 type  1   force =     0.00030712    0.00002810    0.00000000
     atom  124 type  1   force =    -0.00034004   -0.00015249    0.00000000
     atom  125 type  1   force =     0.00029737   -0.00003547   -0.00000002
     atom  126 type  1   force =    -0.00026472   -0.00007594   -0.00000000
     atom  127 type  1   force =    -0.00015294    0.00049084   -0.00000000
     atom  128 type  1   force =     0.00029573    0.00096367   -0.00000001
     atom  129 type  1   force =    -0.00029116   -0.00067325   -0.00000000
     atom  130 type  1   force =    -0.00120120    0.00128152   -0.00000000
     atom  131 type  1   force =     0.00050191   -0.00021430    0.00000000
     atom  132 type  1   force =    -0.00096479    0.00151156    0.00000000
     atom  133 type  1   force =     0.00084485   -0.00031248   -0.00000000
     atom  134 type  1   force =    -0.00052924    0.00020209    0.00000001
     atom  135 type  1   force =    -0.00017745    0.00053364   -0.00000001
     atom  136 type  1   force =    -0.00030509    0.00015784    0.00000001
     atom  137 type  1   force =     0.00045889    0.00022783   -0.00000000
     atom  138 type  1   force =    -0.00018499   -0.00020277   -0.00000000
     atom  139 type  1   force =     0.00030716   -0.00002811    0.00000001
     atom  140 type  1   force =    -0.00001181   -0.00000002   -0.00000001
     atom  141 type  1   force =    -0.00010061    0.00000001   -0.00000000
     atom  142 type  1   force =    -0.00021648    0.00004156    0.00000001
     atom  143 type  1   force =     0.00006711    0.00001903    0.00000001
     atom  144 type  1   force =    -0.00002528    0.00016239    0.00000001
     atom  145 type  1   force =    -0.00009505   -0.00015217   -0.00000001
     atom  146 type  1   force =    -0.00078620    0.00058939    0.00000000
     atom  147 type  1   force =     0.00039953    0.00009218    0.00000001
     atom  148 type  1   force =    -0.00034159    0.00057698   -0.00000000
     atom  149 type  1   force =    -0.00027796    0.00002293    0.00000000
     atom  150 type  1   force =    -0.00061068    0.00096275   -0.00000001
     atom  151 type  1   force =     0.00065590    0.00024906    0.00000000
     atom  152 type  1   force =    -0.00032660   -0.00027902    0.00000001
     atom  153 type  1   force =     0.00036715    0.00008668    0.00000001
     atom  154 type  1   force =    -0.00004350    0.00000083   -0.00000000
     atom  155 type  1   force =     0.00002321    0.00021794    0.00000001
     atom  156 type  1   force =    -0.00034006    0.00015249    0.00000000
     atom  157 type  1   force =     0.00029736    0.00003551   -0.00000002
     atom  158 type  1   force =    -0.00021652   -0.00004154    0.00000000
     atom  159 type  1   force =     0.00006713   -0.00001903   -0.00000001
     atom  160 type  1   force =    -0.00000143    0.00000001    0.00000002
     atom  161 type  1   force =    -0.00024850    0.00000000   -0.00000002

     Total force =     0.050791     Total SCF correction =     0.000011
     Energy error            =      9.3E-03 Ry
     Gradient error          =      1.5E-02 Ry/Bohr

     number of scf cycles    =   3
     number of bfgs steps    =   2

     energy             old  =   -1939.0490986264 Ry
     energy             new  =   -1939.0584126175 Ry

     CASE: energy            _new < energy            _old

     new trust radius        =       0.0111475591 bohr
     new conv_thr            =            1.0E-10 Ry


ATOMIC_POSITIONS (crystal)
C                0.0370397467        0.0370397479       -0.0000000001
C                0.0740672798        0.0740672802        0.0000000001
C                0.0370072816        0.1481653508       -0.0000000010
C                0.0740477275        0.1851931480       -0.0000000009
C                0.0369990547        0.2592828848       -0.0000000002
C                0.0740580079        0.2963170460       -0.0000000004
C                0.0370391985        0.3703583995       -0.0000000002
C                0.0740812563        0.4074259456       -0.0000000010
C                0.0370588381        0.4814851988        0.0000000006
C                0.0740391010        0.5185471201        0.0000000001
C                0.0370289687        0.5925972102        0.0000000010
C                0.0740505989        0.6296498302       -0.0000000005
C                0.0370475312        0.7036949434       -0.0000000008
C                0.0740599447        0.7407408670        0.0000000001
C                0.0370385559        0.8148196636       -0.0000000002
C                0.0740428613        0.8518425504       -0.0000000011
C                0.0370517003        0.9259114935       -0.0000000008
C                0.0740725291        0.9629433381       -0.0000000003
C                0.1481653504        0.0370072836        0.0000000005
C                0.1851931488        0.0740477280        0.0000000009
C                0.1481458387        0.1481458381        0.0000000001
C                0.1852020476        0.1852020463        0.0000000007
C                0.1481739906        0.2592749678        0.0000000004
C                0.1851501030        0.2963262753        0.0000000004
C                0.1481366296        0.3703860225       -0.0000000005
C                0.1851704952        0.4074282998       -0.0000000008
C                0.1482076688        0.4814730914       -0.0000000010
C                0.1852611488        0.5185585652        0.0000000010
C                0.1481464059        0.5926214916       -0.0000000002
C                0.1850203730        0.6297089416       -0.0000000002
C                0.1481392664        0.7036841444       -0.0000000002
C                0.1852986760        0.7405814948        0.0000000013
C                0.1482209496        0.8147471606        0.0000000012
C                0.1851808199        0.8518405614       -0.0000000004
C                0.1481462621        0.9259248761       -0.0000000004
C                0.1851491494        0.9629581369       -0.0000000006
C                0.2592828852        0.0369990560        0.0000000006
C                0.2963170473        0.0740580081        0.0000000010
C                0.2592749682        0.1481739908        0.0000000004
C                0.2963262778        0.1851501016       -0.0000000012
C                0.2593172328        0.2593172319        0.0000000001
C                0.2962806168        0.2962806155        0.0000000001
C                0.2592679346        0.3704483648        0.0000000000
C                0.2960779394        0.4074601689        0.0000000003
C                0.2595834965        0.4814446761        0.0000000014
C                0.2966553625        0.5185694228        0.0000000012
C                0.2595974320        0.5924097700        0.0000000011
C                0.2969053979        0.6289437909        0.0000000013
C                0.2597098505        0.7032954997        0.0000000006
C                0.2961214700        0.7408344433        0.0000000009
C                0.2592686312        0.8147376938       -0.0000000008
C                0.2962696459        0.8518925686       -0.0000000002
C                0.2593164099        0.9258035576       -0.0000000001
C                0.2963354894        0.9629662130       -0.0000000003
C                0.3703584007        0.0370391993       -0.0000000001
C                0.4074259469        0.0740812568       -0.0000000002
C                0.3703860242        0.1481366287       -0.0000000008
C                0.4074283024        0.1851704945       -0.0000000015
C                0.3704483671        0.2592679328       -0.0000000005
C                0.4074601702        0.2960779386        0.0000000005
C                0.3704730600        0.3704730551       -0.0000000002
C                0.4069386514        0.4069386565       -0.0000000004
C                0.3717415676        0.4809568772        0.0000000004
C                0.4064523738        0.5184311443        0.0000000015
C                0.3721784318        0.5911081952        0.0000000029
C                0.4071302489        0.6301849861        0.0000000012
C                0.3705344624        0.7033133636        0.0000000011
C                0.4074692349        0.7408396739       -0.0000000004
C                0.3704519652        0.8147162983       -0.0000000011
C                0.4074301513        0.8518300324       -0.0000000013
C                0.3703761585        0.9259331815       -0.0000000003
C                0.4074171585        0.9629430721        0.0000000005
C                0.4814852000        0.0370588382       -0.0000000008
C                0.5185471213        0.0740391008       -0.0000000009
C                0.4814730925        0.1482076673       -0.0000000018
C                0.5185585658        0.1852611496       -0.0000000001
C                0.4814446811        0.2595834958        0.0000000001
C                0.5185694236        0.2966553648        0.0000000014
C                0.4809568807        0.3717415690        0.0000000014
C                0.5184311453        0.4064523770        0.0000000013
C                0.5196599533        0.5196599503       -0.0000000008
C                0.4812039568        0.5917461591       -0.0000000003
C                0.5186452723        0.6292959373       -0.0000000014
C                0.4814430717        0.7034727352       -0.0000000006
C                0.5185525227        0.7406521862        0.0000000003
C                0.4814728294        0.8147623951       -0.0000000014
C                0.5185553726        0.8518580232       -0.0000000011
C                0.4814935548        0.9259037971       -0.0000000003
C                0.5185348931        0.9629491089        0.0000000001
C                0.5925972113        0.0370289694        0.0000000005
C                0.6296498305        0.0740505992        0.0000000002
C                0.5926214922        0.1481464080        0.0000000007
C                0.6297089414        0.1850203758       -0.0000000004
C                0.5924097712        0.2595974329       -0.0000000012
C                0.6289437939        0.2969053978       -0.0000000016
C                0.5911081945        0.3721784299        0.0000000014
C                0.6301849897        0.4071302471        0.0000000002
C                0.5917461653        0.4812039497       -0.0000000012
C                0.6292959405        0.5186452687       -0.0000000008
C                0.5924692460        0.5924692431       -0.0000000009
C                0.6297269455        0.6297269444        0.0000000004
C                0.5926356579        0.7036767559       -0.0000000002
C                0.6296517856        0.7407311520        0.0000000003
C                0.5925889884        0.8148288260        0.0000000003
C                0.6296349202        0.8518363216        0.0000000002
C                0.5925787828        0.9259288442       -0.0000000001
C                0.6296435367        0.9629709151        0.0000000005
C                0.7036949438        0.0370475310       -0.0000000010
C                0.7407408664        0.0740599452       -0.0000000001
C                0.7036841440        0.1481392672       -0.0000000003
C                0.7405814950        0.1852986770       -0.0000000004
C                0.7032954965        0.2597098525       -0.0000000001
C                0.7408344447        0.2961214695       -0.0000000014
C                0.7033133625        0.3705344632       -0.0000000015
C                0.7408396760        0.4074692314        0.0000000008
C                0.7034727358        0.4814430711        0.0000000016
C                0.7406521858        0.5185525225        0.0000000011
C                0.7036767567        0.5926356581        0.0000000010
C                0.7407311522        0.6296517856        0.0000000011
C                0.7036952658        0.7036952669       -0.0000000000
C                0.7407619366        0.7407619363        0.0000000007
C                0.7037166000        0.8148047938        0.0000000006
C                0.7407375784        0.8518476004       -0.0000000006
C                0.7037076186        0.9259345407        0.0000000002
C                0.7407527063        0.9629275170       -0.0000000004
C                0.8148196621        0.0370385578        0.0000000012
C                0.8518425488        0.0740428643       -0.0000000003
C                0.8147471603        0.1482209506        0.0000000001
C                0.8518405608        0.1851808199        0.0000000014
C                0.8147376906        0.2592686336        0.0000000006
C                0.8518925676        0.2962696448        0.0000000000
C                0.8147162956        0.3704519649       -0.0000000000
C                0.8518300333        0.4074301513       -0.0000000010
C                0.8147623947        0.4814728287        0.0000000006
C                0.8518580227        0.5185553716        0.0000000008
C                0.8148288249        0.5925889884        0.0000000014
C                0.8518363205        0.6296349201        0.0000000008
C                0.8148047929        0.7037166004       -0.0000000001
C                0.8518475994        0.7407375792       -0.0000000009
C                0.8148125928        0.8148125936       -0.0000000015
C                0.8518569886        0.8518569901       -0.0000000013
C                0.8148136813        0.9259263675       -0.0000000006
C                0.8518368932        0.9629616729        0.0000000003
C                0.9259114920        0.0370517028       -0.0000000015
C                0.9629433365        0.0740725300       -0.0000000005
C                0.9259248746        0.1481462639        0.0000000013
C                0.9629581352        0.1851491495       -0.0000000004
C                0.9258035562        0.2593164097       -0.0000000002
C                0.9629662121        0.2963354893       -0.0000000003
C                0.9259331808        0.3703761581       -0.0000000005
C                0.9629430707        0.4074171572        0.0000000012
C                0.9259037952        0.4814935547        0.0000000007
C                0.9629491079        0.5185348927        0.0000000002
C                0.9259288436        0.5925787819        0.0000000006
C                0.9629709133        0.6296435364        0.0000000009
C                0.9259345390        0.7037076193       -0.0000000002
C                0.9629275153        0.7407527067       -0.0000000004
C                0.9259263655        0.8148136823        0.0000000002
C                0.9629616704        0.8518368952       -0.0000000001
C                0.9259291902        0.9259291924       -0.0000000005
C                0.9629581251        0.9629581276       -0.0000000010



     Writing config-only to output data dir /home/gregb26/links/scratch/qe_tmp/vacancy_relaxed/nspin1/vac_9x9_relax_nspin1.save/ :
     XML data file
     NEW-OLD atomic charge density approx. for the potential

     negative rho (up, down):  3.031E-06 0.000E+00

     total cpu time spent up to now is      501.9 secs

     per-process dynamical memory:   350.4 Mb

     Self-consistent Calculation

     iteration #  1     ecut=   100.00 Ry     beta= 0.30
     Davidson diagonalization with overlap
     ethr =  1.00E-06,  avg # of iterations =  5.0

     negative rho (up, down):  1.986E-06 0.000E+00

     total cpu time spent up to now is      514.8 secs

     total energy              =   -1939.05898731 Ry
     estimated scf accuracy    <       0.00123896 Ry

     iteration #  2     ecut=   100.00 Ry     beta= 0.30
     Davidson diagonalization with overlap
     ethr =  1.92E-07,  avg # of iterations =  4.0

     negative rho (up, down):  1.912E-06 0.000E+00

     total cpu time spent up to now is      522.3 secs

     total energy              =   -1939.05822205 Ry
     estimated scf accuracy    <       0.03538573 Ry

     iteration #  3     ecut=   100.00 Ry     beta= 0.30
     Davidson diagonalization with overlap
     ethr =  1.92E-07,  avg # of iterations =  4.0

     negative rho (up, down):  1.613E-06 0.000E+00

     total cpu time spent up to now is      529.6 secs

     total energy              =   -1939.05904954 Ry
     estimated scf accuracy    <       0.00370418 Ry

     iteration #  4     ecut=   100.00 Ry     beta= 0.30
     Davidson diagonalization with overlap
     ethr =  1.92E-07,  avg # of iterations =  2.0

     negative rho (up, down):  8.871E-07 0.000E+00

     total cpu time spent up to now is      536.7 secs

     total energy              =   -1939.05916810 Ry
     estimated scf accuracy    <       0.00081907 Ry

     iteration #  5     ecut=   100.00 Ry     beta= 0.30
     Davidson diagonalization with overlap
     ethr =  1.27E-07,  avg # of iterations =  2.0

     negative rho (up, down):  4.528E-07 0.000E+00

     total cpu time spent up to now is      543.4 secs

     total energy              =   -1939.05920810 Ry
     estimated scf accuracy    <       0.00003215 Ry

     iteration #  6     ecut=   100.00 Ry     beta= 0.30
     Davidson diagonalization with overlap
     ethr =  4.99E-09,  avg # of iterations =  5.0

     negative rho (up, down):  1.803E-07 0.000E+00

     total cpu time spent up to now is      551.5 secs

     total energy              =   -1939.05921122 Ry
     estimated scf accuracy    <       0.00001049 Ry

     iteration #  7     ecut=   100.00 Ry     beta= 0.30
     Davidson diagonalization with overlap
     ethr =  1.63E-09,  avg # of iterations =  2.0

     negative rho (up, down):  5.940E-08 0.000E+00

     total cpu time spent up to now is      558.8 secs

     total energy              =   -1939.05921202 Ry
     estimated scf accuracy    <       0.00000221 Ry

     iteration #  8     ecut=   100.00 Ry     beta= 0.30
     Davidson diagonalization with overlap
     ethr =  3.43E-10,  avg # of iterations =  4.0

     negative rho (up, down):  3.634E-08 0.000E+00

     total cpu time spent up to now is      566.4 secs

     total energy              =   -1939.05921227 Ry
     estimated scf accuracy    <       0.00000041 Ry

     iteration #  9     ecut=   100.00 Ry     beta= 0.30
     Davidson diagonalization with overlap
     ethr =  6.31E-11,  avg # of iterations =  5.0

     negative rho (up, down):  2.118E-08 0.000E+00

     total cpu time spent up to now is      574.5 secs

     total energy              =   -1939.05921230 Ry
     estimated scf accuracy    <       0.00000078 Ry

     iteration # 10     ecut=   100.00 Ry     beta= 0.30
     Davidson diagonalization with overlap
     ethr =  6.31E-11,  avg # of iterations =  2.0

     total cpu time spent up to now is      581.6 secs

     total energy              =   -1939.05921235 Ry
     estimated scf accuracy    <       0.00000009 Ry

     iteration # 11     ecut=   100.00 Ry     beta= 0.30
     Davidson diagonalization with overlap
     ethr =  1.41E-11,  avg # of iterations =  2.0

     total cpu time spent up to now is      588.9 secs

     total energy              =   -1939.05921236 Ry
     estimated scf accuracy    <       0.00000001 Ry

     iteration # 12     ecut=   100.00 Ry     beta= 0.30
     Davidson diagonalization with overlap
     ethr =  1.74E-12,  avg # of iterations =  5.0

     total cpu time spent up to now is      597.8 secs

     total energy              =   -1939.05921236 Ry
     estimated scf accuracy    <          9.8E-09 Ry

     iteration # 13     ecut=   100.00 Ry     beta= 0.30
     Davidson diagonalization with overlap
     ethr =  1.53E-12,  avg # of iterations =  2.0

     total cpu time spent up to now is      604.6 secs

     total energy              =   -1939.05921236 Ry
     estimated scf accuracy    <       0.00000004 Ry

     iteration # 14     ecut=   100.00 Ry     beta= 0.30
     Davidson diagonalization with overlap
     ethr =  1.53E-12,  avg # of iterations =  1.0

     total cpu time spent up to now is      610.9 secs

     total energy              =   -1939.05921236 Ry
     estimated scf accuracy    <          4.6E-10 Ry

     iteration # 15     ecut=   100.00 Ry     beta= 0.30
     Davidson diagonalization with overlap
     ethr =  1.00E-13,  avg # of iterations =  5.0

     total cpu time spent up to now is      619.0 secs

     total energy              =   -1939.05921236 Ry
     estimated scf accuracy    <          2.9E-10 Ry

     iteration # 16     ecut=   100.00 Ry     beta= 0.30
     Davidson diagonalization with overlap
     ethr =  1.00E-13,  avg # of iterations =  1.0

     total cpu time spent up to now is      625.4 secs

     End of self-consistent calculation

          k = 0.0000 0.0000 0.0000 (385710 PWs)   bands (ev):

   -23.7901 -23.5265 -23.5222 -23.5051 -23.5050 -23.5008 -23.4412 -22.9505
   -22.9459 -22.9355 -22.9350 -22.9292 -22.8455 -22.6579 -22.6555 -22.6472
   -22.6463 -22.6446 -22.4959 -21.8255 -21.8246 -21.7933 -21.7915 -21.7905
   -21.7868 -21.7838 -21.7828 -21.7778 -21.7772 -21.7766 -21.5424 -21.2422
   -21.2300 -21.2284 -21.2142 -21.2102 -21.0207 -20.4125 -20.4121 -20.3953
   -20.3749 -20.3738 -20.3038 -20.1437 -20.1378 -20.1363 -20.1211 -20.1194
   -20.1155 -20.1112 -20.1097 -20.1066 -20.0821 -20.0783 -19.7126 -19.3396
   -19.3379 -19.3340 -19.2991 -19.2987 -19.1038 -18.5838 -18.5819 -18.5705
   -18.5443 -18.5419 -18.5413 -18.5367 -18.5361 -18.5315 -18.5045 -18.5037
   -18.4309 -18.3826 -18.3798 -18.3798 -18.3733 -18.3708 -17.7782 -17.3515
   -17.3507 -17.3479 -17.2921 -17.2869 -17.1748 -16.9055 -16.8732 -16.8713
   -16.7868 -16.6830 -16.6828 -16.6778 -16.6009 -16.5999 -16.4258 -16.1247
   -16.1055 -16.1042 -16.0862 -16.0840 -16.0789 -16.0753 -16.0752 -16.0737
   -15.9584 -15.9560 -15.5475 -15.2480 -15.2437 -15.2415 -15.2159 -15.2144
   -15.2136 -15.2080 -15.2048 -15.2046 -15.0900 -15.0850 -14.7970 -14.7923
   -14.4496 -13.9902 -13.9872 -13.9810 -13.9545 -13.9544 -13.9533 -13.9408
   -13.9355 -13.9324 -13.8556 -13.8493 -13.5735 -13.4934 -13.4484 -13.4464
   -13.4352 -13.4350 -13.4326 -13.4293 -13.4290 -13.4278 -13.2289 -13.2264
   -12.9079 -12.5210 -12.5067 -12.5025 -12.4847 -12.4651 -12.4636 -12.4519
   -12.4480 -12.4459 -12.4431 -12.4425 -12.4405 -12.4377 -12.4349 -12.4330
   -12.1743 -12.1710 -11.8738 -11.7045 -11.6597 -11.6205 -11.6192 -11.5500
   -11.5472 -11.5427 -11.5425 -11.5349 -11.5349 -11.5316 -11.4543 -11.4398
   -11.3829 -11.3336 -11.3296 -11.3183 -11.3165 -11.3164 -11.3129 -11.3121
   -11.2885 -11.1750 -11.1653 -11.1651 -11.0224 -11.0093 -11.0076 -10.8810
   -10.8778 -10.8637 -10.8605 -10.8533 -10.8531 -10.8495 -10.7585 -10.7063
   -10.6473 -10.6463 -10.6347 -10.5991 -10.5975 -10.5436 -10.5242 -10.5219
   -10.5146 -10.5138 -10.5131 -10.4863 -10.4613 -10.4580 -10.4390 -10.4338
   -10.4320 -10.4242 -10.4228 -10.4005 -10.3626 -10.2197 -10.2192 -10.1993
   -10.1078 -10.1072 -10.1042 -10.0641 -10.0544 -10.0526 -10.0101 -10.0085
    -9.9877  -9.5392  -9.5390  -9.5313  -9.5274  -9.5197  -9.5170  -9.5150
    -9.5142  -9.5075  -9.5065  -9.5064  -9.4899  -9.4888  -9.2751  -9.1246
    -9.1074  -9.1055  -9.1024  -9.0420  -9.0416  -9.0408  -9.0379  -9.0378
    -9.0200  -8.9062  -8.8919  -8.8911  -8.8865  -8.8863  -8.7497  -8.7063
    -8.6446  -8.6429  -8.4466  -8.4464  -8.4460  -8.0804  -8.0797  -7.9484
    -7.9480  -7.9389  -7.9384  -7.9356  -7.9206  -7.9146  -7.9137  -7.8722
    -7.8651  -7.7789  -7.7121  -7.7029  -7.7008  -7.7003  -7.6999  -7.6892
    -7.6882  -7.6876  -7.6865  -7.6856  -7.6841  -7.3965  -7.3949  -7.3575
    -7.0623  -7.0580  -7.0537  -7.0444  -7.0437  -6.8089  -6.3690  -6.3630
    -6.3612  -6.3602  -6.3584  -6.2576  -6.0921  -6.0898  -6.0740  -6.0728
    -6.0644  -6.0632  -6.0559  -6.0553  -6.0518  -6.0512  -6.0510  -5.0484
    -4.2643  -4.2499  -4.2497  -4.1669  -4.1235  -3.9701  -2.6650  -2.6621
    -2.6593  -2.6402  -2.6392  -2.6266  -2.5927  -2.5616  -2.5613  -2.5424
    -2.5422  -2.5378  -2.5366  -2.5349  -2.5301  -2.4727  -2.4676  -2.2140
    -2.0511  -2.0475  -2.0218  -1.9901  -1.9900  -1.5566  -0.9696  -0.9661

     the Fermi energy is    -4.2207 ev

!    total energy              =   -1939.05921236 Ry
     estimated scf accuracy    <          4.1E-11 Ry
     smearing contrib. (-TS)   =      -0.01296931 Ry
     internal energy E=F+TS    =   -1939.04624305 Ry

     The total energy is F=E-TS. E is the sum of the following terms:
     one-electron contribution =  -21953.66142635 Ry
     hartree contribution      =   11036.84054402 Ry
     xc contribution           =    -689.95176307 Ry
     ewald contribution        =    9667.72640234 Ry

     convergence has been achieved in  16 iterations

     Forces acting on atoms (cartesian axes, Ry/au):

     atom    1 type  1   force =     0.00027724    0.00000001    0.00000000
     atom    2 type  1   force =    -0.00051825    0.00000003   -0.00000000
     atom    3 type  1   force =     0.00003787    0.00032977    0.00000001
     atom    4 type  1   force =    -0.00014226    0.00011706    0.00000000
     atom    5 type  1   force =    -0.00020022    0.00020037   -0.00000001
     atom    6 type  1   force =     0.00014299    0.00031995    0.00000000
     atom    7 type  1   force =     0.00002388   -0.00016901    0.00000001
     atom    8 type  1   force =     0.00018366   -0.00002935    0.00000001
     atom    9 type  1   force =     0.00050662    0.00010554   -0.00000000
     atom   10 type  1   force =     0.00016413    0.00006260   -0.00000000
     atom   11 type  1   force =     0.00014456    0.00006725   -0.00000002
     atom   12 type  1   force =    -0.00054936    0.00064079   -0.00000001
     atom   13 type  1   force =     0.00030351   -0.00039420    0.00000000
     atom   14 type  1   force =    -0.00034111    0.00076924   -0.00000001
     atom   15 type  1   force =    -0.00008483    0.00000796    0.00000001
     atom   16 type  1   force =    -0.00015300   -0.00043180    0.00000001
     atom   17 type  1   force =    -0.00025728   -0.00044150    0.00000000
     atom   18 type  1   force =    -0.00013090   -0.00034922    0.00000000
     atom   19 type  1   force =     0.00003785   -0.00032978   -0.00000000
     atom   20 type  1   force =    -0.00014228   -0.00011705   -0.00000000
     atom   21 type  1   force =     0.00019676    0.00000005   -0.00000001
     atom   22 type  1   force =    -0.00012480    0.00000004   -0.00000001
     atom   23 type  1   force =     0.00045398   -0.00006983    0.00000001
     atom   24 type  1   force =    -0.00000505    0.00069842    0.00000000
     atom   25 type  1   force =    -0.00038890   -0.00012549    0.00000000
     atom   26 type  1   force =     0.00040972    0.00074384   -0.00000001
     atom   27 type  1   force =     0.00219392   -0.00100463    0.00000002
     atom   28 type  1   force =     0.00187824   -0.00218084   -0.00000002
     atom   29 type  1   force =     0.00222932   -0.00061705   -0.00000001
     atom   30 type  1   force =     0.00263683   -0.00467830    0.00000001
     atom   31 type  1   force =    -0.00032946   -0.00229194    0.00000000
     atom   32 type  1   force =     0.00117867   -0.00373199   -0.00000000
     atom   33 type  1   force =    -0.00044676   -0.00324605   -0.00000001
     atom   34 type  1   force =    -0.00073847   -0.00050763   -0.00000001
     atom   35 type  1   force =     0.00028265    0.00038668   -0.00000001
     atom   36 type  1   force =    -0.00064833    0.00012687    0.00000000
     atom   37 type  1   force =    -0.00020022   -0.00020039    0.00000000
     atom   38 type  1   force =     0.00014300   -0.00031996   -0.00000001
     atom   39 type  1   force =     0.00045402    0.00006980    0.00000000
     atom   40 type  1   force =    -0.00000507   -0.00069837    0.00000001
     atom   41 type  1   force =     0.00156262   -0.00000001    0.00000000
     atom   42 type  1   force =    -0.00056436   -0.00000003   -0.00000000
     atom   43 type  1   force =    -0.00048662    0.00032602   -0.00000000
     atom   44 type  1   force =     0.00376761    0.00069713   -0.00000000
     atom   45 type  1   force =    -0.00416707   -0.00088560   -0.00000001
     atom   46 type  1   force =     0.00125298    0.00365462   -0.00000000
     atom   47 type  1   force =    -0.00019070   -0.00107812   -0.00000000
     atom   48 type  1   force =    -0.00358784   -0.00075021   -0.00000000
     atom   49 type  1   force =     0.00205314    0.00174552    0.00000001
     atom   50 type  1   force =    -0.00257459   -0.00418490   -0.00000000
     atom   51 type  1   force =    -0.00059121   -0.00020244    0.00000001
     atom   52 type  1   force =    -0.00017219   -0.00012171   -0.00000001
     atom   53 type  1   force =    -0.00043325   -0.00092875    0.00000000
     atom   54 type  1   force =     0.00028958   -0.00038148    0.00000000
     atom   55 type  1   force =     0.00002385    0.00016902    0.00000000
     atom   56 type  1   force =     0.00018366    0.00002932   -0.00000001
     atom   57 type  1   force =    -0.00038883    0.00012551    0.00000000
     atom   58 type  1   force =     0.00040969   -0.00074382    0.00000001
     atom   59 type  1   force =    -0.00048664   -0.00032600   -0.00000000
     atom   60 type  1   force =     0.00376764   -0.00069724    0.00000000
     atom   61 type  1   force =    -0.00634828    0.00000009   -0.00000000
     atom   62 type  1   force =     0.00103317   -0.00000023    0.00000000
     atom   63 type  1   force =     0.00183634   -0.00567110    0.00000001
     atom   64 type  1   force =    -0.00425910    0.00536905    0.00000000
     atom   65 type  1   force =     0.00254451   -0.00743824    0.00000000
     atom   66 type  1   force =    -0.00065566   -0.00148163    0.00000001
     atom   67 type  1   force =     0.00227996    0.00380628   -0.00000000
     atom   68 type  1   force =    -0.00190020   -0.00388784    0.00000001
     atom   69 type  1   force =     0.00006795   -0.00026157    0.00000000
     atom   70 type  1   force =    -0.00014891   -0.00087080   -0.00000000
     atom   71 type  1   force =     0.00016318    0.00028029   -0.00000001
     atom   72 type  1   force =    -0.00027562   -0.00030178   -0.00000000
     atom   73 type  1   force =     0.00050664   -0.00010553    0.00000001
     atom   74 type  1   force =     0.00016412   -0.00006262    0.00000000
     atom   75 type  1   force =     0.00219396    0.00100464    0.00000001
     atom   76 type  1   force =     0.00187826    0.00218080   -0.00000001
     atom   77 type  1   force =    -0.00416717    0.00088578    0.00000000
     atom   78 type  1   force =     0.00125298   -0.00365476   -0.00000000
     atom   79 type  1   force =     0.00183618    0.00567127   -0.00000002
     atom   80 type  1   force =    -0.00425907   -0.00536905    0.00000001
     atom   81 type  1   force =     0.00857979   -0.00000010    0.00000003
     atom   82 type  1   force =    -0.00391296   -0.00138099    0.00000001
     atom   83 type  1   force =     0.00277804   -0.00289186   -0.00000001
     atom   84 type  1   force =     0.00192489    0.00385304   -0.00000000
     atom   85 type  1   force =    -0.00270667   -0.00049066   -0.00000001
     atom   86 type  1   force =    -0.00146311   -0.00115266   -0.00000000
     atom   87 type  1   force =    -0.00012361   -0.00016279    0.00000001
     atom   88 type  1   force =    -0.00005286   -0.00034876   -0.00000001
     atom   89 type  1   force =     0.00001654   -0.00008813   -0.00000001
     atom   90 type  1   force =     0.00014455   -0.00006720    0.00000000
     atom   91 type  1   force =    -0.00054930   -0.00064076   -0.00000001
     atom   92 type  1   force =     0.00222926    0.00061701    0.00000000
     atom   93 type  1   force =     0.00263683    0.00467826   -0.00000001
     atom   94 type  1   force =    -0.00019069    0.00107807    0.00000002
     atom   95 type  1   force =    -0.00358795    0.00075030    0.00000003
     atom   96 type  1   force =     0.00254468    0.00743827    0.00000000
     atom   97 type  1   force =    -0.00065578    0.00148157   -0.00000002
     atom   98 type  1   force =    -0.00391292    0.00138117    0.00000001
     atom   99 type  1   force =     0.00277804    0.00289185    0.00000000
     atom  100 type  1   force =     0.00116582   -0.00000001    0.00000001
     atom  101 type  1   force =    -0.00430789    0.00000000   -0.00000002
     atom  102 type  1   force =    -0.00076359   -0.00112089   -0.00000000
     atom  103 type  1   force =     0.00075952    0.00016476   -0.00000000
     atom  104 type  1   force =     0.00018532   -0.00015068   -0.00000000
     atom  105 type  1   force =    -0.00004516   -0.00005563   -0.00000001
     atom  106 type  1   force =     0.00014907   -0.00002423   -0.00000001
     atom  107 type  1   force =    -0.00013271   -0.00005704   -0.00000001
     atom  108 type  1   force =     0.00030353    0.00039427    0.00000001
     atom  109 type  1   force =    -0.00034109   -0.00076921    0.00000000
     atom  110 type  1   force =    -0.00032942    0.00229196    0.00000000
     atom  111 type  1   force =     0.00117859    0.00373203   -0.00000000
     atom  112 type  1   force =     0.00205325   -0.00174572   -0.00000000
     atom  113 type  1   force =    -0.00257469    0.00418508   -0.00000001
     atom  114 type  1   force =     0.00227999   -0.00380649    0.00000002
     atom  115 type  1   force =    -0.00190022    0.00388800   -0.00000000
     atom  116 type  1   force =     0.00192487   -0.00385311   -0.00000002
     atom  117 type  1   force =    -0.00270669    0.00049068    0.00000000
     atom  118 type  1   force =    -0.00076365    0.00112083    0.00000000
     atom  119 type  1   force =     0.00075952   -0.00016474   -0.00000000
     atom  120 type  1   force =    -0.00021480   -0.00000004    0.00000001
     atom  121 type  1   force =     0.00032242    0.00000002   -0.00000000
     atom  122 type  1   force =     0.00006773   -0.00003942    0.00000001
     atom  123 type  1   force =    -0.00004730   -0.00000367    0.00000001
     atom  124 type  1   force =     0.00013309   -0.00005256    0.00000000
     atom  125 type  1   force =    -0.00028304   -0.00043427   -0.00000001
     atom  126 type  1   force =    -0.00008478   -0.00000796   -0.00000001
     atom  127 type  1   force =    -0.00015307    0.00043174   -0.00000000
     atom  128 type  1   force =    -0.00044672    0.00324609    0.00000000
     atom  129 type  1   force =    -0.00073846    0.00050772    0.00000001
     atom  130 type  1   force =    -0.00059122    0.00020229   -0.00000001
     atom  131 type  1   force =    -0.00017214    0.00012177    0.00000000
     atom  132 type  1   force =     0.00006804    0.00026143    0.00000001
     atom  133 type  1   force =    -0.00014906    0.00087083    0.00000001
     atom  134 type  1   force =    -0.00146308    0.00115266    0.00000000
     atom  135 type  1   force =    -0.00012360    0.00016285    0.00000000
     atom  136 type  1   force =     0.00018533    0.00015065   -0.00000001
     atom  137 type  1   force =    -0.00004514    0.00005562    0.00000000
     atom  138 type  1   force =     0.00006773    0.00003941   -0.00000000
     atom  139 type  1   force =    -0.00004732    0.00000371    0.00000000
     atom  140 type  1   force =     0.00011899    0.00000001   -0.00000001
     atom  141 type  1   force =    -0.00014440    0.00000002    0.00000001
     atom  142 type  1   force =     0.00000284    0.00007222    0.00000000
     atom  143 type  1   force =    -0.00008986    0.00001994   -0.00000000
     atom  144 type  1   force =    -0.00025731    0.00044151    0.00000000
     atom  145 type  1   force =    -0.00013085    0.00034922    0.00000000
     atom  146 type  1   force =     0.00028260   -0.00038669   -0.00000000
     atom  147 type  1   force =    -0.00064829   -0.00012685    0.00000002
     atom  148 type  1   force =    -0.00043324    0.00092874    0.00000000
     atom  149 type  1   force =     0.00028955    0.00038148   -0.00000000
     atom  150 type  1   force =     0.00016316   -0.00028031    0.00000001
     atom  151 type  1   force =    -0.00027556    0.00030177   -0.00000000
     atom  152 type  1   force =    -0.00005282    0.00034870    0.00000000
     atom  153 type  1   force =     0.00001648    0.00008812    0.00000001
     atom  154 type  1   force =     0.00014904    0.00002427   -0.00000000
     atom  155 type  1   force =    -0.00013268    0.00005705   -0.00000001
     atom  156 type  1   force =     0.00013307    0.00005255   -0.00000001
     atom  157 type  1   force =    -0.00028303    0.00043426    0.00000000
     atom  158 type  1   force =     0.00000285   -0.00007221   -0.00000001
     atom  159 type  1   force =    -0.00008986   -0.00001994    0.00000000
     atom  160 type  1   force =     0.00008254    0.00000000    0.00000002
     atom  161 type  1   force =    -0.00024257    0.00000001   -0.00000001

     Total force =     0.031723     Total SCF correction =     0.000011
     Energy error            =      8.0E-04 Ry
     Gradient error          =      8.6E-03 Ry/Bohr

     number of scf cycles    =   4
     number of bfgs steps    =   3

     energy             old  =   -1939.0584126175 Ry
     energy             new  =   -1939.0592123619 Ry

     CASE: energy            _new < energy            _old

     new trust radius        =       0.0080647459 bohr
     new conv_thr            =            8.0E-11 Ry


ATOMIC_POSITIONS (crystal)
C                0.0370418642        0.0370418662        0.0000000001
C                0.0740618495        0.0740618509       -0.0000000001
C                0.0369990746        0.1481717569       -0.0000000007
C                0.0740437161        0.1851951804       -0.0000000008
C                0.0369919644        0.2592846573       -0.0000000005
C                0.0740547281        0.2963244570       -0.0000000004
C                0.0370415572        0.3703571261        0.0000000000
C                0.0740817399        0.4074289570       -0.0000000006
C                0.0370612630        0.4814917970        0.0000000005
C                0.0740419928        0.5185524939        0.0000000001
C                0.0370289978        0.5925995405        0.0000000003
C                0.0740340256        0.6296562400       -0.0000000006
C                0.0370545335        0.7036927112       -0.0000000007
C                0.0740420295        0.7407510541       -0.0000000001
C                0.0370363847        0.8148181797       -0.0000000001
C                0.0740517888        0.8518299968       -0.0000000007
C                0.0370572779        0.9259000070       -0.0000000007
C                0.0740765251        0.9629361234       -0.0000000003
C                0.1481717565        0.0369990762        0.0000000006
C                0.1851951810        0.0740437166        0.0000000007
C                0.1481476834        0.1481476844       -0.0000000002
C                0.1852012966        0.1852012968        0.0000000004
C                0.1481790210        0.2592795828        0.0000000006
C                0.1851405754        0.2963392043        0.0000000004
C                0.1481358829        0.3703823544       -0.0000000005
C                0.1851598654        0.4074463585       -0.0000000011
C                0.1482514260        0.4814785467       -0.0000000004
C                0.1853322072        0.5185441903        0.0000000005
C                0.1481750308        0.5926295967       -0.0000000004
C                0.1851410360        0.6296496805       -0.0000000001
C                0.1481724813        0.7036467705        0.0000000000
C                0.1853995813        0.7405009240        0.0000000012
C                0.1482796699        0.8146791756        0.0000000009
C                0.1851794336        0.8518251492       -0.0000000007
C                0.1481424402        0.9259301411       -0.0000000005
C                0.1851425933        0.9629528122       -0.0000000007
C                0.2592846579        0.0369919654        0.0000000008
C                0.2963244587        0.0740547280        0.0000000006
C                0.2592795837        0.1481790212        0.0000000005
C                0.2963392057        0.1851405745       -0.0000000008
C                0.2593339103        0.2593339093        0.0000000002
C                0.2962762520        0.2962762496       -0.0000000001
C                0.2592546871        0.3704535133       -0.0000000001
C                0.2960889611        0.4075111103        0.0000000004
C                0.2595912416        0.4813943538        0.0000000010
C                0.2966327258        0.5186209863        0.0000000013
C                0.2596714365        0.5923596249        0.0000000011
C                0.2969255308        0.6288737602        0.0000000012
C                0.2597455992        0.7032893366        0.0000000011
C                0.2961601708        0.7407387559        0.0000000009
C                0.2592672763        0.8147218007       -0.0000000005
C                0.2962722776        0.8518868298       -0.0000000005
C                0.2593295714        0.9257804200       -0.0000000001
C                0.2963451088        0.9629601212       -0.0000000002
C                0.3703571270        0.0370415579       -0.0000000000
C                0.4074289590        0.0740817399       -0.0000000004
C                0.3703823565        0.1481358829       -0.0000000008
C                0.4074463605        0.1851598646       -0.0000000015
C                0.3704535152        0.2592546856       -0.0000000005
C                0.4075111138        0.2960889589        0.0000000007
C                0.3704256770        0.3704256750       -0.0000000004
C                0.4069235706        0.4069235697       -0.0000000003
C                0.3718135528        0.4808850269        0.0000000007
C                0.4062763369        0.5184919595        0.0000000016
C                0.3722958715        0.5910363327        0.0000000030
C                0.4071422885        0.6301799970        0.0000000016
C                0.3705140725        0.7033569368        0.0000000010
C                0.4075170960        0.7407574493        0.0000000001
C                0.3704603892        0.8147058528       -0.0000000010
C                0.4074450622        0.8518153193       -0.0000000014
C                0.3703759968        0.9259341779       -0.0000000004
C                0.4074223452        0.9629353316        0.0000000005
C                0.4814917982        0.0370612634       -0.0000000004
C                0.5185524952        0.0740419922       -0.0000000009
C                0.4814785478        0.1482514251       -0.0000000017
C                0.5185441921        0.1853322076       -0.0000000002
C                0.4813943554        0.2595912431        0.0000000000
C                0.5186209888        0.2966327260        0.0000000015
C                0.4808850269        0.3718135555        0.0000000005
C                0.5184919601        0.4062763407        0.0000000017
C                0.5197709797        0.5197709743       -0.0000000001
C                0.4812011949        0.5917160578       -0.0000000002
C                0.5187083976        0.6292780232       -0.0000000016
C                0.4814048309        0.7035184141       -0.0000000007
C                0.5185401342        0.7406011003        0.0000000000
C                0.4814792784        0.8147233188       -0.0000000015
C                0.5185585642        0.8518505643       -0.0000000007
C                0.4814978178        0.9258972471       -0.0000000004
C                0.5185375555        0.9629483666        0.0000000000
C                0.5925995408        0.0370289994        0.0000000005
C                0.6296562401        0.0740340271       -0.0000000000
C                0.5926295975        0.1481750319        0.0000000007
C                0.6296496810        0.1851410383       -0.0000000007
C                0.5923596271        0.2596714361       -0.0000000007
C                0.6288737609        0.2969255305       -0.0000000008
C                0.5910363327        0.3722958710        0.0000000014
C                0.6301800011        0.4071422848       -0.0000000004
C                0.5917160624        0.4812011909       -0.0000000010
C                0.6292780268        0.5187083945       -0.0000000008
C                0.5924603335        0.5924603308       -0.0000000006
C                0.6296812956        0.6296812946       -0.0000000002
C                0.5926434489        0.7036565328       -0.0000000002
C                0.6296575801        0.7407432238        0.0000000003
C                0.5925941586        0.8148263151        0.0000000002
C                0.6296374771        0.8518351072        0.0000000001
C                0.5925811617        0.9259295947       -0.0000000005
C                0.6296441319        0.9629675593        0.0000000003
C                0.7036927109        0.0370545346       -0.0000000008
C                0.7407510532        0.0740420307       -0.0000000002
C                0.7036467699        0.1481724829       -0.0000000000
C                0.7405009228        0.1853995820       -0.0000000004
C                0.7032893377        0.2597455990       -0.0000000004
C                0.7407387536        0.2961601724       -0.0000000014
C                0.7033569401        0.3705140701       -0.0000000011
C                0.7407574487        0.4075170945        0.0000000010
C                0.7035184156        0.4814048291        0.0000000011
C                0.7406010994        0.5185401341        0.0000000011
C                0.7036565342        0.5926434473        0.0000000012
C                0.7407432235        0.6296575804        0.0000000011
C                0.7036945316        0.7036945315        0.0000000002
C                0.7407650289        0.7407650293        0.0000000007
C                0.7037168986        0.8148052593        0.0000000008
C                0.7407378074        0.8518478693       -0.0000000004
C                0.7037099211        0.9259333069        0.0000000002
C                0.7407583285        0.9629175166       -0.0000000009
C                0.8148181788        0.0370363871        0.0000000010
C                0.8518299957        0.0740517900       -0.0000000003
C                0.8146791751        0.1482796722        0.0000000001
C                0.8518251472        0.1851794352        0.0000000016
C                0.8147218000        0.2592672764        0.0000000002
C                0.8518868283        0.2962722782        0.0000000001
C                0.8147058529        0.3704603875        0.0000000001
C                0.8518153183        0.4074450612       -0.0000000009
C                0.8147233188        0.4814792780        0.0000000006
C                0.8518505629        0.5185585644        0.0000000009
C                0.8148263144        0.5925941583        0.0000000012
C                0.8518351064        0.6296374769        0.0000000008
C                0.8148052585        0.7037168989       -0.0000000001
C                0.8518478677        0.7407378085       -0.0000000008
C                0.8148137979        0.8148137989       -0.0000000017
C                0.8518552355        0.8518552379       -0.0000000012
C                0.8148118162        0.9259271360       -0.0000000005
C                0.8518358054        0.9629612010        0.0000000002
C                0.9259000048        0.0370572804       -0.0000000014
C                0.9629361223        0.0740765264       -0.0000000005
C                0.9259301392        0.1481424415        0.0000000012
C                0.9629528104        0.1851425941        0.0000000000
C                0.9257804187        0.2593295713       -0.0000000002
C                0.9629601199        0.2963451085       -0.0000000004
C                0.9259341774        0.3703759959       -0.0000000004
C                0.9629353309        0.4074223442        0.0000000011
C                0.9258972466        0.4814978168        0.0000000008
C                0.9629483654        0.5185375543        0.0000000005
C                0.9259295934        0.5925811611        0.0000000006
C                0.9629675578        0.6296441320        0.0000000008
C                0.9259333053        0.7037099214       -0.0000000003
C                0.9629175151        0.7407583290       -0.0000000005
C                0.9259271336        0.8148118174        0.0000000000
C                0.9629611986        0.8518358072       -0.0000000002
C                0.9259297873        0.9259297896        0.0000000000
C                0.9629551895        0.9629551924       -0.0000000014



     Writing config-only to output data dir /home/gregb26/links/scratch/qe_tmp/vacancy_relaxed/nspin1/vac_9x9_relax_nspin1.save/ :
     XML data file
     NEW-OLD atomic charge density approx. for the potential

     negative rho (up, down):  1.240E-06 0.000E+00

     total cpu time spent up to now is      629.0 secs

     per-process dynamical memory:   351.9 Mb

     Self-consistent Calculation

     iteration #  1     ecut=   100.00 Ry     beta= 0.30
     Davidson diagonalization with overlap
     ethr =  1.00E-06,  avg # of iterations =  5.0

     Threshold (ethr) on eigenvalues was too large:
     Diagonalizing with lowered threshold

     Davidson diagonalization with overlap
     ethr =  6.47E-08,  avg # of iterations =  2.0

     negative rho (up, down):  8.090E-07 0.000E+00

     total cpu time spent up to now is      647.1 secs

     total energy              =   -1939.05945578 Ry
     estimated scf accuracy    <       0.00041978 Ry

     iteration #  2     ecut=   100.00 Ry     beta= 0.30
     Davidson diagonalization with overlap
     ethr =  6.52E-08,  avg # of iterations =  5.0

     negative rho (up, down):  7.915E-07 0.000E+00

     total cpu time spent up to now is      655.2 secs

     total energy              =   -1939.05818134 Ry
     estimated scf accuracy    <       0.08189062 Ry

     iteration #  3     ecut=   100.00 Ry     beta= 0.30
     Davidson diagonalization with overlap
     ethr =  6.52E-08,  avg # of iterations =  5.0

     negative rho (up, down):  6.897E-07 0.000E+00

     total cpu time spent up to now is      662.6 secs

     total energy              =   -1939.05959488 Ry
     estimated scf accuracy    <       0.00025049 Ry

     iteration #  4     ecut=   100.00 Ry     beta= 0.30
     Davidson diagonalization with overlap
     ethr =  3.89E-08,  avg # of iterations =  2.0

     negative rho (up, down):  2.926E-07 0.000E+00

     total cpu time spent up to now is      669.8 secs

     total energy              =   -1939.05960405 Ry
     estimated scf accuracy    <       0.00007030 Ry

     iteration #  5     ecut=   100.00 Ry     beta= 0.30
     Davidson diagonalization with overlap
     ethr =  1.09E-08,  avg # of iterations =  2.0

     negative rho (up, down):  1.721E-07 0.000E+00

     total cpu time spent up to now is      677.0 secs

     total energy              =   -1939.05960836 Ry
     estimated scf accuracy    <       0.00001156 Ry

     iteration #  6     ecut=   100.00 Ry     beta= 0.30
     Davidson diagonalization with overlap
     ethr =  1.79E-09,  avg # of iterations =  5.0

     negative rho (up, down):  7.501E-08 0.000E+00

     total cpu time spent up to now is      684.3 secs

     total energy              =   -1939.05960904 Ry
     estimated scf accuracy    <       0.00000164 Ry

     iteration #  7     ecut=   100.00 Ry     beta= 0.30
     Davidson diagonalization with overlap
     ethr =  2.55E-10,  avg # of iterations =  4.0

     negative rho (up, down):  2.124E-08 0.000E+00

     total cpu time spent up to now is      692.3 secs

     total energy              =   -1939.05960929 Ry
     estimated scf accuracy    <       0.00000071 Ry

     iteration #  8     ecut=   100.00 Ry     beta= 0.30
     Davidson diagonalization with overlap
     ethr =  1.10E-10,  avg # of iterations =  2.0

     total cpu time spent up to now is      699.3 secs

     total energy              =   -1939.05960931 Ry
     estimated scf accuracy    <       0.00000036 Ry

     iteration #  9     ecut=   100.00 Ry     beta= 0.30
     Davidson diagonalization with overlap
     ethr =  5.63E-11,  avg # of iterations =  2.0

     total cpu time spent up to now is      706.2 secs

     total energy              =   -1939.05960931 Ry
     estimated scf accuracy    <       0.00000029 Ry

     iteration # 10     ecut=   100.00 Ry     beta= 0.30
     Davidson diagonalization with overlap
     ethr =  4.58E-11,  avg # of iterations =  2.0

     total cpu time spent up to now is      713.0 secs

     total energy              =   -1939.05960933 Ry
     estimated scf accuracy    <       0.00000002 Ry

     iteration # 11     ecut=   100.00 Ry     beta= 0.30
     Davidson diagonalization with overlap
     ethr =  3.12E-12,  avg # of iterations =  5.0

     total cpu time spent up to now is      721.5 secs

     total energy              =   -1939.05960933 Ry
     estimated scf accuracy    <          1.7E-09 Ry

     iteration # 12     ecut=   100.00 Ry     beta= 0.30
     Davidson diagonalization with overlap
     ethr =  2.67E-13,  avg # of iterations =  5.0

     total cpu time spent up to now is      730.6 secs

     total energy              =   -1939.05960934 Ry
     estimated scf accuracy    <          1.4E-09 Ry

     iteration # 13     ecut=   100.00 Ry     beta= 0.30
     Davidson diagonalization with overlap
     ethr =  2.23E-13,  avg # of iterations =  2.0

     total cpu time spent up to now is      737.4 secs

     total energy              =   -1939.05960934 Ry
     estimated scf accuracy    <          1.0E-09 Ry

     iteration # 14     ecut=   100.00 Ry     beta= 0.30
     Davidson diagonalization with overlap
     ethr =  1.62E-13,  avg # of iterations =  2.0

     total cpu time spent up to now is      744.0 secs

     total energy              =   -1939.05960934 Ry
     estimated scf accuracy    <          9.7E-10 Ry

     iteration # 15     ecut=   100.00 Ry     beta= 0.30
     Davidson diagonalization with overlap
     ethr =  1.51E-13,  avg # of iterations =  2.0

     total cpu time spent up to now is      751.0 secs

     End of self-consistent calculation

          k = 0.0000 0.0000 0.0000 (385710 PWs)   bands (ev):

   -23.7900 -23.5284 -23.5233 -23.5036 -23.5034 -23.4991 -23.4459 -22.9530
   -22.9483 -22.9354 -22.9345 -22.9280 -22.8448 -22.6583 -22.6561 -22.6479
   -22.6472 -22.6433 -22.4972 -21.8280 -21.8275 -21.7953 -21.7944 -21.7917
   -21.7882 -21.7818 -21.7809 -21.7759 -21.7757 -21.7749 -21.5458 -21.2454
   -21.2294 -21.2279 -21.2148 -21.2111 -21.0223 -20.4160 -20.4157 -20.3938
   -20.3759 -20.3749 -20.3030 -20.1444 -20.1390 -20.1377 -20.1217 -20.1199
   -20.1127 -20.1106 -20.1088 -20.1073 -20.0851 -20.0812 -19.7122 -19.3392
   -19.3384 -19.3345 -19.2997 -19.2995 -19.1094 -18.5856 -18.5843 -18.5737
   -18.5432 -18.5405 -18.5396 -18.5371 -18.5366 -18.5307 -18.5055 -18.5041
   -18.4309 -18.3838 -18.3791 -18.3775 -18.3737 -18.3735 -17.7824 -17.3516
   -17.3508 -17.3495 -17.2923 -17.2866 -17.1758 -16.9059 -16.8738 -16.8718
   -16.7876 -16.6832 -16.6832 -16.6791 -16.6018 -16.6010 -16.4250 -16.1269
   -16.1057 -16.1046 -16.0871 -16.0852 -16.0788 -16.0750 -16.0745 -16.0741
   -15.9589 -15.9565 -15.5453 -15.2518 -15.2451 -15.2437 -15.2167 -15.2146
   -15.2136 -15.2085 -15.2051 -15.2047 -15.0915 -15.0862 -14.7966 -14.7919
   -14.4469 -13.9923 -13.9893 -13.9836 -13.9571 -13.9538 -13.9530 -13.9393
   -13.9381 -13.9350 -13.8557 -13.8492 -13.5736 -13.4952 -13.4480 -13.4461
   -13.4353 -13.4351 -13.4322 -13.4277 -13.4276 -13.4267 -13.2316 -13.2292
   -12.9031 -12.5245 -12.5089 -12.5057 -12.4918 -12.4685 -12.4669 -12.4510
   -12.4486 -12.4468 -12.4426 -12.4425 -12.4420 -12.4369 -12.4344 -12.4324
   -12.1706 -12.1668 -11.8736 -11.7056 -11.6656 -11.6192 -11.6179 -11.5514
   -11.5480 -11.5427 -11.5425 -11.5335 -11.5333 -11.5300 -11.4585 -11.4366
   -11.3876 -11.3358 -11.3314 -11.3210 -11.3167 -11.3151 -11.3118 -11.3109
   -11.2884 -11.1731 -11.1684 -11.1681 -11.0256 -11.0103 -11.0092 -10.8807
   -10.8769 -10.8657 -10.8624 -10.8529 -10.8527 -10.8483 -10.7581 -10.7099
   -10.6480 -10.6473 -10.6330 -10.6041 -10.6020 -10.5426 -10.5247 -10.5224
   -10.5153 -10.5137 -10.5125 -10.4905 -10.4602 -10.4569 -10.4387 -10.4327
   -10.4315 -10.4252 -10.4239 -10.3970 -10.3641 -10.2202 -10.2191 -10.1963
   -10.1102 -10.1089 -10.1071 -10.0610 -10.0575 -10.0563 -10.0124 -10.0105
    -9.9855  -9.5414  -9.5412  -9.5333  -9.5290  -9.5204  -9.5190  -9.5131
    -9.5123  -9.5057  -9.5050  -9.5049  -9.4894  -9.4878  -9.2787  -9.1327
    -9.1088  -9.1056  -9.1027  -9.0401  -9.0394  -9.0387  -9.0381  -9.0375
    -9.0215  -8.9088  -8.8929  -8.8921  -8.8856  -8.8852  -8.7403  -8.7080
    -8.6521  -8.6507  -8.4477  -8.4466  -8.4457  -8.0798  -8.0784  -7.9509
    -7.9505  -7.9405  -7.9400  -7.9340  -7.9237  -7.9138  -7.9136  -7.8735
    -7.8642  -7.7515  -7.7127  -7.7057  -7.7027  -7.7002  -7.6999  -7.6899
    -7.6894  -7.6866  -7.6863  -7.6846  -7.6824  -7.3969  -7.3946  -7.3571
    -7.0629  -7.0584  -7.0532  -7.0445  -7.0435  -6.8117  -6.3719  -6.3658
    -6.3602  -6.3589  -6.3565  -6.2580  -6.0924  -6.0901  -6.0759  -6.0749
    -6.0663  -6.0621  -6.0546  -6.0544  -6.0506  -6.0499  -6.0497  -5.0492
    -4.2642  -4.2501  -4.2499  -4.1662  -4.1200  -3.9701  -2.6678  -2.6639
    -2.6612  -2.6395  -2.6385  -2.6270  -2.5933  -2.5611  -2.5610  -2.5409
    -2.5407  -2.5368  -2.5366  -2.5348  -2.5300  -2.4741  -2.4688  -2.2122
    -2.0507  -2.0467  -2.0215  -1.9902  -1.9901  -1.5520  -0.9711  -0.9671

     the Fermi energy is    -4.2204 ev

!    total energy              =   -1939.05960934 Ry
     estimated scf accuracy    <          6.6E-11 Ry
     smearing contrib. (-TS)   =      -0.01285512 Ry
     internal energy E=F+TS    =   -1939.04675421 Ry

     The total energy is F=E-TS. E is the sum of the following terms:
     one-electron contribution =  -21953.76470280 Ry
     hartree contribution      =   11036.88666739 Ry
     xc contribution           =    -689.96033726 Ry
     ewald contribution        =    9667.79161846 Ry

     convergence has been achieved in  15 iterations

     Forces acting on atoms (cartesian axes, Ry/au):

     atom    1 type  1   force =    -0.00027801   -0.00000002   -0.00000002
     atom    2 type  1   force =     0.00007384    0.00000001   -0.00000001
     atom    3 type  1   force =    -0.00009507   -0.00002123    0.00000000
     atom    4 type  1   force =    -0.00010907    0.00011254    0.00000001
     atom    5 type  1   force =     0.00008141    0.00014256   -0.00000001
     atom    6 type  1   force =    -0.00004209   -0.00000193    0.00000000
     atom    7 type  1   force =     0.00007962    0.00023174    0.00000002
     atom    8 type  1   force =     0.00010018   -0.00005700    0.00000001
     atom    9 type  1   force =     0.00043332   -0.00000499    0.00000000
     atom   10 type  1   force =     0.00082609   -0.00063351   -0.00000001
     atom   11 type  1   force =    -0.00007117    0.00008999    0.00000001
     atom   12 type  1   force =     0.00075338   -0.00066535    0.00000001
     atom   13 type  1   force =    -0.00012269    0.00021407    0.00000002
     atom   14 type  1   force =     0.00031013   -0.00110068   -0.00000001
     atom   15 type  1   force =     0.00010497    0.00006160    0.00000000
     atom   16 type  1   force =     0.00005018   -0.00149932    0.00000000
     atom   17 type  1   force =    -0.00016731   -0.00045531   -0.00000001
     atom   18 type  1   force =    -0.00006349   -0.00008564    0.00000000
     atom   19 type  1   force =    -0.00009510    0.00002125   -0.00000000
     atom   20 type  1   force =    -0.00010906   -0.00011250   -0.00000000
     atom   21 type  1   force =    -0.00004146   -0.00000002   -0.00000000
     atom   22 type  1   force =     0.00023519   -0.00000001   -0.00000001
     atom   23 type  1   force =     0.00006603    0.00006687   -0.00000000
     atom   24 type  1   force =     0.00040035   -0.00013377    0.00000000
     atom   25 type  1   force =    -0.00007339    0.00047298   -0.00000001
     atom   26 type  1   force =     0.00045328   -0.00009498   -0.00000000
     atom   27 type  1   force =     0.00129774    0.00016312    0.00000000
     atom   28 type  1   force =     0.00000969   -0.00025421   -0.00000002
     atom   29 type  1   force =     0.00222769   -0.00124121    0.00000000
     atom   30 type  1   force =     0.00044901   -0.00111817    0.00000001
     atom   31 type  1   force =     0.00019203   -0.00265713   -0.00000001
     atom   32 type  1   force =     0.00007499   -0.00084783    0.00000000
     atom   33 type  1   force =    -0.00076858   -0.00176621    0.00000000
     atom   34 type  1   force =    -0.00027932   -0.00095873    0.00000001
     atom   35 type  1   force =    -0.00031238   -0.00000703   -0.00000001
     atom   36 type  1   force =    -0.00016726   -0.00039748    0.00000001
     atom   37 type  1   force =     0.00008141   -0.00014256    0.00000000
     atom   38 type  1   force =    -0.00004209    0.00000198    0.00000000
     atom   39 type  1   force =     0.00006603   -0.00006687    0.00000000
     atom   40 type  1   force =     0.00040037    0.00013376    0.00000001
     atom   41 type  1   force =    -0.00025327   -0.00000000   -0.00000001
     atom   42 type  1   force =     0.00080940    0.00000003    0.00000001
     atom   43 type  1   force =     0.00072759    0.00039527    0.00000001
     atom   44 type  1   force =    -0.00102407   -0.00091345    0.00000000
     atom   45 type  1   force =     0.00044471    0.00048409    0.00000000
     atom   46 type  1   force =    -0.00112224   -0.00094930   -0.00000001
     atom   47 type  1   force =    -0.00015119   -0.00006327   -0.00000001
     atom   48 type  1   force =     0.00047408   -0.00090318    0.00000002
     atom   49 type  1   force =    -0.00064002   -0.00135806   -0.00000001
     atom   50 type  1   force =     0.00076277   -0.00062187   -0.00000001
     atom   51 type  1   force =    -0.00103035   -0.00127970    0.00000001
     atom   52 type  1   force =    -0.00076178   -0.00090407    0.00000001
     atom   53 type  1   force =    -0.00010018   -0.00006748   -0.00000000
     atom   54 type  1   force =    -0.00022115   -0.00029719    0.00000000
     atom   55 type  1   force =     0.00007964   -0.00023176    0.00000000
     atom   56 type  1   force =     0.00010017    0.00005704   -0.00000001
     atom   57 type  1   force =    -0.00007344   -0.00047297   -0.00000001
     atom   58 type  1   force =     0.00045328    0.00009498   -0.00000000
     atom   59 type  1   force =     0.00072764   -0.00039532   -0.00000001
     atom   60 type  1   force =    -0.00102411    0.00091349   -0.00000000
     atom   61 type  1   force =    -0.00151178    0.00000002    0.00000001
     atom   62 type  1   force =    -0.00054019   -0.00000004   -0.00000001
     atom   63 type  1   force =    -0.00072172   -0.00125387    0.00000000
     atom   64 type  1   force =    -0.00214813    0.00094990   -0.00000001
     atom   65 type  1   force =     0.00078375   -0.00262698   -0.00000001
     atom   66 type  1   force =    -0.00004828   -0.00140755    0.00000002
     atom   67 type  1   force =     0.00024883    0.00024938    0.00000000
     atom   68 type  1   force =    -0.00035936    0.00062998   -0.00000002
     atom   69 type  1   force =    -0.00046784   -0.00124708    0.00000000
     atom   70 type  1   force =    -0.00064870   -0.00054967    0.00000001
     atom   71 type  1   force =     0.00021017   -0.00023703    0.00000000
     atom   72 type  1   force =    -0.00017599   -0.00003908   -0.00000002
     atom   73 type  1   force =     0.00043333    0.00000497    0.00000001
     atom   74 type  1   force =     0.00082613    0.00063354    0.00000000
     atom   75 type  1   force =     0.00129783   -0.00016314    0.00000000
     atom   76 type  1   force =     0.00000966    0.00025424   -0.00000000
     atom   77 type  1   force =     0.00044471   -0.00048417    0.00000002
     atom   78 type  1   force =    -0.00112221    0.00094937   -0.00000002
     atom   79 type  1   force =    -0.00072159    0.00125369    0.00000000
     atom   80 type  1   force =    -0.00214809   -0.00094980   -0.00000000
     atom   81 type  1   force =     0.00410244    0.00000003    0.00000004
     atom   82 type  1   force =     0.00045173    0.00036870   -0.00000000
     atom   83 type  1   force =     0.00059369    0.00048195    0.00000001
     atom   84 type  1   force =     0.00032536   -0.00048967    0.00000001
     atom   85 type  1   force =     0.00011056    0.00026198   -0.00000002
     atom   86 type  1   force =    -0.00051285   -0.00102938   -0.00000000
     atom   87 type  1   force =    -0.00073363   -0.00038836   -0.00000000
     atom   88 type  1   force =    -0.00007903   -0.00034920    0.00000000
     atom   89 type  1   force =     0.00001769   -0.00007039    0.00000000
     atom   90 type  1   force =    -0.00007117   -0.00009003   -0.00000001
     atom   91 type  1   force =     0.00075337    0.00066536   -0.00000001
     atom   92 type  1   force =     0.00222770    0.00124120   -0.00000001
     atom   93 type  1   force =     0.00044894    0.00111808    0.00000001
     atom   94 type  1   force =    -0.00015117    0.00006337    0.00000001
     atom   95 type  1   force =     0.00047410    0.00090317    0.00000000
     atom   96 type  1   force =     0.00078375    0.00262695   -0.00000000
     atom   97 type  1   force =    -0.00004832    0.00140764    0.00000001
     atom   98 type  1   force =     0.00045175   -0.00036874   -0.00000001
     atom   99 type  1   force =     0.00059367   -0.00048192    0.00000001
     atom  100 type  1   force =     0.00121496   -0.00000001    0.00000001
     atom  101 type  1   force =     0.00010515   -0.00000002   -0.00000003
     atom  102 type  1   force =    -0.00154469   -0.00102659   -0.00000000
     atom  103 type  1   force =    -0.00063988   -0.00026838    0.00000001
     atom  104 type  1   force =     0.00023229    0.00014880   -0.00000001
     atom  105 type  1   force =     0.00000086    0.00000161    0.00000000
     atom  106 type  1   force =     0.00001585   -0.00006902    0.00000001
     atom  107 type  1   force =     0.00005551   -0.00003415    0.00000000
     atom  108 type  1   force =    -0.00012267   -0.00021406   -0.00000000
     atom  109 type  1   force =     0.00031016    0.00110071    0.00000001
     atom  110 type  1   force =     0.00019198    0.00265710   -0.00000000
     atom  111 type  1   force =     0.00007510    0.00084782    0.00000001
     atom  112 type  1   force =    -0.00064008    0.00135812   -0.00000001
     atom  113 type  1   force =     0.00076280    0.00062172    0.00000000
     atom  114 type  1   force =     0.00024877   -0.00024927   -0.00000000
     atom  115 type  1   force =    -0.00035928   -0.00063004   -0.00000001
     atom  116 type  1   force =     0.00032534    0.00048967   -0.00000001
     atom  117 type  1   force =     0.00011058   -0.00026206    0.00000000
     atom  118 type  1   force =    -0.00154469    0.00102664    0.00000000
     atom  119 type  1   force =    -0.00063988    0.00026836   -0.00000000
     atom  120 type  1   force =     0.00028582   -0.00000001    0.00000003
     atom  121 type  1   force =     0.00007908    0.00000000   -0.00000001
     atom  122 type  1   force =     0.00014399   -0.00006438   -0.00000002
     atom  123 type  1   force =    -0.00003948   -0.00003300    0.00000002
     atom  124 type  1   force =     0.00001895   -0.00006598   -0.00000001
     atom  125 type  1   force =    -0.00005182    0.00001811    0.00000001
     atom  126 type  1   force =     0.00010495   -0.00006159   -0.00000001
     atom  127 type  1   force =     0.00005022    0.00149937    0.00000000
     atom  128 type  1   force =    -0.00076866    0.00176622   -0.00000000
     atom  129 type  1   force =    -0.00027929    0.00095872   -0.00000001
     atom  130 type  1   force =    -0.00103037    0.00127975    0.00000001
     atom  131 type  1   force =    -0.00076179    0.00090401   -0.00000001
     atom  132 type  1   force =    -0.00046783    0.00124714   -0.00000000
     atom  133 type  1   force =    -0.00064866    0.00054964    0.00000001
     atom  134 type  1   force =    -0.00051288    0.00102938   -0.00000000
     atom  135 type  1   force =    -0.00073362    0.00038831   -0.00000000
     atom  136 type  1   force =     0.00023229   -0.00014879   -0.00000000
     atom  137 type  1   force =     0.00000086   -0.00000161   -0.00000000
     atom  138 type  1   force =     0.00014400    0.00006438   -0.00000000
     atom  139 type  1   force =    -0.00003949    0.00003298   -0.00000002
     atom  140 type  1   force =    -0.00002444    0.00000002    0.00000001
     atom  141 type  1   force =     0.00003369   -0.00000001    0.00000002
     atom  142 type  1   force =    -0.00002315   -0.00010939    0.00000001
     atom  143 type  1   force =    -0.00008303   -0.00004201   -0.00000001
     atom  144 type  1   force =    -0.00016732    0.00045529    0.00000001
     atom  145 type  1   force =    -0.00006347    0.00008569    0.00000002
     atom  146 type  1   force =    -0.00031237    0.00000702   -0.00000001
     atom  147 type  1   force =    -0.00016727    0.00039748   -0.00000000
     atom  148 type  1   force =    -0.00010017    0.00006751    0.00000000
     atom  149 type  1   force =    -0.00022115    0.00029718   -0.00000000
     atom  150 type  1   force =     0.00021016    0.00023704   -0.00000000
     atom  151 type  1   force =    -0.00017600    0.00003907   -0.00000001
     atom  152 type  1   force =    -0.00007905    0.00034924    0.00000000
     atom  153 type  1   force =     0.00001773    0.00007039    0.00000000
     atom  154 type  1   force =     0.00001588    0.00006900    0.00000000
     atom  155 type  1   force =     0.00005548    0.00003415   -0.00000000
     atom  156 type  1   force =     0.00001897    0.00006597   -0.00000001
     atom  157 type  1   force =    -0.00005181   -0.00001811   -0.00000001
     atom  158 type  1   force =    -0.00002312    0.00010940   -0.00000001
     atom  159 type  1   force =    -0.00008304    0.00004199    0.00000000
     atom  160 type  1   force =    -0.00011336    0.00000000    0.00000000
     atom  161 type  1   force =    -0.00003365   -0.00000001    0.00000001

     Total force =     0.012811     Total SCF correction =     0.000013
     Energy error            =      4.0E-04 Ry
     Gradient error          =      4.1E-03 Ry/Bohr

     number of scf cycles    =   5
     number of bfgs steps    =   4

     energy             old  =   -1939.0592123619 Ry
     energy             new  =   -1939.0596093351 Ry

     CASE: energy            _new < energy            _old

     new trust radius        =       0.0090106158 bohr
     new conv_thr            =            4.0E-11 Ry


ATOMIC_POSITIONS (crystal)
C                0.0370374049        0.0370374059       -0.0000000005
C                0.0740612216        0.0740612238       -0.0000000004
C                0.0369939565        0.1481717478       -0.0000000004
C                0.0740367207        0.1851980312       -0.0000000005
C                0.0369858811        0.2592912107       -0.0000000009
C                0.0740532977        0.2963263605       -0.0000000003
C                0.0370363419        0.3703657382        0.0000000009
C                0.0740845536        0.4074307979       -0.0000000002
C                0.0370694642        0.4815012887        0.0000000004
C                0.0740774941        0.5185508061       -0.0000000002
C                0.0370248890        0.5926017128        0.0000000003
C                0.0740617334        0.6296518220        0.0000000000
C                0.0370469408        0.7036969982        0.0000000001
C                0.0740742017        0.7407266953       -0.0000000005
C                0.0370350993        0.8148210281       -0.0000000000
C                0.0741022210        0.8517797445       -0.0000000003
C                0.0370702172        0.9258789126       -0.0000000011
C                0.0740789784        0.9629300484       -0.0000000003
C                0.1481717465        0.0369939583        0.0000000004
C                0.1851980307        0.0740367226        0.0000000005
C                0.1481475043        0.1481475042       -0.0000000004
C                0.1852054515        0.1852054519       -0.0000000002
C                0.1481795540        0.2592849281        0.0000000007
C                0.1851495965        0.2963469262        0.0000000005
C                0.1481204323        0.3703953322       -0.0000000010
C                0.1851662999        0.4074579084       -0.0000000013
C                0.1482857462        0.4815083872       -0.0000000002
C                0.1853704547        0.5185341112       -0.0000000005
C                0.1482588534        0.5926321921       -0.0000000003
C                0.1852278470        0.6296023907        0.0000000003
C                0.1482656101        0.7035599360       -0.0000000001
C                0.1854714264        0.7404368211        0.0000000014
C                0.1483423914        0.8145863648        0.0000000008
C                0.1852018449        0.8517864829       -0.0000000006
C                0.1481359368        0.9259242739       -0.0000000008
C                0.1851504269        0.9629355566       -0.0000000002
C                0.2592912113        0.0369858817        0.0000000009
C                0.2963263610        0.0740532990        0.0000000006
C                0.2592849293        0.1481795541        0.0000000007
C                0.2963469278        0.1851495958       -0.0000000003
C                0.2593356155        0.2593356143       -0.0000000001
C                0.2962895788        0.2962895776        0.0000000003
C                0.2592497644        0.3704820248        0.0000000001
C                0.2960952943        0.4074831158        0.0000000007
C                0.2596035558        0.4814033021        0.0000000009
C                0.2966496933        0.5185781547        0.0000000010
C                0.2597220435        0.5923246323        0.0000000007
C                0.2969908256        0.6288188722        0.0000000018
C                0.2598096449        0.7032073533        0.0000000011
C                0.2962011228        0.7407029301        0.0000000006
C                0.2592879592        0.8146568461        0.0000000002
C                0.2962882084        0.8518433754       -0.0000000003
C                0.2593349927        0.9257674402       -0.0000000003
C                0.2963536067        0.9629441259        0.0000000000
C                0.3703657399        0.0370363423        0.0000000001
C                0.4074307989        0.0740845543       -0.0000000009
C                0.3703953332        0.1481204323       -0.0000000010
C                0.4074579100        0.1851662993       -0.0000000017
C                0.3704820289        0.2592497624       -0.0000000011
C                0.4074831183        0.2960952923        0.0000000008
C                0.3703905725        0.3703905721       -0.0000000002
C                0.4068966965        0.4068966919       -0.0000000006
C                0.3718465997        0.4808122309        0.0000000011
C                0.4061248575        0.5185129159        0.0000000011
C                0.3724170078        0.5909564967        0.0000000024
C                0.4071846392        0.6301478171        0.0000000025
C                0.3705144313        0.7033624449        0.0000000010
C                0.4075075398        0.7407450026       -0.0000000004
C                0.3704943652        0.8146533716       -0.0000000009
C                0.4074559439        0.8517832516       -0.0000000013
C                0.3703882115        0.9259285460       -0.0000000003
C                0.4074234215        0.9629285707       -0.0000000004
C                0.4815012906        0.0370694641        0.0000000000
C                0.5185508071        0.0740774950       -0.0000000009
C                0.4815083903        0.1482857466       -0.0000000016
C                0.5185341120        0.1853704554       -0.0000000002
C                0.4814033053        0.2596035556        0.0000000006
C                0.5185781560        0.2966496955        0.0000000007
C                0.4808122381        0.3718465995        0.0000000001
C                0.5185129138        0.4061248657        0.0000000019
C                0.5198950258        0.5198950218        0.0000000016
C                0.4812013105        0.5917381008       -0.0000000002
C                0.5187182116        0.6292973069       -0.0000000014
C                0.4814169769        0.7035050408       -0.0000000004
C                0.5185329365        0.7405866986       -0.0000000011
C                0.4815041176        0.8146681227       -0.0000000016
C                0.5185593875        0.8518220193       -0.0000000007
C                0.4815079048        0.9258830819       -0.0000000003
C                0.5185413427        0.9629465431        0.0000000001
C                0.5926017140        0.0370248898        0.0000000003
C                0.6296518217        0.0740617357       -0.0000000005
C                0.5926321934        0.1482588545        0.0000000003
C                0.6296023927        0.1852278455       -0.0000000006
C                0.5923246321        0.2597220459       -0.0000000003
C                0.6288188733        0.2969908250       -0.0000000004
C                0.5909564978        0.3724170063        0.0000000012
C                0.6301478185        0.4071846370       -0.0000000001
C                0.5917381070        0.4812013063       -0.0000000016
C                0.6292973096        0.5187182096       -0.0000000004
C                0.5924690013        0.5924689984       -0.0000000001
C                0.6296672676        0.6296672652       -0.0000000015
C                0.5926484819        0.7035948705       -0.0000000004
C                0.6296569904        0.7407286347        0.0000000006
C                0.5925957599        0.8148332771       -0.0000000001
C                0.6296392235        0.8518348141        0.0000000003
C                0.5925845011        0.9259278835       -0.0000000003
C                0.6296467961        0.9629659425        0.0000000003
C                0.7036969979        0.0370469430       -0.0000000007
C                0.7407266938        0.0740742046       -0.0000000001
C                0.7035599350        0.1482656105        0.0000000001
C                0.7404368214        0.1854714286        0.0000000001
C                0.7032073525        0.2598096447       -0.0000000011
C                0.7407029322        0.2962011209       -0.0000000012
C                0.7033624456        0.3705144299       -0.0000000011
C                0.7407450046        0.4075075381        0.0000000006
C                0.7035050423        0.4814169743        0.0000000004
C                0.7405867001        0.5185329346        0.0000000011
C                0.7035948704        0.5926484812        0.0000000013
C                0.7407286352        0.6296569900        0.0000000011
C                0.7036999048        0.7036999039        0.0000000016
C                0.7407674359        0.7407674367        0.0000000004
C                0.7037210316        0.8148061617        0.0000000003
C                0.7407384700        0.8518466183        0.0000000006
C                0.7037130548        0.9259305085       -0.0000000002
C                0.7407591831        0.9629139126       -0.0000000007
C                0.8148210265        0.0370351018        0.0000000006
C                0.8517797426        0.0741022240       -0.0000000002
C                0.8145863624        0.1483423931        0.0000000000
C                0.8517864814        0.1852018470        0.0000000012
C                0.8146568441        0.2592879599        0.0000000004
C                0.8518433754        0.2962882074       -0.0000000003
C                0.8146533709        0.3704943650        0.0000000001
C                0.8517832517        0.4074559423       -0.0000000005
C                0.8146681222        0.4815041169        0.0000000005
C                0.8518220192        0.5185593868        0.0000000008
C                0.8148332762        0.5925957601        0.0000000010
C                0.8518348132        0.6296392236        0.0000000007
C                0.8148061610        0.7037210319       -0.0000000002
C                0.8518466168        0.7407384707       -0.0000000015
C                0.8148137672        0.8148137692       -0.0000000013
C                0.8518551239        0.8518551259       -0.0000000004
C                0.8148138165        0.9259234379       -0.0000000001
C                0.8518352942        0.9629583510       -0.0000000000
C                0.9258789106        0.0370702191       -0.0000000011
C                0.9629300462        0.0740789818        0.0000000001
C                0.9259242724        0.1481359377        0.0000000010
C                0.9629355543        0.1851504276        0.0000000002
C                0.9257674384        0.2593349938       -0.0000000001
C                0.9629441246        0.2963536060       -0.0000000005
C                0.9259285448        0.3703882107       -0.0000000006
C                0.9629285704        0.4074234200        0.0000000009
C                0.9258830803        0.4815079042        0.0000000010
C                0.9629465428        0.5185413417        0.0000000008
C                0.9259278831        0.5925845004        0.0000000006
C                0.9629659408        0.6296467959        0.0000000006
C                0.9259305073        0.7037130551       -0.0000000008
C                0.9629139112        0.7407591839       -0.0000000008
C                0.9259234357        0.8148138185       -0.0000000005
C                0.9629583492        0.8518352951       -0.0000000001
C                0.9259278994        0.9259279019        0.0000000003
C                0.9629533996        0.9629534020       -0.0000000011



     Writing config-only to output data dir /home/gregb26/links/scratch/qe_tmp/vacancy_relaxed/nspin1/vac_9x9_relax_nspin1.save/ :
     XML data file
     NEW-OLD atomic charge density approx. for the potential

     negative rho (up, down):  1.234E-06 0.000E+00

     total cpu time spent up to now is      754.1 secs

     per-process dynamical memory:   351.9 Mb

     Self-consistent Calculation

     iteration #  1     ecut=   100.00 Ry     beta= 0.30
     Davidson diagonalization with overlap
     ethr =  1.00E-06,  avg # of iterations =  5.0

     Threshold (ethr) on eigenvalues was too large:
     Diagonalizing with lowered threshold

     Davidson diagonalization with overlap
     ethr =  2.78E-08,  avg # of iterations =  4.0

     negative rho (up, down):  8.056E-07 0.000E+00

     total cpu time spent up to now is      773.2 secs

     total energy              =   -1939.05970903 Ry
     estimated scf accuracy    <       0.00018369 Ry

     iteration #  2     ecut=   100.00 Ry     beta= 0.30
     Davidson diagonalization with overlap
     ethr =  2.85E-08,  avg # of iterations =  5.0

     negative rho (up, down):  7.832E-07 0.000E+00

     total cpu time spent up to now is      781.0 secs

     total energy              =   -1939.05942609 Ry
     estimated scf accuracy    <       0.01444158 Ry

     iteration #  3     ecut=   100.00 Ry     beta= 0.30
     Davidson diagonalization with overlap
     ethr =  2.85E-08,  avg # of iterations =  4.0

     negative rho (up, down):  7.063E-07 0.000E+00

     total cpu time spent up to now is      788.1 secs

     total energy              =   -1939.05973336 Ry
     estimated scf accuracy    <       0.00080479 Ry

     iteration #  4     ecut=   100.00 Ry     beta= 0.30
     Davidson diagonalization with overlap
     ethr =  2.85E-08,  avg # of iterations =  2.0

     negative rho (up, down):  3.095E-07 0.000E+00

     total cpu time spent up to now is      795.0 secs

     total energy              =   -1939.05975922 Ry
     estimated scf accuracy    <       0.00003191 Ry

     iteration #  5     ecut=   100.00 Ry     beta= 0.30
     Davidson diagonalization with overlap
     ethr =  4.96E-09,  avg # of iterations =  5.0

     negative rho (up, down):  1.388E-07 0.000E+00

     total cpu time spent up to now is      802.2 secs

     total energy              =   -1939.05976077 Ry
     estimated scf accuracy    <       0.00000426 Ry

     iteration #  6     ecut=   100.00 Ry     beta= 0.30
     Davidson diagonalization with overlap
     ethr =  6.61E-10,  avg # of iterations =  4.0

     negative rho (up, down):  5.057E-08 0.000E+00

     total cpu time spent up to now is      809.6 secs

     total energy              =   -1939.05976115 Ry
     estimated scf accuracy    <       0.00000117 Ry

     iteration #  7     ecut=   100.00 Ry     beta= 0.30
     Davidson diagonalization with overlap
     ethr =  1.82E-10,  avg # of iterations =  2.0

     negative rho (up, down):  1.188E-08 0.000E+00

     total cpu time spent up to now is      816.2 secs

     total energy              =   -1939.05976125 Ry
     estimated scf accuracy    <       0.00000027 Ry

     iteration #  8     ecut=   100.00 Ry     beta= 0.30
     Davidson diagonalization with overlap
     ethr =  4.25E-11,  avg # of iterations =  4.0

     total cpu time spent up to now is      823.9 secs

     total energy              =   -1939.05976128 Ry
     estimated scf accuracy    <       0.00000010 Ry

     iteration #  9     ecut=   100.00 Ry     beta= 0.30
     Davidson diagonalization with overlap
     ethr =  1.58E-11,  avg # of iterations =  2.0

     total cpu time spent up to now is      830.8 secs

     total energy              =   -1939.05976129 Ry
     estimated scf accuracy    <       0.00000008 Ry

     iteration # 10     ecut=   100.00 Ry     beta= 0.30
     Davidson diagonalization with overlap
     ethr =  1.25E-11,  avg # of iterations =  2.0

     total cpu time spent up to now is      837.7 secs

     total energy              =   -1939.05976129 Ry
     estimated scf accuracy    <          7.5E-09 Ry

     iteration # 11     ecut=   100.00 Ry     beta= 0.30
     Davidson diagonalization with overlap
     ethr =  1.17E-12,  avg # of iterations =  5.0

     total cpu time spent up to now is      846.9 secs

     total energy              =   -1939.05976130 Ry
     estimated scf accuracy    <          1.2E-09 Ry

     iteration # 12     ecut=   100.00 Ry     beta= 0.30
     Davidson diagonalization with overlap
     ethr =  1.82E-13,  avg # of iterations =  4.0

     total cpu time spent up to now is      854.9 secs

     total energy              =   -1939.05976130 Ry
     estimated scf accuracy    <          1.4E-09 Ry

     iteration # 13     ecut=   100.00 Ry     beta= 0.30
     Davidson diagonalization with overlap
     ethr =  1.82E-13,  avg # of iterations =  2.0

     total cpu time spent up to now is      862.0 secs

     total energy              =   -1939.05976130 Ry
     estimated scf accuracy    <          1.7E-09 Ry

     iteration # 14     ecut=   100.00 Ry     beta= 0.30
     Davidson diagonalization with overlap
     ethr =  1.82E-13,  avg # of iterations =  1.0

     total cpu time spent up to now is      868.1 secs

     total energy              =   -1939.05976130 Ry
     estimated scf accuracy    <          2.2E-10 Ry

     iteration # 15     ecut=   100.00 Ry     beta= 0.30
     Davidson diagonalization with overlap
     ethr =  1.00E-13,  avg # of iterations =  1.0

     total cpu time spent up to now is      874.2 secs

     End of self-consistent calculation

          k = 0.0000 0.0000 0.0000 (385710 PWs)   bands (ev):

   -23.7902 -23.5310 -23.5248 -23.5021 -23.5016 -23.4973 -23.4500 -22.9546
   -22.9495 -22.9358 -22.9345 -22.9273 -22.8445 -22.6583 -22.6561 -22.6482
   -22.6476 -22.6438 -22.4986 -21.8304 -21.8302 -21.7987 -21.7962 -21.7927
   -21.7912 -21.7807 -21.7792 -21.7747 -21.7747 -21.7717 -21.5464 -21.2459
   -21.2304 -21.2287 -21.2148 -21.2110 -21.0248 -20.4172 -20.4168 -20.3948
   -20.3764 -20.3754 -20.3019 -20.1445 -20.1405 -20.1390 -20.1210 -20.1195
   -20.1118 -20.1117 -20.1083 -20.1077 -20.0865 -20.0827 -19.7129 -19.3394
   -19.3391 -19.3349 -19.3005 -19.3003 -19.1110 -18.5886 -18.5871 -18.5757
   -18.5417 -18.5406 -18.5391 -18.5361 -18.5348 -18.5303 -18.5065 -18.5053
   -18.4311 -18.3852 -18.3799 -18.3769 -18.3734 -18.3729 -17.7868 -17.3517
   -17.3507 -17.3500 -17.2931 -17.2867 -17.1754 -16.9072 -16.8743 -16.8722
   -16.7893 -16.6847 -16.6839 -16.6806 -16.6006 -16.6001 -16.4217 -16.1304
   -16.1075 -16.1061 -16.0881 -16.0861 -16.0785 -16.0749 -16.0742 -16.0736
   -15.9586 -15.9559 -15.5451 -15.2550 -15.2466 -15.2457 -15.2183 -15.2140
   -15.2127 -15.2076 -15.2052 -15.2046 -15.0917 -15.0859 -14.7969 -14.7917
   -14.4456 -13.9950 -13.9924 -13.9853 -13.9576 -13.9529 -13.9521 -13.9392
   -13.9386 -13.9351 -13.8571 -13.8501 -13.5756 -13.5006 -13.4488 -13.4470
   -13.4342 -13.4340 -13.4310 -13.4262 -13.4259 -13.4243 -13.2340 -13.2316
   -12.9005 -12.5267 -12.5127 -12.5103 -12.4950 -12.4701 -12.4676 -12.4528
   -12.4498 -12.4476 -12.4413 -12.4406 -12.4396 -12.4341 -12.4340 -12.4321
   -12.1712 -12.1672 -11.8735 -11.7061 -11.6709 -11.6195 -11.6183 -11.5533
   -11.5490 -11.5421 -11.5414 -11.5322 -11.5318 -11.5284 -11.4622 -11.4349
   -11.3904 -11.3380 -11.3334 -11.3215 -11.3158 -11.3142 -11.3119 -11.3107
   -11.2875 -11.1742 -11.1716 -11.1715 -11.0243 -11.0110 -11.0100 -10.8810
   -10.8765 -10.8669 -10.8633 -10.8530 -10.8526 -10.8477 -10.7580 -10.7149
   -10.6483 -10.6476 -10.6309 -10.6051 -10.6026 -10.5447 -10.5248 -10.5225
   -10.5157 -10.5139 -10.5127 -10.4947 -10.4608 -10.4575 -10.4372 -10.4331
   -10.4314 -10.4245 -10.4229 -10.3963 -10.3655 -10.2201 -10.2191 -10.1952
   -10.1117 -10.1087 -10.1083 -10.0610 -10.0583 -10.0574 -10.0123 -10.0099
    -9.9864  -9.5435  -9.5431  -9.5362  -9.5319  -9.5210  -9.5200  -9.5122
    -9.5108  -9.5042  -9.5039  -9.5029  -9.4914  -9.4896  -9.2794  -9.1356
    -9.1084  -9.1068  -9.1029  -9.0407  -9.0398  -9.0394  -9.0374  -9.0368
    -9.0235  -8.9091  -8.8932  -8.8928  -8.8856  -8.8853  -8.7361  -8.7098
    -8.6529  -8.6512  -8.4475  -8.4468  -8.4431  -8.0806  -8.0787  -7.9514
    -7.9509  -7.9415  -7.9407  -7.9344  -7.9229  -7.9137  -7.9136  -7.8746
    -7.8635  -7.7294  -7.7125  -7.7081  -7.7044  -7.6996  -7.6989  -7.6906
    -7.6897  -7.6875  -7.6863  -7.6848  -7.6809  -7.3963  -7.3938  -7.3577
    -7.0645  -7.0594  -7.0523  -7.0442  -7.0431  -6.8121  -6.3732  -6.3663
    -6.3605  -6.3588  -6.3560  -6.2582  -6.0949  -6.0923  -6.0758  -6.0749
    -6.0656  -6.0609  -6.0546  -6.0544  -6.0501  -6.0488  -6.0485  -5.0490
    -4.2647  -4.2501  -4.2499  -4.1669  -4.1155  -3.9708  -2.6702  -2.6644
    -2.6616  -2.6389  -2.6380  -2.6265  -2.5946  -2.5611  -2.5610  -2.5408
    -2.5405  -2.5369  -2.5363  -2.5348  -2.5296  -2.4732  -2.4674  -2.2110
    -2.0517  -2.0470  -2.0222  -1.9889  -1.9887  -1.5487  -0.9711  -0.9665

     the Fermi energy is    -4.2204 ev

!    total energy              =   -1939.05976129 Ry
     estimated scf accuracy    <          1.5E-11 Ry
     smearing contrib. (-TS)   =      -0.01275185 Ry
     internal energy E=F+TS    =   -1939.04700945 Ry

     The total energy is F=E-TS. E is the sum of the following terms:
     one-electron contribution =  -21953.86845979 Ry
     hartree contribution      =   11036.93521649 Ry
     xc contribution           =    -689.96844895 Ry
     ewald contribution        =    9667.85468280 Ry

     convergence has been achieved in  15 iterations

     Forces acting on atoms (cartesian axes, Ry/au):

     atom    1 type  1   force =    -0.00005701    0.00000004    0.00000000
     atom    2 type  1   force =    -0.00014782   -0.00000003    0.00000000
     atom    3 type  1   force =    -0.00008912    0.00016552   -0.00000000
     atom    4 type  1   force =    -0.00004232   -0.00000685   -0.00000000
     atom    5 type  1   force =    -0.00008140    0.00021854    0.00000000
     atom    6 type  1   force =     0.00003608    0.00018325    0.00000000
     atom    7 type  1   force =    -0.00008571    0.00004455   -0.00000001
     atom    8 type  1   force =     0.00002990    0.00050035    0.00000000
     atom    9 type  1   force =     0.00048061   -0.00029332   -0.00000001
     atom   10 type  1   force =     0.00029966    0.00004103   -0.00000000
     atom   11 type  1   force =     0.00097292   -0.00052675    0.00000000
     atom   12 type  1   force =     0.00093719   -0.00098304    0.00000001
     atom   13 type  1   force =     0.00040757   -0.00066166    0.00000000
     atom   14 type  1   force =     0.00055121   -0.00145062    0.00000001
     atom   15 type  1   force =     0.00005078   -0.00127289   -0.00000001
     atom   16 type  1   force =    -0.00008831   -0.00065586    0.00000001
     atom   17 type  1   force =    -0.00005686   -0.00070517    0.00000001
     atom   18 type  1   force =    -0.00042460    0.00002436   -0.00000001
     atom   19 type  1   force =    -0.00008910   -0.00016552   -0.00000000
     atom   20 type  1   force =    -0.00004237    0.00000681   -0.00000000
     atom   21 type  1   force =    -0.00002032    0.00000003    0.00000000
     atom   22 type  1   force =     0.00002615   -0.00000002   -0.00000001
     atom   23 type  1   force =     0.00027607   -0.00002753   -0.00000000
     atom   24 type  1   force =    -0.00014573    0.00014160   -0.00000001
     atom   25 type  1   force =     0.00085353   -0.00014982    0.00000000
     atom   26 type  1   force =     0.00025544    0.00054150    0.00000001
     atom   27 type  1   force =    -0.00039445   -0.00021674   -0.00000001
     atom   28 type  1   force =     0.00098013    0.00056488    0.00000000
     atom   29 type  1   force =    -0.00053855   -0.00033440    0.00000001
     atom   30 type  1   force =     0.00031402   -0.00065158   -0.00000000
     atom   31 type  1   force =     0.00036752    0.00005385    0.00000001
     atom   32 type  1   force =    -0.00086186   -0.00125145   -0.00000001
     atom   33 type  1   force =     0.00021707   -0.00024693   -0.00000001
     atom   34 type  1   force =    -0.00055359   -0.00065830    0.00000001
     atom   35 type  1   force =    -0.00037967   -0.00112945    0.00000000
     atom   36 type  1   force =    -0.00019951   -0.00008449    0.00000000
     atom   37 type  1   force =    -0.00008138   -0.00021852   -0.00000001
     atom   38 type  1   force =     0.00003606   -0.00018330    0.00000001
     atom   39 type  1   force =     0.00027606    0.00002757   -0.00000001
     atom   40 type  1   force =    -0.00014575   -0.00014158    0.00000001
     atom   41 type  1   force =     0.00070643    0.00000000    0.00000000
     atom   42 type  1   force =     0.00021173   -0.00000003   -0.00000000
     atom   43 type  1   force =    -0.00053640   -0.00055357    0.00000000
     atom   44 type  1   force =    -0.00013344    0.00051949    0.00000000
     atom   45 type  1   force =    -0.00062841   -0.00082099   -0.00000001
     atom   46 type  1   force =    -0.00039381   -0.00077785    0.00000000
     atom   47 type  1   force =     0.00014730   -0.00121053    0.00000000
     atom   48 type  1   force =     0.00062749   -0.00139082   -0.00000000
     atom   49 type  1   force =     0.00052714   -0.00098608   -0.00000000
     atom   50 type  1   force =    -0.00059982   -0.00060057   -0.00000001
     atom   51 type  1   force =     0.00039424   -0.00033259   -0.00000000
     atom   52 type  1   force =    -0.00049187   -0.00058796    0.00000000
     atom   53 type  1   force =    -0.00058279   -0.00084175    0.00000000
     atom   54 type  1   force =     0.00000881   -0.00016341    0.00000000
     atom   55 type  1   force =    -0.00008573   -0.00004450   -0.00000000
     atom   56 type  1   force =     0.00002989   -0.00050037    0.00000000
     atom   57 type  1   force =     0.00085354    0.00014982   -0.00000000
     atom   58 type  1   force =     0.00025546   -0.00054154    0.00000000
     atom   59 type  1   force =    -0.00053646    0.00055365    0.00000001
     atom   60 type  1   force =    -0.00013340   -0.00051944   -0.00000001
     atom   61 type  1   force =    -0.00003387   -0.00000005    0.00000001
     atom   62 type  1   force =    -0.00096220    0.00000005   -0.00000000
     atom   63 type  1   force =    -0.00218015    0.00106776   -0.00000000
     atom   64 type  1   force =    -0.00062052   -0.00312623    0.00000001
     atom   65 type  1   force =    -0.00025176    0.00054699   -0.00000001
     atom   66 type  1   force =     0.00016410   -0.00047675   -0.00000002
     atom   67 type  1   force =    -0.00042688   -0.00128964    0.00000001
     atom   68 type  1   force =     0.00018006   -0.00061240    0.00000000
     atom   69 type  1   force =    -0.00029891    0.00043025    0.00000000
     atom   70 type  1   force =    -0.00009885   -0.00057806    0.00000000
     atom   71 type  1   force =    -0.00065576   -0.00067403   -0.00000001
     atom   72 type  1   force =     0.00021188   -0.00027039    0.00000000
     atom   73 type  1   force =     0.00048061    0.00029337   -0.00000000
     atom   74 type  1   force =     0.00029965   -0.00004107    0.00000001
     atom   75 type  1   force =    -0.00039455    0.00021680    0.00000001
     atom   76 type  1   force =     0.00098017   -0.00056489    0.00000001
     atom   77 type  1   force =    -0.00062845    0.00082104    0.00000000
     atom   78 type  1   force =    -0.00039383    0.00077781   -0.00000001
     atom   79 type  1   force =    -0.00218035   -0.00106758    0.00000002
     atom   80 type  1   force =    -0.00062045    0.00312615    0.00000001
     atom   81 type  1   force =     0.00095087   -0.00000007   -0.00000002
     atom   82 type  1   force =     0.00277790    0.00035854    0.00000001
     atom   83 type  1   force =     0.00046717    0.00038799    0.00000000
     atom   84 type  1   force =     0.00003149    0.00031019   -0.00000002
     atom   85 type  1   force =     0.00007987   -0.00093343    0.00000000
     atom   86 type  1   force =     0.00008874    0.00044391    0.00000000
     atom   87 type  1   force =    -0.00003789   -0.00019678    0.00000000
     atom   88 type  1   force =    -0.00034971   -0.00024169   -0.00000001
     atom   89 type  1   force =     0.00006683   -0.00005506   -0.00000000
     atom   90 type  1   force =     0.00097289    0.00052678   -0.00000001
     atom   91 type  1   force =     0.00093719    0.00098299   -0.00000000
     atom   92 type  1   force =    -0.00053861    0.00033439   -0.00000002
     atom   93 type  1   force =     0.00031406    0.00065170    0.00000001
     atom   94 type  1   force =     0.00014727    0.00121036    0.00000002
     atom   95 type  1   force =     0.00062748    0.00139086    0.00000001
     atom   96 type  1   force =    -0.00025174   -0.00054698   -0.00000001
     atom   97 type  1   force =     0.00016415    0.00047670   -0.00000002
     atom   98 type  1   force =     0.00277790   -0.00035839    0.00000004
     atom   99 type  1   force =     0.00046716   -0.00038802    0.00000000
     atom  100 type  1   force =     0.00000717    0.00000004   -0.00000002
     atom  101 type  1   force =     0.00019802    0.00000004    0.00000002
     atom  102 type  1   force =     0.00058718    0.00062610   -0.00000001
     atom  103 type  1   force =    -0.00097520   -0.00021453   -0.00000001
     atom  104 type  1   force =    -0.00068427   -0.00037493   -0.00000000
     atom  105 type  1   force =     0.00007674   -0.00000120   -0.00000001
     atom  106 type  1   force =     0.00001430   -0.00002936   -0.00000000
     atom  107 type  1   force =     0.00011281   -0.00001807    0.00000000
     atom  108 type  1   force =     0.00040754    0.00066168    0.00000000
     atom  109 type  1   force =     0.00055118    0.00145057   -0.00000000
     atom  110 type  1   force =     0.00036764   -0.00005389   -0.00000001
     atom  111 type  1   force =    -0.00086198    0.00125145   -0.00000001
     atom  112 type  1   force =     0.00052723    0.00098601    0.00000000
     atom  113 type  1   force =    -0.00059986    0.00060070   -0.00000000
     atom  114 type  1   force =    -0.00042682    0.00128956    0.00000001
     atom  115 type  1   force =     0.00017999    0.00061246   -0.00000000
     atom  116 type  1   force =     0.00003156   -0.00031020   -0.00000001
     atom  117 type  1   force =     0.00007986    0.00093349   -0.00000001
     atom  118 type  1   force =     0.00058721   -0.00062617   -0.00000000
     atom  119 type  1   force =    -0.00097524    0.00021454    0.00000002
     atom  120 type  1   force =    -0.00049059    0.00000003    0.00000000
     atom  121 type  1   force =     0.00021464    0.00000000    0.00000001
     atom  122 type  1   force =     0.00001113   -0.00004298    0.00000001
     atom  123 type  1   force =     0.00002507   -0.00008410   -0.00000001
     atom  124 type  1   force =     0.00005463    0.00004902    0.00000000
     atom  125 type  1   force =    -0.00004232   -0.00005917   -0.00000000
     atom  126 type  1   force =     0.00005080    0.00127288   -0.00000000
     atom  127 type  1   force =    -0.00008837    0.00065580   -0.00000000
     atom  128 type  1   force =     0.00021718    0.00024690   -0.00000000
     atom  129 type  1   force =    -0.00055367    0.00065827   -0.00000000
     atom  130 type  1   force =     0.00039432    0.00033249   -0.00000001
     atom  131 type  1   force =    -0.00049186    0.00058803    0.00000000
     atom  132 type  1   force =    -0.00029888   -0.00043033   -0.00000000
     atom  133 type  1   force =    -0.00009884    0.00057811    0.00000000
     atom  134 type  1   force =     0.00008877   -0.00044394    0.00000000
     atom  135 type  1   force =    -0.00003791    0.00019683    0.00000000
     atom  136 type  1   force =    -0.00068427    0.00037489    0.00000001
     atom  137 type  1   force =     0.00007676    0.00000120   -0.00000000
     atom  138 type  1   force =     0.00001115    0.00004297    0.00000001
     atom  139 type  1   force =     0.00002509    0.00008411    0.00000001
     atom  140 type  1   force =    -0.00003032   -0.00000002   -0.00000000
     atom  141 type  1   force =    -0.00002323   -0.00000000   -0.00000000
     atom  142 type  1   force =     0.00002635    0.00001960   -0.00000000
     atom  143 type  1   force =    -0.00002726    0.00003746    0.00000001
     atom  144 type  1   force =    -0.00005683    0.00070518    0.00000000
     atom  145 type  1   force =    -0.00042468   -0.00002444   -0.00000000
     atom  146 type  1   force =    -0.00037964    0.00112950   -0.00000001
     atom  147 type  1   force =    -0.00019948    0.00008447    0.00000000
     atom  148 type  1   force =    -0.00058282    0.00084170   -0.00000000
     atom  149 type  1   force =     0.00000885    0.00016342    0.00000000
     atom  150 type  1   force =    -0.00065574    0.00067400    0.00000001
     atom  151 type  1   force =     0.00021189    0.00027042   -0.00000000
     atom  152 type  1   force =    -0.00034965    0.00024164    0.00000001
     atom  153 type  1   force =     0.00006682    0.00005507    0.00000001
     atom  154 type  1   force =     0.00001430    0.00002938    0.00000000
     atom  155 type  1   force =     0.00011285    0.00001805   -0.00000000
     atom  156 type  1   force =     0.00005463   -0.00004901   -0.00000000
     atom  157 type  1   force =    -0.00004234    0.00005920   -0.00000001
     atom  158 type  1   force =     0.00002634   -0.00001965    0.00000000
     atom  159 type  1   force =    -0.00002725   -0.00003740   -0.00000000
     atom  160 type  1   force =    -0.00007373   -0.00000003   -0.00000001
     atom  161 type  1   force =     0.00001759   -0.00000002   -0.00000000

     Total force =     0.011168     Total SCF correction =     0.000005
     Energy error            =      1.5E-04 Ry
     Gradient error          =      3.1E-03 Ry/Bohr

     number of scf cycles    =   6
     number of bfgs steps    =   5

     energy             old  =   -1939.0596093351 Ry
     energy             new  =   -1939.0597612949 Ry

     CASE: energy            _new < energy            _old

     new trust radius        =       0.0082526457 bohr
     new conv_thr            =            1.5E-11 Ry


ATOMIC_POSITIONS (crystal)
C                0.0370340689        0.0370340715       -0.0000000007
C                0.0740574053        0.0740574062       -0.0000000006
C                0.0369829533        0.1481761616       -0.0000000002
C                0.0740311207        0.1851994286       -0.0000000004
C                0.0369732600        0.2593003740       -0.0000000011
C                0.0740473549        0.2963346599       -0.0000000001
C                0.0370308694        0.3703708291        0.0000000010
C                0.0740728197        0.4074470200        0.0000000003
C                0.0370908471        0.4815079658        0.0000000000
C                0.0741041248        0.5185569372       -0.0000000005
C                0.0370525661        0.5926043893        0.0000000001
C                0.0741183630        0.6296380307        0.0000000008
C                0.0370682105        0.7036875381        0.0000000006
C                0.0741400671        0.7406818966       -0.0000000005
C                0.0370699622        0.8147879614       -0.0000000002
C                0.0741525205        0.8517260147        0.0000000003
C                0.0370981126        0.9258429412       -0.0000000009
C                0.0740737283        0.9629187818       -0.0000000007
C                0.1481761598        0.0369829556        0.0000000002
C                0.1851994277        0.0740311215        0.0000000003
C                0.1481474088        0.1481474101       -0.0000000005
C                0.1852083268        0.1852083266       -0.0000000009
C                0.1481859667        0.2592928737        0.0000000006
C                0.1851473380        0.2963558121        0.0000000003
C                0.1481286010        0.3704124230       -0.0000000013
C                0.1851571686        0.4074877612       -0.0000000012
C                0.1483155551        0.4815157271       -0.0000000004
C                0.1854087570        0.5185569191       -0.0000000010
C                0.1483171276        0.5926169954        0.0000000001
C                0.1853296145        0.6295479607        0.0000000005
C                0.1483344126        0.7035063984        0.0000000003
C                0.1855580814        0.7403309246        0.0000000012
C                0.1484036485        0.8145115649        0.0000000005
C                0.1852247251        0.8517323289       -0.0000000003
C                0.1481564635        0.9258837815       -0.0000000009
C                0.1851533707        0.9629182498        0.0000000002
C                0.2593003741        0.0369732613        0.0000000008
C                0.2963346607        0.0740473555        0.0000000009
C                0.2592928740        0.1481859675        0.0000000003
C                0.2963558125        0.1851473381        0.0000000003
C                0.2593512552        0.2593512541       -0.0000000001
C                0.2963004279        0.2963004255        0.0000000005
C                0.2592508767        0.3704772915        0.0000000003
C                0.2960832789        0.4074875521        0.0000000009
C                0.2596277691        0.4813667224        0.0000000003
C                0.2966708538        0.5185322879        0.0000000010
C                0.2598084024        0.5922595107        0.0000000007
C                0.2970843831        0.6287433206        0.0000000021
C                0.2598951901        0.7031325502        0.0000000010
C                0.2962401380        0.7406366732        0.0000000002
C                0.2593164421        0.8146095176        0.0000000006
C                0.2963071758        0.8517910037       -0.0000000001
C                0.2593550256        0.9257219957       -0.0000000004
C                0.2963653558        0.9629284835        0.0000000004
C                0.3703708294        0.0370308704        0.0000000001
C                0.4074470210        0.0740728199       -0.0000000010
C                0.3704124236        0.1481286011       -0.0000000013
C                0.4074877638        0.1851571674       -0.0000000016
C                0.3704772939        0.2592508757       -0.0000000012
C                0.4074875538        0.2960832787        0.0000000006
C                0.3703616402        0.3703616387        0.0000000002
C                0.4068589148        0.4068589093       -0.0000000009
C                0.3718114306        0.4807499418        0.0000000014
C                0.4060751184        0.5184387583        0.0000000012
C                0.3724905176        0.5909081132        0.0000000017
C                0.4072276376        0.6301201090        0.0000000024
C                0.3705425342        0.7033262748        0.0000000012
C                0.4075303873        0.7407083279       -0.0000000007
C                0.3705007879        0.8146249769       -0.0000000007
C                0.4074801347        0.8517430115       -0.0000000011
C                0.3704042435        0.9258954921       -0.0000000005
C                0.4074362144        0.9629188049       -0.0000000008
C                0.4815079669        0.0370908479        0.0000000002
C                0.5185569389        0.0741041252       -0.0000000006
C                0.4815157282        0.1483155564       -0.0000000013
C                0.5185569205        0.1854087582       -0.0000000000
C                0.4813667240        0.2596277687        0.0000000010
C                0.5185322894        0.2966708554       -0.0000000001
C                0.4807499447        0.3718114308        0.0000000003
C                0.5184387576        0.4060751284        0.0000000022
C                0.5200086395        0.5200086321        0.0000000020
C                0.4812376083        0.5918031018        0.0000000001
C                0.5187325299        0.6293261585       -0.0000000012
C                0.4814097170        0.7035117446       -0.0000000010
C                0.5185538439        0.7405423126       -0.0000000018
C                0.4815099750        0.8146396639       -0.0000000015
C                0.5185654844        0.8517963909       -0.0000000005
C                0.4815159600        0.9258606867       -0.0000000005
C                0.5185469203        0.9629448614       -0.0000000000
C                0.5926043898        0.0370525672       -0.0000000002
C                0.6296380311        0.0741183647       -0.0000000008
C                0.5926169965        0.1483171272       -0.0000000006
C                0.6295479610        0.1853296147       -0.0000000003
C                0.5922595132        0.2598084013        0.0000000008
C                0.6287433202        0.2970843831        0.0000000003
C                0.5909081152        0.3724905164        0.0000000007
C                0.6301201113        0.4072276352       -0.0000000008
C                0.5918031046        0.4812376088       -0.0000000005
C                0.6293261612        0.5187325278       -0.0000000001
C                0.5924710243        0.5924710237       -0.0000000004
C                0.6296526456        0.6296526447       -0.0000000017
C                0.5926446448        0.7035798452       -0.0000000009
C                0.6296480919        0.7407003118        0.0000000006
C                0.5925971878        0.8148156380       -0.0000000004
C                0.6296422447        0.8518356269        0.0000000002
C                0.5925880989        0.9259263599       -0.0000000003
C                0.6296509559        0.9629655078        0.0000000003
C                0.7036875367        0.0370682135       -0.0000000005
C                0.7406818958        0.0741400695       -0.0000000002
C                0.7035064002        0.1483344132       -0.0000000001
C                0.7403309233        0.1855580827        0.0000000002
C                0.7031325525        0.2598951888       -0.0000000015
C                0.7406366730        0.2962401371       -0.0000000011
C                0.7033262779        0.3705425315       -0.0000000007
C                0.7407083282        0.4075303864        0.0000000003
C                0.7035117477        0.4814097145       -0.0000000003
C                0.7405423136        0.5185538420        0.0000000008
C                0.7035798468        0.5926446429        0.0000000013
C                0.7407003114        0.6296480909        0.0000000018
C                0.7036953706        0.7036953706        0.0000000026
C                0.7407729390        0.7407729403        0.0000000004
C                0.7037249200        0.8148058489        0.0000000003
C                0.7407417249        0.8518440322        0.0000000008
C                0.7037149530        0.9259306206       -0.0000000004
C                0.7407618252        0.9629075020       -0.0000000008
C                0.8147879603        0.0370699648        0.0000000001
C                0.8517260130        0.0741525220       -0.0000000001
C                0.8145115640        0.1484036509        0.0000000000
C                0.8517323270        0.1852247258        0.0000000008
C                0.8146095195        0.2593164412        0.0000000002
C                0.8517910027        0.2963071764       -0.0000000003
C                0.8146249786        0.3705007866       -0.0000000001
C                0.8517430105        0.4074801342       -0.0000000000
C                0.8146396644        0.4815099736        0.0000000006
C                0.8517963897        0.5185654846        0.0000000007
C                0.8148156382        0.5925971868        0.0000000012
C                0.8518356262        0.6296422451        0.0000000007
C                0.8148058486        0.7037249203       -0.0000000000
C                0.8518440309        0.7407417258       -0.0000000017
C                0.8148134949        0.8148134962       -0.0000000011
C                0.8518543165        0.8518543183        0.0000000001
C                0.8148145296        0.9259222074        0.0000000001
C                0.8518333126        0.9629571017        0.0000000001
C                0.9258429393        0.0370981151       -0.0000000009
C                0.9629187800        0.0740737297        0.0000000005
C                0.9258837796        0.1481564659        0.0000000005
C                0.9629182483        0.1851533717        0.0000000005
C                0.9257219945        0.2593550255       -0.0000000001
C                0.9629284825        0.2963653559       -0.0000000005
C                0.9258954917        0.3704042421       -0.0000000003
C                0.9629188043        0.4074362136        0.0000000006
C                0.9258606869        0.4815159591        0.0000000014
C                0.9629448611        0.5185469195        0.0000000013
C                0.9259263593        0.5925880985        0.0000000008
C                0.9629655070        0.6296509560        0.0000000004
C                0.9259306196        0.7037149533       -0.0000000012
C                0.9629074994        0.7407618270       -0.0000000014
C                0.9259222062        0.8148145307       -0.0000000008
C                0.9629570989        0.8518333147       -0.0000000002
C                0.9259256488        0.9259256499        0.0000000001
C                0.9629519475        0.9629519486       -0.0000000011



     Writing config-only to output data dir /home/gregb26/links/scratch/qe_tmp/vacancy_relaxed/nspin1/vac_9x9_relax_nspin1.save/ :
     XML data file
     NEW-OLD atomic charge density approx. for the potential

     negative rho (up, down):  1.280E-06 0.000E+00

     total cpu time spent up to now is      877.4 secs

     per-process dynamical memory:   351.9 Mb

     Self-consistent Calculation

     iteration #  1     ecut=   100.00 Ry     beta= 0.30
     Davidson diagonalization with overlap
     ethr =  1.00E-06,  avg # of iterations =  5.0

     Threshold (ethr) on eigenvalues was too large:
     Diagonalizing with lowered threshold

     Davidson diagonalization with overlap
     ethr =  3.96E-08,  avg # of iterations =  4.0

     negative rho (up, down):  8.361E-07 0.000E+00

     total cpu time spent up to now is      896.4 secs

     total energy              =   -1939.05980157 Ry
     estimated scf accuracy    <       0.00027169 Ry

     iteration #  2     ecut=   100.00 Ry     beta= 0.30
     Davidson diagonalization with overlap
     ethr =  4.22E-08,  avg # of iterations =  5.0

     negative rho (up, down):  7.895E-07 0.000E+00

     total cpu time spent up to now is      904.2 secs

     total energy              =   -1939.05965327 Ry
     estimated scf accuracy    <       0.00516152 Ry

     iteration #  3     ecut=   100.00 Ry     beta= 0.30
     Davidson diagonalization with overlap
     ethr =  4.22E-08,  avg # of iterations =  5.0

     negative rho (up, down):  7.375E-07 0.000E+00

     total cpu time spent up to now is      911.5 secs

     total energy              =   -1939.05976513 Ry
     estimated scf accuracy    <       0.00526678 Ry

     iteration #  4     ecut=   100.00 Ry     beta= 0.30
     Davidson diagonalization with overlap
     ethr =  4.22E-08,  avg # of iterations =  2.0

     negative rho (up, down):  3.965E-07 0.000E+00

     total cpu time spent up to now is      918.4 secs

     total energy              =   -1939.05988278 Ry
     estimated scf accuracy    <       0.00002955 Ry

     iteration #  5     ecut=   100.00 Ry     beta= 0.30
     Davidson diagonalization with overlap
     ethr =  4.59E-09,  avg # of iterations =  5.0

     negative rho (up, down):  1.120E-07 0.000E+00

     total cpu time spent up to now is      925.7 secs

     total energy              =   -1939.05988342 Ry
     estimated scf accuracy    <       0.00000744 Ry

     iteration #  6     ecut=   100.00 Ry     beta= 0.30
     Davidson diagonalization with overlap
     ethr =  1.16E-09,  avg # of iterations =  2.0

     negative rho (up, down):  3.966E-08 0.000E+00

     total cpu time spent up to now is      932.8 secs

     total energy              =   -1939.05988390 Ry
     estimated scf accuracy    <       0.00000197 Ry

     iteration #  7     ecut=   100.00 Ry     beta= 0.30
     Davidson diagonalization with overlap
     ethr =  3.06E-10,  avg # of iterations =  5.0

     negative rho (up, down):  1.116E-08 0.000E+00

     total cpu time spent up to now is      940.1 secs

     total energy              =   -1939.05988404 Ry
     estimated scf accuracy    <       0.00000014 Ry

     iteration #  8     ecut=   100.00 Ry     beta= 0.30
     Davidson diagonalization with overlap
     ethr =  2.24E-11,  avg # of iterations =  5.0

     total cpu time spent up to now is      950.0 secs

     total energy              =   -1939.05988408 Ry
     estimated scf accuracy    <       0.00000004 Ry

     iteration #  9     ecut=   100.00 Ry     beta= 0.30
     Davidson diagonalization with overlap
     ethr =  6.00E-12,  avg # of iterations =  4.0

     total cpu time spent up to now is      957.3 secs

     total energy              =   -1939.05988408 Ry
     estimated scf accuracy    <       0.00000003 Ry

     iteration # 10     ecut=   100.00 Ry     beta= 0.30
     Davidson diagonalization with overlap
     ethr =  4.01E-12,  avg # of iterations =  2.0

     total cpu time spent up to now is      964.3 secs

     total energy              =   -1939.05988408 Ry
     estimated scf accuracy    <       0.00000003 Ry

     iteration # 11     ecut=   100.00 Ry     beta= 0.30
     Davidson diagonalization with overlap
     ethr =  4.01E-12,  avg # of iterations =  2.0

     total cpu time spent up to now is      971.0 secs

     total energy              =   -1939.05988408 Ry
     estimated scf accuracy    <          1.6E-09 Ry

     iteration # 12     ecut=   100.00 Ry     beta= 0.30
     Davidson diagonalization with overlap
     ethr =  2.50E-13,  avg # of iterations =  5.0

     total cpu time spent up to now is      979.8 secs

     total energy              =   -1939.05988408 Ry
     estimated scf accuracy    <          2.5E-10 Ry

     iteration # 13     ecut=   100.00 Ry     beta= 0.30
     Davidson diagonalization with overlap
     ethr =  1.00E-13,  avg # of iterations =  2.0

     total cpu time spent up to now is      986.7 secs

     total energy              =   -1939.05988408 Ry
     estimated scf accuracy    <          1.2E-10 Ry

     iteration # 14     ecut=   100.00 Ry     beta= 0.30
     Davidson diagonalization with overlap
     ethr =  1.00E-13,  avg # of iterations =  2.0

     total cpu time spent up to now is      993.5 secs

     total energy              =   -1939.05988408 Ry
     estimated scf accuracy    <          5.9E-11 Ry

     iteration # 15     ecut=   100.00 Ry     beta= 0.30
     Davidson diagonalization with overlap
     ethr =  1.00E-13,  avg # of iterations =  1.0

     total cpu time spent up to now is      999.6 secs

     End of self-consistent calculation

          k = 0.0000 0.0000 0.0000 (385710 PWs)   bands (ev):

   -23.7904 -23.5340 -23.5264 -23.5010 -23.5000 -23.4957 -23.4529 -22.9559
   -22.9503 -22.9363 -22.9347 -22.9274 -22.8441 -22.6582 -22.6562 -22.6483
   -22.6480 -22.6449 -22.4986 -21.8328 -21.8326 -21.8003 -21.7987 -21.7924
   -21.7918 -21.7798 -21.7779 -21.7742 -21.7742 -21.7696 -21.5457 -21.2462
   -21.2310 -21.2290 -21.2154 -21.2110 -21.0247 -20.4185 -20.4178 -20.3957
   -20.3766 -20.3754 -20.3010 -20.1451 -20.1405 -20.1388 -20.1214 -20.1200
   -20.1121 -20.1117 -20.1092 -20.1077 -20.0864 -20.0821 -19.7120 -19.3399
   -19.3398 -19.3352 -19.3006 -19.3005 -19.1104 -18.5903 -18.5886 -18.5797
   -18.5415 -18.5399 -18.5380 -18.5353 -18.5337 -18.5303 -18.5067 -18.5052
   -18.4313 -18.3858 -18.3797 -18.3768 -18.3732 -18.3724 -17.7874 -17.3520
   -17.3508 -17.3501 -17.2932 -17.2859 -17.1749 -16.9083 -16.8746 -16.8724
   -16.7896 -16.6845 -16.6834 -16.6806 -16.6012 -16.6007 -16.4212 -16.1306
   -16.1081 -16.1065 -16.0891 -16.0874 -16.0787 -16.0748 -16.0741 -16.0732
   -15.9589 -15.9555 -15.5448 -15.2559 -15.2469 -15.2459 -15.2176 -15.2147
   -15.2132 -15.2085 -15.2050 -15.2043 -15.0932 -15.0866 -14.7970 -14.7910
   -14.4450 -13.9964 -13.9938 -13.9856 -13.9581 -13.9526 -13.9518 -13.9393
   -13.9390 -13.9348 -13.8582 -13.8501 -13.5764 -13.5027 -13.4498 -13.4479
   -13.4340 -13.4339 -13.4299 -13.4246 -13.4243 -13.4232 -13.2358 -13.2331
   -12.8997 -12.5268 -12.5134 -12.5112 -12.4975 -12.4715 -12.4684 -12.4527
   -12.4507 -12.4483 -12.4416 -12.4407 -12.4400 -12.4333 -12.4332 -12.4312
   -12.1713 -12.1668 -11.8736 -11.7065 -11.6730 -11.6197 -11.6182 -11.5555
   -11.5503 -11.5418 -11.5406 -11.5312 -11.5304 -11.5270 -11.4645 -11.4316
   -11.3905 -11.3394 -11.3344 -11.3221 -11.3166 -11.3157 -11.3115 -11.3094
   -11.2884 -11.1749 -11.1723 -11.1718 -11.0257 -11.0118 -11.0108 -10.8806
   -10.8750 -10.8678 -10.8638 -10.8533 -10.8527 -10.8477 -10.7577 -10.7161
   -10.6487 -10.6481 -10.6306 -10.6070 -10.6038 -10.5433 -10.5249 -10.5225
   -10.5160 -10.5143 -10.5134 -10.4969 -10.4609 -10.4573 -10.4379 -10.4325
   -10.4307 -10.4246 -10.4227 -10.3964 -10.3654 -10.2201 -10.2192 -10.1940
   -10.1124 -10.1088 -10.1088 -10.0618 -10.0586 -10.0583 -10.0128 -10.0098
    -9.9860  -9.5454  -9.5446  -9.5374  -9.5325  -9.5219  -9.5206  -9.5115
    -9.5097  -9.5038  -9.5035  -9.5013  -9.4920  -9.4897  -9.2787  -9.1379
    -9.1087  -9.1060  -9.1023  -9.0406  -9.0398  -9.0389  -9.0370  -9.0363
    -9.0227  -8.9092  -8.8935  -8.8933  -8.8858  -8.8855  -8.7317  -8.7097
    -8.6553  -8.6538  -8.4469  -8.4458  -8.4441  -8.0805  -8.0773  -7.9522
    -7.9515  -7.9418  -7.9409  -7.9347  -7.9237  -7.9146  -7.9145  -7.8737
    -7.8627  -7.7170  -7.7128  -7.7080  -7.7034  -7.6993  -7.6985  -7.6912
    -7.6904  -7.6878  -7.6866  -7.6849  -7.6812  -7.3962  -7.3936  -7.3569
    -7.0648  -7.0591  -7.0524  -7.0448  -7.0435  -6.8114  -6.3741  -6.3661
    -6.3609  -6.3591  -6.3562  -6.2585  -6.0948  -6.0919  -6.0766  -6.0756
    -6.0677  -6.0605  -6.0533  -6.0532  -6.0501  -6.0484  -6.0478  -5.0482
    -4.2654  -4.2498  -4.2497  -4.1692  -4.1094  -3.9704  -2.6699  -2.6641
    -2.6606  -2.6391  -2.6379  -2.6268  -2.5943  -2.5618  -2.5616  -2.5409
    -2.5405  -2.5367  -2.5363  -2.5342  -2.5291  -2.4744  -2.4675  -2.2111
    -2.0512  -2.0460  -2.0220  -1.9893  -1.9890  -1.5479  -0.9714  -0.9663

     the Fermi energy is    -4.2204 ev

!    total energy              =   -1939.05988408 Ry
     estimated scf accuracy    <          1.5E-11 Ry
     smearing contrib. (-TS)   =      -0.01266453 Ry
     internal energy E=F+TS    =   -1939.04721955 Ry

     The total energy is F=E-TS. E is the sum of the following terms:
     one-electron contribution =  -21953.93973223 Ry
     hartree contribution      =   11036.97025957 Ry
     xc contribution           =    -689.97334129 Ry
     ewald contribution        =    9667.89559440 Ry

     convergence has been achieved in  15 iterations

     Forces acting on atoms (cartesian axes, Ry/au):

     atom    1 type  1   force =    -0.00036352   -0.00000003    0.00000000
     atom    2 type  1   force =    -0.00003282    0.00000003    0.00000000
     atom    3 type  1   force =    -0.00012734    0.00001946   -0.00000000
     atom    4 type  1   force =    -0.00006689    0.00007790   -0.00000000
     atom    5 type  1   force =     0.00000978    0.00012904    0.00000001
     atom    6 type  1   force =    -0.00003252    0.00005336    0.00000000
     atom    7 type  1   force =     0.00000993    0.00029929   -0.00000001
     atom    8 type  1   force =     0.00038206   -0.00020371   -0.00000000
     atom    9 type  1   force =     0.00000688    0.00033047    0.00000000
     atom   10 type  1   force =     0.00011033    0.00001063    0.00000000
     atom   11 type  1   force =     0.00091086   -0.00019209    0.00000000
     atom   12 type  1   force =     0.00028714   -0.00025025   -0.00000001
     atom   13 type  1   force =     0.00051350   -0.00080495   -0.00000001
     atom   14 type  1   force =     0.00011729   -0.00056362    0.00000001
     atom   15 type  1   force =    -0.00013073   -0.00107630    0.00000000
     atom   16 type  1   force =    -0.00009793   -0.00035213   -0.00000000
     atom   17 type  1   force =    -0.00026555    0.00002695    0.00000000
     atom   18 type  1   force =    -0.00008428   -0.00067756   -0.00000000
     atom   19 type  1   force =    -0.00012735   -0.00001953   -0.00000000
     atom   20 type  1   force =    -0.00006685   -0.00007788   -0.00000000
     atom   21 type  1   force =    -0.00003262   -0.00000003    0.00000000
     atom   22 type  1   force =     0.00011284    0.00000001    0.00000001
     atom   23 type  1   force =    -0.00009369    0.00009788   -0.00000001
     atom   24 type  1   force =     0.00053947   -0.00012579   -0.00000000
     atom   25 type  1   force =     0.00018004    0.00032929    0.00000001
     atom   26 type  1   force =     0.00003860   -0.00043291    0.00000001
     atom   27 type  1   force =    -0.00007512    0.00047416   -0.00000000
     atom   28 type  1   force =    -0.00079874   -0.00012950    0.00000001
     atom   29 type  1   force =    -0.00004318   -0.00008594   -0.00000000
     atom   30 type  1   force =    -0.00041007    0.00020511   -0.00000001
     atom   31 type  1   force =     0.00005972   -0.00024854    0.00000000
     atom   32 type  1   force =     0.00023878    0.00010942   -0.00000000
     atom   33 type  1   force =    -0.00032894   -0.00019935    0.00000000
     atom   34 type  1   force =     0.00018409   -0.00069144    0.00000001
     atom   35 type  1   force =    -0.00044925   -0.00054257    0.00000000
     atom   36 type  1   force =    -0.00032683   -0.00074468   -0.00000000
     atom   37 type  1   force =     0.00000975   -0.00012905   -0.00000000
     atom   38 type  1   force =    -0.00003253   -0.00005334    0.00000000
     atom   39 type  1   force =    -0.00009371   -0.00009791    0.00000000
     atom   40 type  1   force =     0.00053949    0.00012578   -0.00000001
     atom   41 type  1   force =    -0.00031252    0.00000001    0.00000001
     atom   42 type  1   force =    -0.00028918    0.00000001   -0.00000000
     atom   43 type  1   force =    -0.00017342    0.00006634   -0.00000000
     atom   44 type  1   force =    -0.00120005   -0.00030104   -0.00000000
     atom   45 type  1   force =     0.00008698    0.00030092   -0.00000001
     atom   46 type  1   force =    -0.00093384   -0.00061382    0.00000000
     atom   47 type  1   force =     0.00010124   -0.00066300    0.00000001
     atom   48 type  1   force =     0.00054310   -0.00107545   -0.00000001
     atom   49 type  1   force =    -0.00039534   -0.00088423    0.00000000
     atom   50 type  1   force =     0.00047579   -0.00006467    0.00000001
     atom   51 type  1   force =    -0.00012793   -0.00045449   -0.00000000
     atom   52 type  1   force =    -0.00008738   -0.00006295   -0.00000000
     atom   53 type  1   force =    -0.00022605   -0.00019799    0.00000001
     atom   54 type  1   force =    -0.00054013   -0.00052942   -0.00000000
     atom   55 type  1   force =     0.00000992   -0.00029932   -0.00000001
     atom   56 type  1   force =     0.00038206    0.00020373    0.00000001
     atom   57 type  1   force =     0.00018006   -0.00032932    0.00000000
     atom   58 type  1   force =     0.00003860    0.00043298    0.00000000
     atom   59 type  1   force =    -0.00017343   -0.00006636    0.00000001
     atom   60 type  1   force =    -0.00120006    0.00030100   -0.00000000
     atom   61 type  1   force =     0.00064855   -0.00000002    0.00000000
     atom   62 type  1   force =    -0.00139193   -0.00000004    0.00000001
     atom   63 type  1   force =    -0.00111630    0.00102406   -0.00000001
     atom   64 type  1   force =     0.00005226   -0.00496490   -0.00000000
     atom   65 type  1   force =    -0.00088684   -0.00047588    0.00000000
     atom   66 type  1   force =     0.00006040   -0.00053645   -0.00000001
     atom   67 type  1   force =    -0.00052733   -0.00136792   -0.00000000
     atom   68 type  1   force =     0.00025249    0.00038267   -0.00000000
     atom   69 type  1   force =    -0.00011628   -0.00022171   -0.00000000
     atom   70 type  1   force =    -0.00040057    0.00007745    0.00000000
     atom   71 type  1   force =    -0.00006245   -0.00038774   -0.00000000
     atom   72 type  1   force =    -0.00049853   -0.00026081    0.00000001
     atom   73 type  1   force =     0.00000687   -0.00033049   -0.00000001
     atom   74 type  1   force =     0.00011033   -0.00001060    0.00000000
     atom   75 type  1   force =    -0.00007512   -0.00047423    0.00000001
     atom   76 type  1   force =    -0.00079874    0.00012951   -0.00000001
     atom   77 type  1   force =     0.00008714   -0.00030092   -0.00000000
     atom   78 type  1   force =    -0.00093384    0.00061378    0.00000001
     atom   79 type  1   force =    -0.00111605   -0.00102416    0.00000000
     atom   80 type  1   force =     0.00005223    0.00496489   -0.00000001
     atom   81 type  1   force =     0.00005440    0.00000005   -0.00000000
     atom   82 type  1   force =     0.00229353   -0.00022034    0.00000001
     atom   83 type  1   force =     0.00070132    0.00053627    0.00000000
     atom   84 type  1   force =     0.00053225   -0.00046914   -0.00000001
     atom   85 type  1   force =     0.00065523    0.00056483    0.00000001
     atom   86 type  1   force =     0.00030152   -0.00013826   -0.00000000
     atom   87 type  1   force =     0.00006978   -0.00002940   -0.00000001
     atom   88 type  1   force =     0.00033879   -0.00008947   -0.00000000
     atom   89 type  1   force =    -0.00003070    0.00012845    0.00000000
     atom   90 type  1   force =     0.00091087    0.00019205   -0.00000000
     atom   91 type  1   force =     0.00028710    0.00025025   -0.00000000
     atom   92 type  1   force =    -0.00004308    0.00008599    0.00000001
     atom   93 type  1   force =    -0.00040999   -0.00020510    0.00000000
     atom   94 type  1   force =     0.00010128    0.00066312   -0.00000001
     atom   95 type  1   force =     0.00054323    0.00107546    0.00000000
     atom   96 type  1   force =    -0.00088693    0.00047603   -0.00000001
     atom   97 type  1   force =     0.00006035    0.00053634   -0.00000000
     atom   98 type  1   force =     0.00229345    0.00022008    0.00000001
     atom   99 type  1   force =     0.00070136   -0.00053624    0.00000000
     atom  100 type  1   force =     0.00034471   -0.00000006   -0.00000001
     atom  101 type  1   force =     0.00113506   -0.00000000    0.00000000
     atom  102 type  1   force =     0.00036617    0.00009340   -0.00000001
     atom  103 type  1   force =     0.00008188   -0.00004323   -0.00000000
     atom  104 type  1   force =    -0.00036632   -0.00043202    0.00000000
     atom  105 type  1   force =    -0.00054744   -0.00014785   -0.00000000
     atom  106 type  1   force =     0.00005867    0.00009040    0.00000000
     atom  107 type  1   force =     0.00061684    0.00053288   -0.00000001
     atom  108 type  1   force =     0.00051350    0.00080489   -0.00000000
     atom  109 type  1   force =     0.00011730    0.00056363    0.00000000
     atom  110 type  1   force =     0.00005965    0.00024865    0.00000000
     atom  111 type  1   force =     0.00023886   -0.00010942   -0.00000001
     atom  112 type  1   force =    -0.00039541    0.00088443    0.00000001
     atom  113 type  1   force =     0.00047582    0.00006459    0.00000000
     atom  114 type  1   force =    -0.00052743    0.00136808    0.00000000
     atom  115 type  1   force =     0.00025249   -0.00038276   -0.00000001
     atom  116 type  1   force =     0.00053222    0.00046920    0.00000001
     atom  117 type  1   force =     0.00065525   -0.00056483   -0.00000000
     atom  118 type  1   force =     0.00036614   -0.00009337   -0.00000001
     atom  119 type  1   force =     0.00008192    0.00004322    0.00000000
     atom  120 type  1   force =    -0.00058636   -0.00000001   -0.00000001
     atom  121 type  1   force =    -0.00056059   -0.00000003    0.00000000
     atom  122 type  1   force =     0.00005272    0.00003537    0.00000001
     atom  123 type  1   force =     0.00001099   -0.00001708   -0.00000001
     atom  124 type  1   force =     0.00004709    0.00009125    0.00000001
     atom  125 type  1   force =     0.00042904    0.00073280    0.00000000
     atom  126 type  1   force =    -0.00013077    0.00107630   -0.00000000
     atom  127 type  1   force =    -0.00009788    0.00035217   -0.00000000
     atom  128 type  1   force =    -0.00032904    0.00019935    0.00000001
     atom  129 type  1   force =     0.00018418    0.00069143   -0.00000001
     atom  130 type  1   force =    -0.00012799    0.00045460   -0.00000000
     atom  131 type  1   force =    -0.00008739    0.00006289    0.00000000
     atom  132 type  1   force =    -0.00011635    0.00022181    0.00000000
     atom  133 type  1   force =    -0.00040053   -0.00007750   -0.00000000
     atom  134 type  1   force =     0.00030151    0.00013829    0.00000000
     atom  135 type  1   force =     0.00006979    0.00002933    0.00000000
     atom  136 type  1   force =    -0.00036630    0.00043206   -0.00000000
     atom  137 type  1   force =    -0.00054747    0.00014783    0.00000001
     atom  138 type  1   force =     0.00005271   -0.00003535   -0.00000001
     atom  139 type  1   force =     0.00001100    0.00001707    0.00000001
     atom  140 type  1   force =     0.00000727   -0.00000001    0.00000002
     atom  141 type  1   force =     0.00002209   -0.00000001   -0.00000000
     atom  142 type  1   force =     0.00011492    0.00002926    0.00000000
     atom  143 type  1   force =     0.00021805    0.00084366   -0.00000000
     atom  144 type  1   force =    -0.00026559   -0.00002698    0.00000000
     atom  145 type  1   force =    -0.00008426    0.00067760   -0.00000001
     atom  146 type  1   force =    -0.00044931    0.00054253   -0.00000000
     atom  147 type  1   force =    -0.00032684    0.00074469   -0.00000000
     atom  148 type  1   force =    -0.00022601    0.00019801   -0.00000000
     atom  149 type  1   force =    -0.00054016    0.00052940    0.00000000
     atom  150 type  1   force =    -0.00006241    0.00038777    0.00000000
     atom  151 type  1   force =    -0.00049853    0.00026081    0.00000000
     atom  152 type  1   force =     0.00033876    0.00008951   -0.00000000
     atom  153 type  1   force =    -0.00003071   -0.00012844   -0.00000000
     atom  154 type  1   force =     0.00005868   -0.00009040    0.00000000
     atom  155 type  1   force =     0.00061683   -0.00053287   -0.00000001
     atom  156 type  1   force =     0.00004708   -0.00009124    0.00000000
     atom  157 type  1   force =     0.00042904   -0.00073283    0.00000001
     atom  158 type  1   force =     0.00011490   -0.00002922   -0.00000000
     atom  159 type  1   force =     0.00021804   -0.00084369   -0.00000001
     atom  160 type  1   force =     0.00009513    0.00000002   -0.00000000
     atom  161 type  1   force =     0.00018619    0.00000001   -0.00000000

     Total force =     0.010902     Total SCF correction =     0.000007
     Energy error            =      1.2E-04 Ry
     Gradient error          =      5.0E-03 Ry/Bohr

     number of scf cycles    =   7
     number of bfgs steps    =   6

     energy             old  =   -1939.0597612949 Ry
     energy             new  =   -1939.0598840821 Ry

     CASE: energy            _new < energy            _old

     new trust radius        =       0.0137413148 bohr
     new conv_thr            =            1.2E-11 Ry


ATOMIC_POSITIONS (crystal)
C                0.0370211027        0.0370211046       -0.0000000011
C                0.0740503923        0.0740503947       -0.0000000007
C                0.0369631160        0.1481809976        0.0000000000
C                0.0740169763        0.1852035180       -0.0000000004
C                0.0369499028        0.2593190217       -0.0000000012
C                0.0740356447        0.2963485796        0.0000000003
C                0.0370117834        0.3703908451        0.0000000011
C                0.0740770951        0.4074683585        0.0000000010
C                0.0371066336        0.4815339796       -0.0000000003
C                0.0741477028        0.5185677057       -0.0000000008
C                0.0371151253        0.5926225165       -0.0000000002
C                0.0742072851        0.6296179822        0.0000000014
C                0.0371403942        0.7036550497        0.0000000010
C                0.0742502133        0.7406033115        0.0000000000
C                0.0371532609        0.8147007013       -0.0000000003
C                0.0742401461        0.8516288736        0.0000000009
C                0.0371295081        0.9257857657       -0.0000000005
C                0.0740949053        0.9628718082       -0.0000000013
C                0.1481809976        0.0369631157       -0.0000000001
C                0.1852035165        0.0740169778       -0.0000000002
C                0.1481470267        0.1481470273       -0.0000000006
C                0.1852151004        0.1852151002       -0.0000000015
C                0.1481893020        0.2593065176        0.0000000003
C                0.1851612411        0.2963793278       -0.0000000001
C                0.1481252893        0.3704524654       -0.0000000012
C                0.1851637680        0.4075149828       -0.0000000008
C                0.1483496901        0.4815506738       -0.0000000008
C                0.1854659484        0.5185530185       -0.0000000018
C                0.1484206090        0.5925975143        0.0000000004
C                0.1854868635        0.6294533870        0.0000000005
C                0.1484630540        0.7033991287        0.0000000007
C                0.1857024548        0.7401826199        0.0000000008
C                0.1485080777        0.8143653768        0.0000000002
C                0.1852913264        0.8516281431        0.0000000006
C                0.1481907161        0.9258025038       -0.0000000009
C                0.1851792143        0.9628536215        0.0000000005
C                0.2593190209        0.0369499038        0.0000000003
C                0.2963485796        0.0740356452        0.0000000014
C                0.2593065176        0.1481893022        0.0000000000
C                0.2963793275        0.1851612420        0.0000000009
C                0.2593676193        0.2593676189        0.0000000004
C                0.2963084685        0.2963084654        0.0000000008
C                0.2592415890        0.3704768527        0.0000000004
C                0.2960617334        0.4074589834        0.0000000011
C                0.2596408040        0.4813223073       -0.0000000008
C                0.2966864347        0.5184406539        0.0000000009
C                0.2599579985        0.5921421360        0.0000000009
C                0.2972604857        0.6285966281        0.0000000020
C                0.2600367194        0.7029930720        0.0000000011
C                0.2963249613        0.7405284141        0.0000000001
C                0.2593714002        0.8145118003        0.0000000011
C                0.2963348226        0.8517106736        0.0000000001
C                0.2593867586        0.9256443404       -0.0000000000
C                0.2963931907        0.9628701505        0.0000000007
C                0.3703908449        0.0370117836       -0.0000000002
C                0.4074683591        0.0740770954       -0.0000000009
C                0.3704524670        0.1481252891       -0.0000000014
C                0.4075149838        0.1851637685       -0.0000000014
C                0.3704768538        0.2592415881       -0.0000000007
C                0.4074589860        0.2960617328        0.0000000004
C                0.3703157354        0.3703157321        0.0000000008
C                0.4067774286        0.4067774157       -0.0000000010
C                0.3717375873        0.4806515094        0.0000000016
C                0.4061547094        0.5181594137        0.0000000008
C                0.3726465594        0.5907637830        0.0000000010
C                0.4073193147        0.6300481164        0.0000000017
C                0.3706084072        0.7032402634        0.0000000013
C                0.4075594981        0.7406583212       -0.0000000011
C                0.3705243129        0.8145649243       -0.0000000004
C                0.4075034630        0.8516750697       -0.0000000008
C                0.3704402475        0.9258380777       -0.0000000008
C                0.4074516609        0.9628806049       -0.0000000012
C                0.4815339802        0.0371066346       -0.0000000000
C                0.5185677067        0.0741477044       -0.0000000001
C                0.4815506761        0.1483496898       -0.0000000006
C                0.5185530203        0.1854659504       -0.0000000001
C                0.4813223100        0.2596408074        0.0000000015
C                0.5184406577        0.2966864337       -0.0000000009
C                0.4806515175        0.3717375894        0.0000000004
C                0.5181594141        0.4061547214        0.0000000025
C                0.5201978129        0.5201978049        0.0000000030
C                0.4813422354        0.5919166145        0.0000000010
C                0.5187691203        0.6294003120       -0.0000000007
C                0.4814220708        0.7035359877       -0.0000000021
C                0.5185648881        0.7405140736       -0.0000000025
C                0.4815372676        0.8145838260       -0.0000000016
C                0.5185763198        0.8517574807       -0.0000000006
C                0.4815414216        0.9258323596       -0.0000000011
C                0.5185491173        0.9629465239       -0.0000000002
C                0.5926225174        0.0371151254       -0.0000000008
C                0.6296179823        0.0742072856       -0.0000000013
C                0.5925975157        0.1484206104       -0.0000000015
C                0.6294533872        0.1854868667        0.0000000000
C                0.5921421376        0.2599579994        0.0000000021
C                0.6285966277        0.2972604899        0.0000000016
C                0.5907637785        0.3726465627       -0.0000000002
C                0.6300481224        0.4073193061       -0.0000000019
C                0.5919166216        0.4813422301        0.0000000012
C                0.6294003140        0.5187691204        0.0000000006
C                0.5924878303        0.5924878275       -0.0000000011
C                0.6296461616        0.6296461619       -0.0000000020
C                0.5926491100        0.7035515150       -0.0000000019
C                0.6296418867        0.7406649293        0.0000000005
C                0.5926095067        0.8147691207       -0.0000000006
C                0.6296395597        0.8518172283       -0.0000000001
C                0.5925915251        0.9259294689       -0.0000000001
C                0.6296493210        0.9630003360        0.0000000000
C                0.7036550494        0.0371403963       -0.0000000004
C                0.7406033111        0.0742502162       -0.0000000002
C                0.7033991279        0.1484630572       -0.0000000001
C                0.7401826190        0.1857024571       -0.0000000001
C                0.7029930691        0.2600367227       -0.0000000017
C                0.7405284151        0.2963249590       -0.0000000008
C                0.7032402611        0.3706084065       -0.0000000000
C                0.7406583229        0.4075594954       -0.0000000006
C                0.7035359900        0.4814220694       -0.0000000011
C                0.7405140751        0.5185648863        0.0000000002
C                0.7035515165        0.5926491067        0.0000000008
C                0.7406649289        0.6296418858        0.0000000029
C                0.7036766079        0.7036766073        0.0000000036
C                0.7407678732        0.7407678731        0.0000000006
C                0.7037308476        0.8148083811        0.0000000006
C                0.7407467218        0.8518399540        0.0000000007
C                0.7037160051        0.9259350885       -0.0000000003
C                0.7407466568        0.9629361226       -0.0000000008
C                0.8147006995        0.0371532631       -0.0000000007
C                0.8516288720        0.0742401484       -0.0000000001
C                0.8143653747        0.1485080791        0.0000000003
C                0.8516281430        0.1852913275       -0.0000000001
C                0.8145118013        0.2593713998       -0.0000000001
C                0.8517106738        0.2963348224       -0.0000000004
C                0.8145649242        0.3705243128       -0.0000000000
C                0.8516750700        0.4075034624        0.0000000007
C                0.8145838266        0.4815372666        0.0000000006
C                0.8517574814        0.5185763184        0.0000000007
C                0.8147691213        0.5926095062        0.0000000011
C                0.8518172284        0.6296395591        0.0000000009
C                0.8148083802        0.7037308485       -0.0000000001
C                0.8518399534        0.7407467225       -0.0000000017
C                0.8148136544        0.8148136547        0.0000000001
C                0.8518534212        0.8518534219        0.0000000007
C                0.8148170893        0.9259240945        0.0000000005
C                0.8518010848        0.9629943993        0.0000000002
C                0.9257857638        0.0371295088       -0.0000000004
C                0.9628718058        0.0740949071        0.0000000005
C                0.9258025016        0.1481907171       -0.0000000003
C                0.9628536202        0.1851792159        0.0000000009
C                0.9256443398        0.2593867593       -0.0000000001
C                0.9628701497        0.2963931900       -0.0000000006
C                0.9258380781        0.3704402473        0.0000000003
C                0.9628806043        0.4074516611        0.0000000004
C                0.9258323600        0.4815414211        0.0000000017
C                0.9629465231        0.5185491169        0.0000000017
C                0.9259294680        0.5925915254        0.0000000010
C                0.9630003358        0.6296493218       -0.0000000003
C                0.9259350873        0.7037160054       -0.0000000017
C                0.9629361197        0.7407466587       -0.0000000016
C                0.9259240923        0.8148170908       -0.0000000014
C                0.9629943967        0.8518010868       -0.0000000007
C                0.9259249128        0.9259249140       -0.0000000002
C                0.9629534857        0.9629534862       -0.0000000014



     Writing config-only to output data dir /home/gregb26/links/scratch/qe_tmp/vacancy_relaxed/nspin1/vac_9x9_relax_nspin1.save/ :
     XML data file
     NEW-OLD atomic charge density approx. for the potential

     negative rho (up, down):  2.659E-06 0.000E+00

     total cpu time spent up to now is     1003.3 secs

     per-process dynamical memory:   351.9 Mb

     Self-consistent Calculation

     iteration #  1     ecut=   100.00 Ry     beta= 0.30
     Davidson diagonalization with overlap
     ethr =  1.00E-06,  avg # of iterations =  5.0

     negative rho (up, down):  1.749E-06 0.000E+00

     total cpu time spent up to now is     1015.6 secs

     total energy              =   -1939.05892787 Ry
     estimated scf accuracy    <       0.00280009 Ry

     iteration #  2     ecut=   100.00 Ry     beta= 0.30
     Davidson diagonalization with overlap
     ethr =  4.35E-07,  avg # of iterations =  5.0

     negative rho (up, down):  1.664E-06 0.000E+00

     total cpu time spent up to now is     1023.3 secs

     total energy              =   -1939.05776238 Ry
     estimated scf accuracy    <       0.09459425 Ry

     iteration #  3     ecut=   100.00 Ry     beta= 0.30
     Davidson diagonalization with overlap
     ethr =  4.35E-07,  avg # of iterations =  5.0

     negative rho (up, down):  1.517E-06 0.000E+00

     total cpu time spent up to now is     1030.9 secs

     total energy              =   -1939.05985102 Ry
     estimated scf accuracy    <       0.00341342 Ry

     iteration #  4     ecut=   100.00 Ry     beta= 0.30
     Davidson diagonalization with overlap
     ethr =  4.35E-07,  avg # of iterations =  4.0

     negative rho (up, down):  1.006E-06 0.000E+00

     total cpu time spent up to now is     1037.7 secs

     total energy              =   -1939.06003841 Ry
     estimated scf accuracy    <       0.00094327 Ry

     iteration #  5     ecut=   100.00 Ry     beta= 0.30
     Davidson diagonalization with overlap
     ethr =  1.46E-07,  avg # of iterations =  2.0

     negative rho (up, down):  3.704E-07 0.000E+00

     total cpu time spent up to now is     1044.6 secs

     total energy              =   -1939.06007185 Ry
     estimated scf accuracy    <       0.00074519 Ry

     iteration #  6     ecut=   100.00 Ry     beta= 0.30
     Davidson diagonalization with overlap
     ethr =  1.16E-07,  avg # of iterations =  1.0

     negative rho (up, down):  1.424E-07 0.000E+00

     total cpu time spent up to now is     1050.9 secs

     total energy              =   -1939.06008853 Ry
     estimated scf accuracy    <       0.00000585 Ry

     iteration #  7     ecut=   100.00 Ry     beta= 0.30
     Davidson diagonalization with overlap
     ethr =  9.09E-10,  avg # of iterations =  6.0

     negative rho (up, down):  6.574E-08 0.000E+00

     total cpu time spent up to now is     1060.4 secs

     total energy              =   -1939.06008849 Ry
     estimated scf accuracy    <       0.00004047 Ry

     iteration #  8     ecut=   100.00 Ry     beta= 0.30
     Davidson diagonalization with overlap
     ethr =  9.09E-10,  avg # of iterations =  3.0

     negative rho (up, down):  3.252E-08 0.000E+00

     total cpu time spent up to now is     1067.2 secs

     total energy              =   -1939.06009042 Ry
     estimated scf accuracy    <       0.00002113 Ry

     iteration #  9     ecut=   100.00 Ry     beta= 0.30
     Davidson diagonalization with overlap
     ethr =  9.09E-10,  avg # of iterations =  2.0

     total cpu time spent up to now is     1074.0 secs

     total energy              =   -1939.06009021 Ry
     estimated scf accuracy    <       0.00000908 Ry

     iteration # 10     ecut=   100.00 Ry     beta= 0.30
     Davidson diagonalization with overlap
     ethr =  9.09E-10,  avg # of iterations =  1.0

     total cpu time spent up to now is     1080.3 secs

     total energy              =   -1939.06009043 Ry
     estimated scf accuracy    <       0.00000009 Ry

     iteration # 11     ecut=   100.00 Ry     beta= 0.30
     Davidson diagonalization with overlap
     ethr =  1.36E-11,  avg # of iterations =  5.0

     total cpu time spent up to now is     1087.6 secs

     total energy              =   -1939.06009044 Ry
     estimated scf accuracy    <       0.00000002 Ry

     iteration # 12     ecut=   100.00 Ry     beta= 0.30
     Davidson diagonalization with overlap
     ethr =  2.89E-12,  avg # of iterations =  5.0

     total cpu time spent up to now is     1096.3 secs

     total energy              =   -1939.06009044 Ry
     estimated scf accuracy    <          7.0E-09 Ry

     iteration # 13     ecut=   100.00 Ry     beta= 0.30
     Davidson diagonalization with overlap
     ethr =  1.09E-12,  avg # of iterations =  5.0

     total cpu time spent up to now is     1103.8 secs

     total energy              =   -1939.06009044 Ry
     estimated scf accuracy    <          3.0E-09 Ry

     iteration # 14     ecut=   100.00 Ry     beta= 0.30
     Davidson diagonalization with overlap
     ethr =  4.69E-13,  avg # of iterations =  2.0

     total cpu time spent up to now is     1110.5 secs

     total energy              =   -1939.06009044 Ry
     estimated scf accuracy    <          4.3E-10 Ry

     iteration # 15     ecut=   100.00 Ry     beta= 0.30
     Davidson diagonalization with overlap
     ethr =  1.00E-13,  avg # of iterations =  5.0

     total cpu time spent up to now is     1118.2 secs

     total energy              =   -1939.06009044 Ry
     estimated scf accuracy    <          1.0E-10 Ry

     iteration # 16     ecut=   100.00 Ry     beta= 0.30
     Davidson diagonalization with overlap
     ethr =  1.00E-13,  avg # of iterations =  2.0

     total cpu time spent up to now is     1125.2 secs

     total energy              =   -1939.06009044 Ry
     estimated scf accuracy    <          1.7E-11 Ry

     iteration # 17     ecut=   100.00 Ry     beta= 0.30
     Davidson diagonalization with overlap
     ethr =  1.00E-13,  avg # of iterations =  1.0

     total cpu time spent up to now is     1131.4 secs

     End of self-consistent calculation

          k = 0.0000 0.0000 0.0000 (385710 PWs)   bands (ev):

   -23.7908 -23.5391 -23.5287 -23.4998 -23.4978 -23.4927 -23.4550 -22.9570
   -22.9500 -22.9373 -22.9351 -22.9286 -22.8425 -22.6575 -22.6563 -22.6487
   -22.6477 -22.6469 -22.4978 -21.8356 -21.8347 -21.8024 -21.8021 -21.7915
   -21.7910 -21.7787 -21.7760 -21.7732 -21.7732 -21.7680 -21.5454 -21.2461
   -21.2314 -21.2289 -21.2162 -21.2103 -21.0239 -20.4196 -20.4185 -20.3968
   -20.3766 -20.3749 -20.2996 -20.1452 -20.1404 -20.1380 -20.1224 -20.1212
   -20.1138 -20.1128 -20.1095 -20.1082 -20.0848 -20.0788 -19.7095 -19.3406
   -19.3402 -19.3344 -19.3006 -19.3005 -19.1109 -18.5921 -18.5897 -18.5834
   -18.5419 -18.5398 -18.5378 -18.5332 -18.5313 -18.5293 -18.5069 -18.5052
   -18.4311 -18.3861 -18.3790 -18.3774 -18.3720 -18.3718 -17.7867 -17.3530
   -17.3512 -17.3506 -17.2934 -17.2837 -17.1741 -16.9095 -16.8749 -16.8723
   -16.7896 -16.6843 -16.6826 -16.6798 -16.6019 -16.6013 -16.4205 -16.1300
   -16.1085 -16.1065 -16.0904 -16.0889 -16.0788 -16.0744 -16.0741 -16.0727
   -15.9585 -15.9542 -15.5447 -15.2556 -15.2470 -15.2453 -15.2190 -15.2147
   -15.2128 -15.2086 -15.2060 -15.2050 -15.0941 -15.0856 -14.7974 -14.7894
   -14.4450 -13.9970 -13.9936 -13.9855 -13.9579 -13.9530 -13.9522 -13.9400
   -13.9398 -13.9342 -13.8592 -13.8487 -13.5790 -13.5054 -13.4515 -13.4494
   -13.4331 -13.4329 -13.4277 -13.4224 -13.4220 -13.4207 -13.2379 -13.2342
   -12.8990 -12.5267 -12.5130 -12.5100 -12.4986 -12.4735 -12.4688 -12.4546
   -12.4528 -12.4498 -12.4403 -12.4393 -12.4384 -12.4322 -12.4317 -12.4297
   -12.1728 -12.1677 -11.8737 -11.7083 -11.6740 -11.6200 -11.6180 -11.5594
   -11.5521 -11.5413 -11.5391 -11.5303 -11.5285 -11.5246 -11.4662 -11.4284
   -11.3897 -11.3415 -11.3353 -11.3225 -11.3168 -11.3166 -11.3111 -11.3077
   -11.2897 -11.1756 -11.1721 -11.1715 -11.0252 -11.0118 -11.0106 -10.8817
   -10.8742 -10.8684 -10.8634 -10.8539 -10.8532 -10.8486 -10.7564 -10.7171
   -10.6485 -10.6478 -10.6293 -10.6090 -10.6047 -10.5430 -10.5243 -10.5222
   -10.5162 -10.5152 -10.5147 -10.4975 -10.4614 -10.4569 -10.4377 -10.4326
   -10.4300 -10.4245 -10.4222 -10.3977 -10.3645 -10.2200 -10.2193 -10.1920
   -10.1120 -10.1091 -10.1074 -10.0628 -10.0582 -10.0581 -10.0142 -10.0098
    -9.9866  -9.5475  -9.5459  -9.5386  -9.5319  -9.5247  -9.5199  -9.5107
    -9.5081  -9.5033  -9.5027  -9.5002  -9.4913  -9.4887  -9.2782  -9.1380
    -9.1094  -9.1052  -9.1005  -9.0414  -9.0395  -9.0388  -9.0375  -9.0367
    -9.0243  -8.9090  -8.8936  -8.8934  -8.8858  -8.8857  -8.7296  -8.7087
    -8.6560  -8.6535  -8.4467  -8.4455  -8.4417  -8.0812  -8.0761  -7.9529
    -7.9519  -7.9417  -7.9406  -7.9351  -7.9235  -7.9147  -7.9144  -7.8759
    -7.8619  -7.7129  -7.7108  -7.7078  -7.7018  -7.6989  -7.6983  -7.6910
    -7.6908  -7.6890  -7.6873  -7.6853  -7.6812  -7.3959  -7.3928  -7.3554
    -7.0655  -7.0584  -7.0524  -7.0453  -7.0435  -6.8113  -6.3750  -6.3645
    -6.3616  -6.3596  -6.3562  -6.2587  -6.0954  -6.0919  -6.0769  -6.0754
    -6.0696  -6.0604  -6.0530  -6.0523  -6.0498  -6.0477  -6.0465  -5.0467
    -4.2667  -4.2494  -4.2487  -4.1750  -4.0939  -3.9697  -2.6707  -2.6635
    -2.6590  -2.6389  -2.6370  -2.6262  -2.5928  -2.5625  -2.5619  -2.5420
    -2.5413  -2.5371  -2.5368  -2.5337  -2.5292  -2.4750  -2.4665  -2.2105
    -2.0518  -2.0449  -2.0222  -1.9891  -1.9889  -1.5478  -0.9714  -0.9651

     the Fermi energy is    -4.2204 ev

!    total energy              =   -1939.06009044 Ry
     estimated scf accuracy    <          8.0E-12 Ry
     smearing contrib. (-TS)   =      -0.01248800 Ry
     internal energy E=F+TS    =   -1939.04760244 Ry

     The total energy is F=E-TS. E is the sum of the following terms:
     one-electron contribution =  -21953.97597890 Ry
     hartree contribution      =   11036.99050428 Ry
     xc contribution           =    -689.97706051 Ry
     ewald contribution        =    9667.91493269 Ry

     convergence has been achieved in  17 iterations

     Forces acting on atoms (cartesian axes, Ry/au):

     atom    1 type  1   force =    -0.00054397   -0.00000000    0.00000000
     atom    2 type  1   force =    -0.00024064   -0.00000008    0.00000000
     atom    3 type  1   force =    -0.00041532    0.00048689   -0.00000000
     atom    4 type  1   force =    -0.00012731    0.00011205   -0.00000001
     atom    5 type  1   force =    -0.00032884    0.00053007    0.00000001
     atom    6 type  1   force =    -0.00011468    0.00022666    0.00000000
     atom    7 type  1   force =     0.00008456    0.00034822   -0.00000001
     atom    8 type  1   force =    -0.00001695    0.00018100   -0.00000001
     atom    9 type  1   force =    -0.00019938    0.00012373    0.00000001
     atom   10 type  1   force =    -0.00018484    0.00049633    0.00000000
     atom   11 type  1   force =    -0.00014362   -0.00000997    0.00000000
     atom   12 type  1   force =     0.00016606    0.00006629   -0.00000000
     atom   13 type  1   force =     0.00004041   -0.00014644   -0.00000001
     atom   14 type  1   force =    -0.00010469   -0.00035330    0.00000001
     atom   15 type  1   force =     0.00015124   -0.00006710    0.00000001
     atom   16 type  1   force =    -0.00031322    0.00019189   -0.00000001
     atom   17 type  1   force =    -0.00000177    0.00019758   -0.00000000
     atom   18 type  1   force =    -0.00019450   -0.00022665    0.00000000
     atom   19 type  1   force =    -0.00041531   -0.00048681   -0.00000000
     atom   20 type  1   force =    -0.00012732   -0.00011211   -0.00000000
     atom   21 type  1   force =    -0.00008490    0.00000000   -0.00000001
     atom   22 type  1   force =    -0.00002063   -0.00000001    0.00000001
     atom   23 type  1   force =     0.00029101    0.00010077   -0.00000000
     atom   24 type  1   force =    -0.00017891    0.00005911    0.00000000
     atom   25 type  1   force =    -0.00003007   -0.00015830    0.00000001
     atom   26 type  1   force =    -0.00039212   -0.00001385    0.00000000
     atom   27 type  1   force =    -0.00111940    0.00003881   -0.00000001
     atom   28 type  1   force =    -0.00153856    0.00036873    0.00000001
     atom   29 type  1   force =    -0.00068508   -0.00015397   -0.00000000
     atom   30 type  1   force =    -0.00080765    0.00091962   -0.00000001
     atom   31 type  1   force =     0.00015933    0.00020577    0.00000000
     atom   32 type  1   force =     0.00018627    0.00098594    0.00000000
     atom   33 type  1   force =     0.00035973    0.00068829    0.00000000
     atom   34 type  1   force =     0.00006259   -0.00021891   -0.00000000
     atom   35 type  1   force =     0.00003834   -0.00049416    0.00000000
     atom   36 type  1   force =    -0.00020020   -0.00024902   -0.00000000
     atom   37 type  1   force =    -0.00032882   -0.00053008    0.00000000
     atom   38 type  1   force =    -0.00011471   -0.00022665   -0.00000001
     atom   39 type  1   force =     0.00029100   -0.00010078    0.00000000
     atom   40 type  1   force =    -0.00017890   -0.00005918   -0.00000001
     atom   41 type  1   force =    -0.00077818   -0.00000000    0.00000000
     atom   42 type  1   force =    -0.00072921    0.00000004   -0.00000000
     atom   43 type  1   force =    -0.00024856   -0.00014988    0.00000000
     atom   44 type  1   force =    -0.00121109   -0.00029421   -0.00000000
     atom   45 type  1   force =     0.00004912    0.00032775    0.00000001
     atom   46 type  1   force =    -0.00060347   -0.00011545    0.00000000
     atom   47 type  1   force =    -0.00038024    0.00036888    0.00000000
     atom   48 type  1   force =    -0.00004498   -0.00112133   -0.00000001
     atom   49 type  1   force =    -0.00039855   -0.00088269    0.00000001
     atom   50 type  1   force =     0.00060621    0.00021169    0.00000001
     atom   51 type  1   force =     0.00015246   -0.00039696   -0.00000000
     atom   52 type  1   force =     0.00018109    0.00014636   -0.00000000
     atom   53 type  1   force =     0.00008020    0.00027542    0.00000001
     atom   54 type  1   force =    -0.00020420   -0.00008211   -0.00000001
     atom   55 type  1   force =     0.00008458   -0.00034823    0.00000000
     atom   56 type  1   force =    -0.00001693   -0.00018102    0.00000000
     atom   57 type  1   force =    -0.00003008    0.00015835    0.00000000
     atom   58 type  1   force =    -0.00039214    0.00001380    0.00000000
     atom   59 type  1   force =    -0.00024850    0.00014984    0.00000001
     atom   60 type  1   force =    -0.00121115    0.00029421    0.00000001
     atom   61 type  1   force =     0.00006881   -0.00000002   -0.00000001
     atom   62 type  1   force =    -0.00092753    0.00000013    0.00000002
     atom   63 type  1   force =     0.00010232   -0.00027768   -0.00000001
     atom   64 type  1   force =     0.00062751   -0.00655497   -0.00000001
     atom   65 type  1   force =    -0.00101224   -0.00329747    0.00000001
     atom   66 type  1   force =    -0.00043914   -0.00102459   -0.00000001
     atom   67 type  1   force =    -0.00039794   -0.00103623   -0.00000000
     atom   68 type  1   force =     0.00040819    0.00050897   -0.00000000
     atom   69 type  1   force =    -0.00004426   -0.00023796   -0.00000000
     atom   70 type  1   force =     0.00008073    0.00015104   -0.00000000
     atom   71 type  1   force =    -0.00025528    0.00008565    0.00000000
     atom   72 type  1   force =    -0.00004554   -0.00010705   -0.00000000
     atom   73 type  1   force =    -0.00019939   -0.00012373   -0.00000000
     atom   74 type  1   force =    -0.00018488   -0.00049636   -0.00000000
     atom   75 type  1   force =    -0.00111934   -0.00003875   -0.00000000
     atom   76 type  1   force =    -0.00153861   -0.00036875    0.00000000
     atom   77 type  1   force =     0.00004899   -0.00032780   -0.00000002
     atom   78 type  1   force =    -0.00060335    0.00011556    0.00000002
     atom   79 type  1   force =     0.00010227    0.00027764   -0.00000001
     atom   80 type  1   force =     0.00062748    0.00655517   -0.00000001
     atom   81 type  1   force =     0.00005610   -0.00000007    0.00000000
     atom   82 type  1   force =     0.00082428   -0.00055265    0.00000000
     atom   83 type  1   force =     0.00101148    0.00021076   -0.00000001
     atom   84 type  1   force =     0.00065791   -0.00048687    0.00000001
     atom   85 type  1   force =     0.00149612    0.00084365    0.00000001
     atom   86 type  1   force =     0.00064633    0.00074281    0.00000001
     atom   87 type  1   force =     0.00051992    0.00002527   -0.00000001
     atom   88 type  1   force =     0.00022092    0.00014932    0.00000000
     atom   89 type  1   force =     0.00013086   -0.00017963   -0.00000000
     atom   90 type  1   force =    -0.00014362    0.00000999    0.00000000
     atom   91 type  1   force =     0.00016608   -0.00006629    0.00000000
     atom   92 type  1   force =    -0.00068511    0.00015401    0.00000000
     atom   93 type  1   force =    -0.00080770   -0.00091968   -0.00000000
     atom   94 type  1   force =    -0.00038019   -0.00036889   -0.00000002
     atom   95 type  1   force =    -0.00004510    0.00112137   -0.00000001
     atom   96 type  1   force =    -0.00101214    0.00329739    0.00000001
     atom   97 type  1   force =    -0.00043908    0.00102496    0.00000000
     atom   98 type  1   force =     0.00082425    0.00055270   -0.00000001
     atom   99 type  1   force =     0.00101148   -0.00021086   -0.00000002
     atom  100 type  1   force =     0.00117607    0.00000006   -0.00000000
     atom  101 type  1   force =     0.00181306   -0.00000005    0.00000001
     atom  102 type  1   force =     0.00064817    0.00028025    0.00000001
     atom  103 type  1   force =     0.00039431   -0.00012595   -0.00000000
     atom  104 type  1   force =     0.00034284    0.00033529    0.00000000
     atom  105 type  1   force =    -0.00020042    0.00010648   -0.00000000
     atom  106 type  1   force =     0.00016251    0.00010038   -0.00000000
     atom  107 type  1   force =     0.00042378    0.00043283   -0.00000000
     atom  108 type  1   force =     0.00004041    0.00014646   -0.00000000
     atom  109 type  1   force =    -0.00010472    0.00035330   -0.00000000
     atom  110 type  1   force =     0.00015933   -0.00020580    0.00000000
     atom  111 type  1   force =     0.00018626   -0.00098589   -0.00000000
     atom  112 type  1   force =    -0.00039853    0.00088262    0.00000002
     atom  113 type  1   force =     0.00060628   -0.00021164    0.00000000
     atom  114 type  1   force =    -0.00039786    0.00103600   -0.00000001
     atom  115 type  1   force =     0.00040817   -0.00050887   -0.00000000
     atom  116 type  1   force =     0.00065790    0.00048687    0.00000001
     atom  117 type  1   force =     0.00149612   -0.00084365   -0.00000001
     atom  118 type  1   force =     0.00064820   -0.00028015   -0.00000000
     atom  119 type  1   force =     0.00039435    0.00012592   -0.00000000
     atom  120 type  1   force =     0.00029401    0.00000000   -0.00000002
     atom  121 type  1   force =    -0.00073309    0.00000000    0.00000002
     atom  122 type  1   force =    -0.00050694   -0.00010453   -0.00000001
     atom  123 type  1   force =     0.00003318    0.00019837   -0.00000001
     atom  124 type  1   force =     0.00060407    0.00059520    0.00000001
     atom  125 type  1   force =     0.00063926    0.00103823    0.00000001
     atom  126 type  1   force =     0.00015125    0.00006708    0.00000001
     atom  127 type  1   force =    -0.00031323   -0.00019190   -0.00000000
     atom  128 type  1   force =     0.00035979   -0.00068829   -0.00000001
     atom  129 type  1   force =     0.00006252    0.00021893    0.00000000
     atom  130 type  1   force =     0.00015247    0.00039698   -0.00000000
     atom  131 type  1   force =     0.00018107   -0.00014636    0.00000000
     atom  132 type  1   force =    -0.00004428    0.00023793   -0.00000000
     atom  133 type  1   force =     0.00008073   -0.00015102   -0.00000001
     atom  134 type  1   force =     0.00064636   -0.00074284    0.00000000
     atom  135 type  1   force =     0.00051995   -0.00002526    0.00000001
     atom  136 type  1   force =     0.00034279   -0.00033527    0.00000001
     atom  137 type  1   force =    -0.00020039   -0.00010643   -0.00000001
     atom  138 type  1   force =    -0.00050694    0.00010449   -0.00000000
     atom  139 type  1   force =     0.00003317   -0.00019839    0.00000000
     atom  140 type  1   force =     0.00004610    0.00000001    0.00000001
     atom  141 type  1   force =     0.00031177    0.00000003   -0.00000000
     atom  142 type  1   force =     0.00035235    0.00075512    0.00000000
     atom  143 type  1   force =     0.00033646    0.00057006   -0.00000000
     atom  144 type  1   force =    -0.00000173   -0.00019759    0.00000000
     atom  145 type  1   force =    -0.00019451    0.00022659   -0.00000001
     atom  146 type  1   force =     0.00003842    0.00049411    0.00000001
     atom  147 type  1   force =    -0.00020022    0.00024897   -0.00000001
     atom  148 type  1   force =     0.00008017   -0.00027543    0.00000000
     atom  149 type  1   force =    -0.00020413    0.00008211   -0.00000000
     atom  150 type  1   force =    -0.00025531   -0.00008564    0.00000000
     atom  151 type  1   force =    -0.00004553    0.00010702    0.00000001
     atom  152 type  1   force =     0.00022088   -0.00014930   -0.00000000
     atom  153 type  1   force =     0.00013092    0.00017964   -0.00000000
     atom  154 type  1   force =     0.00016254   -0.00010043   -0.00000001
     atom  155 type  1   force =     0.00042373   -0.00043287   -0.00000000
     atom  156 type  1   force =     0.00060411   -0.00059519    0.00000000
     atom  157 type  1   force =     0.00063926   -0.00103827    0.00000001
     atom  158 type  1   force =     0.00035235   -0.00075515    0.00000000
     atom  159 type  1   force =     0.00033648   -0.00057012   -0.00000000
     atom  160 type  1   force =     0.00004698    0.00000001   -0.00000001
     atom  161 type  1   force =    -0.00011934    0.00000001    0.00000001

     Total force =     0.013398     Total SCF correction =     0.000005
     Energy error            =      2.1E-04 Ry
     Gradient error          =      6.6E-03 Ry/Bohr

     number of scf cycles    =   8
     number of bfgs steps    =   7

     energy             old  =   -1939.0598840821 Ry
     energy             new  =   -1939.0600904382 Ry

     CASE: energy            _new < energy            _old

     new trust radius        =       0.0151154463 bohr
     new conv_thr            =            2.1E-11 Ry


ATOMIC_POSITIONS (crystal)
C                0.0370022300        0.0370022324       -0.0000000015
C                0.0740393760        0.0740393753       -0.0000000008
C                0.0369250982        0.1481932247        0.0000000001
C                0.0739986569        0.1852079154       -0.0000000005
C                0.0369079570        0.2593467457       -0.0000000011
C                0.0740158600        0.2963682401        0.0000000008
C                0.0369872359        0.3704177821        0.0000000010
C                0.0740686441        0.4074987670        0.0000000015
C                0.0371273990        0.4815582563       -0.0000000004
C                0.0741829031        0.5185881765       -0.0000000011
C                0.0371798377        0.5926360236       -0.0000000004
C                0.0743122132        0.6295971919        0.0000000021
C                0.0372147081        0.7036205124        0.0000000013
C                0.0743836425        0.7405051125        0.0000000007
C                0.0372438910        0.8146127138       -0.0000000002
C                0.0743292422        0.8515221593        0.0000000016
C                0.0371668937        0.9257237746       -0.0000000001
C                0.0741103460        0.9628208866       -0.0000000020
C                0.1481932242        0.0369250982       -0.0000000007
C                0.1852079144        0.0739986564       -0.0000000007
C                0.1481456242        0.1481456254       -0.0000000010
C                0.1852215641        0.1852215631       -0.0000000020
C                0.1481978804        0.2593277809       -0.0000000001
C                0.1851654045        0.2964017243       -0.0000000005
C                0.1481317286        0.3704890708       -0.0000000010
C                0.1851580642        0.4075495681       -0.0000000005
C                0.1483777520        0.4815669925       -0.0000000016
C                0.1855012920        0.5185521421       -0.0000000024
C                0.1485312564        0.5925610383        0.0000000007
C                0.1856372607        0.6293577503        0.0000000004
C                0.1486021595        0.7032896809        0.0000000014
C                0.1858410941        0.7400340720        0.0000000004
C                0.1486136375        0.8142295792       -0.0000000001
C                0.1853631274        0.8515095604        0.0000000015
C                0.1482424677        0.9257043973       -0.0000000009
C                0.1852029287        0.9627854356        0.0000000009
C                0.2593467442        0.0369079582        0.0000000000
C                0.2963682392        0.0740158597        0.0000000017
C                0.2593277802        0.1481978803       -0.0000000004
C                0.2964017244        0.1851654049        0.0000000012
C                0.2593800218        0.2593800217        0.0000000007
C                0.2963112739        0.2963112713        0.0000000011
C                0.2592362457        0.3704642133        0.0000000006
C                0.2960326571        0.4074188039        0.0000000013
C                0.2596488685        0.4812692118       -0.0000000015
C                0.2966970409        0.5183393545        0.0000000010
C                0.2600972755        0.5920226311        0.0000000011
C                0.2974657976        0.6284169032        0.0000000018
C                0.2602000250        0.7028325226        0.0000000014
C                0.2964203212        0.7404138576        0.0000000000
C                0.2594421865        0.8144031054        0.0000000017
C                0.2963663388        0.8516224251        0.0000000003
C                0.2594185288        0.9255633902        0.0000000006
C                0.2964211286        0.9628119664        0.0000000008
C                0.3704177812        0.0369872361       -0.0000000003
C                0.4074987680        0.0740686437       -0.0000000009
C                0.3704890718        0.1481317294       -0.0000000016
C                0.4075495695        0.1851580641       -0.0000000011
C                0.3704642139        0.2592362454       -0.0000000000
C                0.4074188059        0.2960326568        0.0000000004
C                0.3702581479        0.3702581414        0.0000000012
C                0.4066870613        0.4066870478       -0.0000000006
C                0.3716770853        0.4805301445        0.0000000016
C                0.4063589203        0.5177509901        0.0000000005
C                0.3728821300        0.5905273996        0.0000000004
C                0.4074363895        0.6299379098        0.0000000007
C                0.3706883714        0.7031362420        0.0000000014
C                0.4075917219        0.7406108340       -0.0000000018
C                0.3705490849        0.8144982407       -0.0000000001
C                0.4075343169        0.8516014961       -0.0000000006
C                0.3704716436        0.9257727766       -0.0000000011
C                0.4074729843        0.9628420505       -0.0000000019
C                0.4815582557        0.0371274006       -0.0000000003
C                0.5185881777        0.0741829038        0.0000000004
C                0.4815669939        0.1483777533        0.0000000002
C                0.5185521445        0.1855012939        0.0000000001
C                0.4812692132        0.2596488720        0.0000000017
C                0.5183393596        0.2966970414       -0.0000000015
C                0.4805301533        0.3716770877        0.0000000004
C                0.5177509875        0.4063589388        0.0000000027
C                0.5204059065        0.5204058919        0.0000000042
C                0.4814661758        0.5920344241        0.0000000021
C                0.5188198538        0.6294923306       -0.0000000005
C                0.4814426810        0.7035701782       -0.0000000031
C                0.5185858913        0.7405066746       -0.0000000032
C                0.4815523334        0.8145508250       -0.0000000014
C                0.5185943845        0.8517202091       -0.0000000008
C                0.4815657291        0.9258026483       -0.0000000016
C                0.5185598992        0.9629441873       -0.0000000004
C                0.5926360238        0.0371798377       -0.0000000014
C                0.6295971924        0.0743122128       -0.0000000019
C                0.5925610384        0.1485312587       -0.0000000025
C                0.6293577500        0.1856372655        0.0000000005
C                0.5920226347        0.2600972761        0.0000000034
C                0.6284168992        0.2974658048        0.0000000027
C                0.5905273939        0.3728821367       -0.0000000010
C                0.6299379116        0.4074363851       -0.0000000031
C                0.5920344301        0.4814661701        0.0000000029
C                0.6294923344        0.5188198530        0.0000000008
C                0.5925234378        0.5925234376       -0.0000000019
C                0.6296559775        0.6296559773       -0.0000000019
C                0.5926531632        0.7035349184       -0.0000000029
C                0.6296390407        0.7406216437        0.0000000004
C                0.5926165077        0.8147342846       -0.0000000008
C                0.6296337934        0.8518034858       -0.0000000007
C                0.5925961575        0.9259354239        0.0000000001
C                0.6296461567        0.9630423773       -0.0000000002
C                0.7036205119        0.0372147103       -0.0000000002
C                0.7405051124        0.0743836450       -0.0000000003
C                0.7032896808        0.1486021642       -0.0000000002
C                0.7400340687        0.1858410976       -0.0000000003
C                0.7028325196        0.2602000298       -0.0000000015
C                0.7404138573        0.2964203211       -0.0000000005
C                0.7031362436        0.3706883671        0.0000000005
C                0.7406108330        0.4075917203       -0.0000000015
C                0.7035701807        0.4814426805       -0.0000000018
C                0.7405066760        0.5185858898       -0.0000000007
C                0.7035349191        0.5926531610        0.0000000004
C                0.7406216440        0.6296390392        0.0000000040
C                0.7036625160        0.7036625156        0.0000000044
C                0.7407579840        0.7407579834        0.0000000013
C                0.7037338161        0.8148008847        0.0000000007
C                0.7407483989        0.8518398949        0.0000000006
C                0.7037123354        0.9259606828       -0.0000000001
C                0.7407213325        0.9629857159       -0.0000000005
C                0.8146127124        0.0372438928       -0.0000000013
C                0.8515221581        0.0743292434       -0.0000000002
C                0.8142295779        0.1486136395        0.0000000003
C                0.8515095601        0.1853631274       -0.0000000010
C                0.8144031082        0.2594421858       -0.0000000006
C                0.8516224249        0.2963663390       -0.0000000004
C                0.8144982414        0.3705490837       -0.0000000002
C                0.8516014962        0.4075343173        0.0000000014
C                0.8145508275        0.4815523318        0.0000000007
C                0.8517202108        0.5185943830        0.0000000010
C                0.8147342852        0.5926165066        0.0000000013
C                0.8518034861        0.6296337936        0.0000000007
C                0.8148008844        0.7037338166       -0.0000000000
C                0.8518398952        0.7407483992       -0.0000000018
C                0.8148142160        0.8148142156        0.0000000016
C                0.8518563750        0.8518563758        0.0000000014
C                0.8148070301        0.9259468819        0.0000000010
C                0.8517666011        0.9630395147        0.0000000002
C                0.9257237735        0.0371668937        0.0000000001
C                0.9628208852        0.0741103454        0.0000000004
C                0.9257043964        0.1482424687       -0.0000000008
C                0.9627854359        0.1852029294        0.0000000010
C                0.9255633904        0.2594185287       -0.0000000000
C                0.9628119666        0.2964211287       -0.0000000006
C                0.9257727775        0.3704716439        0.0000000009
C                0.9628420504        0.4074729851        0.0000000004
C                0.9258026493        0.4815657287        0.0000000020
C                0.9629441867        0.5185598999        0.0000000022
C                0.9259354242        0.5925961580        0.0000000010
C                0.9630423784        0.6296461568       -0.0000000010
C                0.9259606820        0.7037123363       -0.0000000023
C                0.9629857133        0.7407213340       -0.0000000019
C                0.9259468805        0.8148070308       -0.0000000019
C                0.9630395132        0.8517666027       -0.0000000011
C                0.9259236180        0.9259236190       -0.0000000008
C                0.9629523124        0.9629523119       -0.0000000013



     Writing config-only to output data dir /home/gregb26/links/scratch/qe_tmp/vacancy_relaxed/nspin1/vac_9x9_relax_nspin1.save/ :
     XML data file
     NEW-OLD atomic charge density approx. for the potential

     negative rho (up, down):  3.166E-06 0.000E+00

     total cpu time spent up to now is     1134.7 secs

     per-process dynamical memory:   351.9 Mb

     Self-consistent Calculation

     iteration #  1     ecut=   100.00 Ry     beta= 0.30
     Davidson diagonalization with overlap
     ethr =  1.00E-06,  avg # of iterations =  5.0

     negative rho (up, down):  2.085E-06 0.000E+00

     total cpu time spent up to now is     1147.4 secs

     total energy              =   -1939.05772425 Ry
     estimated scf accuracy    <       0.00619931 Ry

     iteration #  2     ecut=   100.00 Ry     beta= 0.30
     Davidson diagonalization with overlap
     ethr =  9.63E-07,  avg # of iterations =  6.0

     negative rho (up, down):  1.961E-06 0.000E+00

     total cpu time spent up to now is     1155.5 secs

     total energy              =   -1939.05758518 Ry
     estimated scf accuracy    <       0.14097797 Ry

     iteration #  3     ecut=   100.00 Ry     beta= 0.30
     Davidson diagonalization with overlap
     ethr =  9.63E-07,  avg # of iterations =  6.0

     negative rho (up, down):  1.703E-06 0.000E+00

     total cpu time spent up to now is     1163.1 secs

     total energy              =   -1939.06014648 Ry
     estimated scf accuracy    <       0.00721663 Ry

     iteration #  4     ecut=   100.00 Ry     beta= 0.30
     Davidson diagonalization with overlap
     ethr =  9.63E-07,  avg # of iterations =  4.0

     negative rho (up, down):  9.242E-07 0.000E+00

     total cpu time spent up to now is     1170.4 secs

     total energy              =   -1939.06031671 Ry
     estimated scf accuracy    <       0.00011926 Ry

     iteration #  5     ecut=   100.00 Ry     beta= 0.30
     Davidson diagonalization with overlap
     ethr =  1.85E-08,  avg # of iterations =  6.0

     negative rho (up, down):  5.791E-07 0.000E+00

     total cpu time spent up to now is     1178.9 secs

     total energy              =   -1939.06026085 Ry
     estimated scf accuracy    <       0.00298743 Ry

     iteration #  6     ecut=   100.00 Ry     beta= 0.30
     Davidson diagonalization with overlap
     ethr =  1.85E-08,  avg # of iterations =  4.0

     negative rho (up, down):  2.259E-07 0.000E+00

     total cpu time spent up to now is     1186.1 secs

     total energy              =   -1939.06033803 Ry
     estimated scf accuracy    <       0.00026770 Ry

     iteration #  7     ecut=   100.00 Ry     beta= 0.30
     Davidson diagonalization with overlap
     ethr =  1.85E-08,  avg # of iterations =  1.0

     negative rho (up, down):  6.210E-08 0.000E+00

     total cpu time spent up to now is     1192.4 secs

     total energy              =   -1939.06034390 Ry
     estimated scf accuracy    <       0.00001909 Ry

     iteration #  8     ecut=   100.00 Ry     beta= 0.30
     Davidson diagonalization with overlap
     ethr =  2.96E-09,  avg # of iterations =  2.0

     negative rho (up, down):  2.369E-08 0.000E+00

     total cpu time spent up to now is     1199.4 secs

     total energy              =   -1939.06034257 Ry
     estimated scf accuracy    <       0.00015010 Ry

     iteration #  9     ecut=   100.00 Ry     beta= 0.30
     Davidson diagonalization with overlap
     ethr =  2.96E-09,  avg # of iterations =  2.0

     total cpu time spent up to now is     1206.5 secs

     total energy              =   -1939.06034628 Ry
     estimated scf accuracy    <       0.00000456 Ry

     iteration # 10     ecut=   100.00 Ry     beta= 0.30
     Davidson diagonalization with overlap
     ethr =  7.08E-10,  avg # of iterations =  1.0

     total cpu time spent up to now is     1212.8 secs

     total energy              =   -1939.06034632 Ry
     estimated scf accuracy    <       0.00000103 Ry

     iteration # 11     ecut=   100.00 Ry     beta= 0.30
     Davidson diagonalization with overlap
     ethr =  1.60E-10,  avg # of iterations =  5.0

     total cpu time spent up to now is     1220.3 secs

     total energy              =   -1939.06034634 Ry
     estimated scf accuracy    <       0.00000027 Ry

     iteration # 12     ecut=   100.00 Ry     beta= 0.30
     Davidson diagonalization with overlap
     ethr =  4.27E-11,  avg # of iterations =  4.0

     total cpu time spent up to now is     1227.5 secs

     total energy              =   -1939.06034636 Ry
     estimated scf accuracy    <          3.3E-09 Ry

     iteration # 13     ecut=   100.00 Ry     beta= 0.30
     Davidson diagonalization with overlap
     ethr =  5.06E-13,  avg # of iterations =  6.0

     total cpu time spent up to now is     1241.0 secs

     total energy              =   -1939.06034636 Ry
     estimated scf accuracy    <          1.4E-09 Ry

     iteration # 14     ecut=   100.00 Ry     beta= 0.30
     Davidson diagonalization with overlap
     ethr =  2.24E-13,  avg # of iterations =  2.0

     total cpu time spent up to now is     1248.0 secs

     total energy              =   -1939.06034636 Ry
     estimated scf accuracy    <          3.5E-10 Ry

     iteration # 15     ecut=   100.00 Ry     beta= 0.30
     Davidson diagonalization with overlap
     ethr =  1.00E-13,  avg # of iterations =  2.0

     total cpu time spent up to now is     1255.1 secs

     total energy              =   -1939.06034636 Ry
     estimated scf accuracy    <          1.2E-10 Ry

     iteration # 16     ecut=   100.00 Ry     beta= 0.30
     Davidson diagonalization with overlap
     ethr =  1.00E-13,  avg # of iterations =  2.0

     total cpu time spent up to now is     1261.8 secs

     total energy              =   -1939.06034636 Ry
     estimated scf accuracy    <          6.9E-11 Ry

     iteration # 17     ecut=   100.00 Ry     beta= 0.30
     Davidson diagonalization with overlap
     ethr =  1.00E-13,  avg # of iterations =  1.0

     total cpu time spent up to now is     1268.0 secs

     End of self-consistent calculation

          k = 0.0000 0.0000 0.0000 (385710 PWs)   bands (ev):

   -23.7912 -23.5443 -23.5301 -23.4994 -23.4960 -23.4898 -23.4552 -22.9577
   -22.9486 -22.9383 -22.9353 -22.9302 -22.8403 -22.6567 -22.6565 -22.6494
   -22.6486 -22.6463 -22.4969 -21.8369 -21.8358 -21.8047 -21.8045 -21.7903
   -21.7899 -21.7783 -21.7743 -21.7725 -21.7720 -21.7669 -21.5447 -21.2456
   -21.2316 -21.2283 -21.2170 -21.2091 -21.0239 -20.4199 -20.4183 -20.3975
   -20.3767 -20.3743 -20.2983 -20.1455 -20.1397 -20.1363 -20.1232 -20.1221
   -20.1156 -20.1139 -20.1106 -20.1083 -20.0836 -20.0755 -19.7077 -19.3411
   -19.3401 -19.3328 -19.3010 -19.3008 -19.1109 -18.5935 -18.5905 -18.5846
   -18.5425 -18.5395 -18.5373 -18.5315 -18.5293 -18.5293 -18.5069 -18.5051
   -18.4308 -18.3860 -18.3791 -18.3786 -18.3713 -18.3693 -17.7855 -17.3539
   -17.3516 -17.3509 -17.2939 -17.2812 -17.1736 -16.9103 -16.8746 -16.8718
   -16.7892 -16.6842 -16.6818 -16.6789 -16.6024 -16.6016 -16.4202 -16.1290
   -16.1092 -16.1068 -16.0913 -16.0901 -16.0789 -16.0743 -16.0735 -16.0720
   -15.9581 -15.9526 -15.5441 -15.2550 -15.2464 -15.2436 -15.2197 -15.2153
   -15.2131 -15.2094 -15.2064 -15.2053 -15.0950 -15.0844 -14.7980 -14.7874
   -14.4452 -13.9972 -13.9927 -13.9853 -13.9574 -13.9531 -13.9523 -13.9411
   -13.9405 -13.9329 -13.8604 -13.8469 -13.5808 -13.5074 -13.4531 -13.4510
   -13.4327 -13.4326 -13.4261 -13.4207 -13.4192 -13.4177 -13.2395 -13.2343
   -12.8988 -12.5268 -12.5124 -12.5078 -12.4986 -12.4748 -12.4684 -12.4564
   -12.4537 -12.4507 -12.4394 -12.4386 -12.4372 -12.4318 -12.4308 -12.4283
   -12.1741 -12.1681 -11.8738 -11.7090 -11.6736 -11.6206 -11.6180 -11.5634
   -11.5533 -11.5408 -11.5372 -11.5299 -11.5270 -11.5223 -11.4663 -11.4256
   -11.3874 -11.3435 -11.3354 -11.3233 -11.3185 -11.3175 -11.3103 -11.3058
   -11.2902 -11.1753 -11.1711 -11.1702 -11.0256 -11.0122 -11.0106 -10.8831
   -10.8732 -10.8687 -10.8622 -10.8546 -10.8536 -10.8499 -10.7547 -10.7175
   -10.6482 -10.6472 -10.6284 -10.6100 -10.6045 -10.5435 -10.5238 -10.5219
   -10.5168 -10.5157 -10.5150 -10.4980 -10.4616 -10.4560 -10.4379 -10.4325
   -10.4291 -10.4242 -10.4215 -10.3980 -10.3635 -10.2197 -10.2196 -10.1909
   -10.1116 -10.1088 -10.1055 -10.0638 -10.0577 -10.0575 -10.0150 -10.0089
    -9.9875  -9.5486  -9.5466  -9.5401  -9.5309  -9.5264  -9.5189  -9.5105
    -9.5071  -9.5029  -9.5017  -9.4994  -9.4907  -9.4878  -9.2775  -9.1376
    -9.1100  -9.1039  -9.0987  -9.0423  -9.0401  -9.0388  -9.0375  -9.0371
    -9.0239  -8.9088  -8.8936  -8.8932  -8.8857  -8.8855  -8.7292  -8.7085
    -8.6565  -8.6533  -8.4459  -8.4445  -8.4418  -8.0819  -8.0743  -7.9531
    -7.9517  -7.9416  -7.9404  -7.9352  -7.9241  -7.9158  -7.9152  -7.8761
    -7.8612  -7.7132  -7.7110  -7.7070  -7.7008  -7.6988  -7.6980  -7.6908
    -7.6904  -7.6895  -7.6888  -7.6856  -7.6811  -7.3959  -7.3923  -7.3543
    -7.0658  -7.0580  -7.0517  -7.0461  -7.0436  -6.8110  -6.3757  -6.3642
    -6.3607  -6.3606  -6.3564  -6.2586  -6.0956  -6.0915  -6.0778  -6.0759
    -6.0698  -6.0607  -6.0523  -6.0506  -6.0502  -6.0475  -6.0453  -5.0456
    -4.2685  -4.2490  -4.2471  -4.1813  -4.0680  -3.9692  -2.6713  -2.6631
    -2.6571  -2.6395  -2.6369  -2.6263  -2.5922  -2.5642  -2.5629  -2.5432
    -2.5423  -2.5372  -2.5371  -2.5325  -2.5291  -2.4750  -2.4647  -2.2103
    -2.0526  -2.0439  -2.0224  -1.9890  -1.9887  -1.5479  -0.9720  -0.9648

     the Fermi energy is    -4.2206 ev

!    total energy              =   -1939.06034636 Ry
     estimated scf accuracy    <          1.5E-11 Ry
     smearing contrib. (-TS)   =      -0.01223294 Ry
     internal energy E=F+TS    =   -1939.04811342 Ry

     The total energy is F=E-TS. E is the sum of the following terms:
     one-electron contribution =  -21953.94267737 Ry
     hartree contribution      =   11036.97708983 Ry
     xc contribution           =    -689.97780765 Ry
     ewald contribution        =    9667.89528177 Ry

     convergence has been achieved in  17 iterations

     Forces acting on atoms (cartesian axes, Ry/au):

     atom    1 type  1   force =    -0.00052025   -0.00000005    0.00000000
     atom    2 type  1   force =    -0.00039750    0.00000003    0.00000001
     atom    3 type  1   force =    -0.00039217    0.00013430    0.00000000
     atom    4 type  1   force =    -0.00033368    0.00033509    0.00000000
     atom    5 type  1   force =    -0.00016274    0.00023939    0.00000002
     atom    6 type  1   force =    -0.00016448    0.00027525   -0.00000001
     atom    7 type  1   force =     0.00005406    0.00030646    0.00000001
     atom    8 type  1   force =    -0.00004451   -0.00015481   -0.00000002
     atom    9 type  1   force =    -0.00049971    0.00046258    0.00000001
     atom   10 type  1   force =    -0.00082196    0.00040176    0.00000000
     atom   11 type  1   force =    -0.00056596    0.00030521    0.00000001
     atom   12 type  1   force =    -0.00081768    0.00062962   -0.00000001
     atom   13 type  1   force =     0.00003292   -0.00015028   -0.00000001
     atom   14 type  1   force =    -0.00030295    0.00081137    0.00000000
     atom   15 type  1   force =     0.00007545    0.00048329   -0.00000000
     atom   16 type  1   force =    -0.00001724    0.00088319   -0.00000001
     atom   17 type  1   force =    -0.00009886    0.00060887   -0.00000001
     atom   18 type  1   force =     0.00004334   -0.00030167    0.00000001
     atom   19 type  1   force =    -0.00039221   -0.00013431    0.00000000
     atom   20 type  1   force =    -0.00033361   -0.00033505    0.00000000
     atom   21 type  1   force =    -0.00018591   -0.00000003   -0.00000000
     atom   22 type  1   force =     0.00010193    0.00000002    0.00000002
     atom   23 type  1   force =    -0.00028805    0.00025633   -0.00000000
     atom   24 type  1   force =    -0.00021624   -0.00004046    0.00000000
     atom   25 type  1   force =    -0.00079776    0.00008284    0.00000001
     atom   26 type  1   force =    -0.00095796   -0.00050052   -0.00000001
     atom   27 type  1   force =    -0.00144305    0.00038432   -0.00000000
     atom   28 type  1   force =    -0.00223354   -0.00018297    0.00000001
     atom   29 type  1   force =    -0.00096480    0.00033489   -0.00000000
     atom   30 type  1   force =    -0.00105194    0.00119544    0.00000001
     atom   31 type  1   force =    -0.00010622    0.00066923   -0.00000002
     atom   32 type  1   force =     0.00083821    0.00124595    0.00000001
     atom   33 type  1   force =     0.00023642    0.00108844    0.00000001
     atom   34 type  1   force =     0.00064431    0.00021331   -0.00000001
     atom   35 type  1   force =     0.00015543    0.00021735    0.00000001
     atom   36 type  1   force =    -0.00012403   -0.00028377   -0.00000002
     atom   37 type  1   force =    -0.00016277   -0.00023943    0.00000000
     atom   38 type  1   force =    -0.00016446   -0.00027524   -0.00000001
     atom   39 type  1   force =    -0.00028802   -0.00025635    0.00000001
     atom   40 type  1   force =    -0.00021625    0.00004044   -0.00000001
     atom   41 type  1   force =    -0.00141823   -0.00000001   -0.00000001
     atom   42 type  1   force =    -0.00125656    0.00000004    0.00000000
     atom   43 type  1   force =    -0.00048555    0.00019151    0.00000000
     atom   44 type  1   force =    -0.00106108   -0.00029250   -0.00000002
     atom   45 type  1   force =    -0.00005895    0.00068596    0.00000001
     atom   46 type  1   force =    -0.00000956    0.00014572   -0.00000001
     atom   47 type  1   force =    -0.00062605    0.00090054   -0.00000000
     atom   48 type  1   force =    -0.00047584   -0.00177305   -0.00000001
     atom   49 type  1   force =    -0.00059417   -0.00066707   -0.00000001
     atom   50 type  1   force =     0.00056298    0.00005630    0.00000001
     atom   51 type  1   force =     0.00009613   -0.00004749   -0.00000001
     atom   52 type  1   force =     0.00062662    0.00053111    0.00000000
     atom   53 type  1   force =     0.00037543    0.00069090   -0.00000000
     atom   54 type  1   force =    -0.00029699   -0.00000204   -0.00000000
     atom   55 type  1   force =     0.00005410   -0.00030649    0.00000001
     atom   56 type  1   force =    -0.00004453    0.00015486    0.00000000
     atom   57 type  1   force =    -0.00079780   -0.00008284    0.00000001
     atom   58 type  1   force =    -0.00095797    0.00050052    0.00000001
     atom   59 type  1   force =    -0.00048552   -0.00019153    0.00000001
     atom   60 type  1   force =    -0.00106117    0.00029242    0.00000001
     atom   61 type  1   force =    -0.00022885    0.00000010   -0.00000000
     atom   62 type  1   force =    -0.00113649    0.00000013    0.00000001
     atom   63 type  1   force =     0.00093721   -0.00115954    0.00000001
     atom   64 type  1   force =     0.00117786   -0.00786400    0.00000001
     atom   65 type  1   force =    -0.00128612   -0.00520592    0.00000003
     atom   66 type  1   force =    -0.00070782   -0.00113786    0.00000000
     atom   67 type  1   force =    -0.00041044   -0.00080532   -0.00000001
     atom   68 type  1   force =     0.00024719    0.00024240    0.00000001
     atom   69 type  1   force =     0.00032493   -0.00026936   -0.00000002
     atom   70 type  1   force =     0.00021727    0.00073227    0.00000000
     atom   71 type  1   force =     0.00023367    0.00051852    0.00000002
     atom   72 type  1   force =    -0.00022514    0.00006185    0.00000001
     atom   73 type  1   force =    -0.00049972   -0.00046263   -0.00000000
     atom   74 type  1   force =    -0.00082197   -0.00040172   -0.00000001
     atom   75 type  1   force =    -0.00144303   -0.00038434   -0.00000000
     atom   76 type  1   force =    -0.00223358    0.00018300   -0.00000000
     atom   77 type  1   force =    -0.00005894   -0.00068601   -0.00000002
     atom   78 type  1   force =    -0.00000953   -0.00014564    0.00000002
     atom   79 type  1   force =     0.00093710    0.00115966   -0.00000002
     atom   80 type  1   force =     0.00117791    0.00786407    0.00000001
     atom   81 type  1   force =     0.00018490    0.00000005    0.00000001
     atom   82 type  1   force =    -0.00017098   -0.00083639    0.00000005
     atom   83 type  1   force =     0.00109479   -0.00025153   -0.00000001
     atom   84 type  1   force =     0.00114841   -0.00035228   -0.00000000
     atom   85 type  1   force =     0.00154622    0.00138982   -0.00000001
     atom   86 type  1   force =     0.00111750    0.00078604   -0.00000001
     atom   87 type  1   force =     0.00082395    0.00053105   -0.00000000
     atom   88 type  1   force =     0.00056140    0.00024873    0.00000001
     atom   89 type  1   force =     0.00009472   -0.00013644    0.00000000
     atom   90 type  1   force =    -0.00056594   -0.00030522    0.00000000
     atom   91 type  1   force =    -0.00081765   -0.00062955   -0.00000000
     atom   92 type  1   force =    -0.00096479   -0.00033494    0.00000002
     atom   93 type  1   force =    -0.00105199   -0.00119558    0.00000001
     atom   94 type  1   force =    -0.00062603   -0.00090046   -0.00000001
     atom   95 type  1   force =    -0.00047587    0.00177291   -0.00000002
     atom   96 type  1   force =    -0.00128600    0.00520581    0.00000002
     atom   97 type  1   force =    -0.00070770    0.00113780    0.00000001
     atom   98 type  1   force =    -0.00017079    0.00083635   -0.00000007
     atom   99 type  1   force =     0.00109478    0.00025153    0.00000000
     atom  100 type  1   force =     0.00172891   -0.00000004    0.00000002
     atom  101 type  1   force =     0.00193722   -0.00000002   -0.00000002
     atom  102 type  1   force =     0.00116762    0.00022614   -0.00000000
     atom  103 type  1   force =     0.00142288    0.00029267    0.00000000
     atom  104 type  1   force =     0.00085138    0.00051226    0.00000000
     atom  105 type  1   force =     0.00009767    0.00025838    0.00000001
     atom  106 type  1   force =     0.00033802    0.00003602   -0.00000000
     atom  107 type  1   force =     0.00020992    0.00030476   -0.00000000
     atom  108 type  1   force =     0.00003293    0.00015027   -0.00000001
     atom  109 type  1   force =    -0.00030297   -0.00081134   -0.00000001
     atom  110 type  1   force =    -0.00010634   -0.00066925    0.00000002
     atom  111 type  1   force =     0.00083833   -0.00124599   -0.00000000
     atom  112 type  1   force =    -0.00059421    0.00066704    0.00000002
     atom  113 type  1   force =     0.00056305   -0.00005641    0.00000001
     atom  114 type  1   force =    -0.00041037    0.00080540   -0.00000005
     atom  115 type  1   force =     0.00024727   -0.00024251    0.00000001
     atom  116 type  1   force =     0.00114837    0.00035229   -0.00000001
     atom  117 type  1   force =     0.00154624   -0.00138985   -0.00000000
     atom  118 type  1   force =     0.00116764   -0.00022609    0.00000001
     atom  119 type  1   force =     0.00142291   -0.00029267   -0.00000001
     atom  120 type  1   force =     0.00045133   -0.00000002   -0.00000002
     atom  121 type  1   force =    -0.00054457    0.00000000   -0.00000001
     atom  122 type  1   force =    -0.00041544    0.00001906   -0.00000001
     atom  123 type  1   force =    -0.00000563    0.00049837    0.00000000
     atom  124 type  1   force =     0.00066827    0.00067283   -0.00000000
     atom  125 type  1   force =     0.00063913    0.00096040    0.00000001
     atom  126 type  1   force =     0.00007544   -0.00048329    0.00000001
     atom  127 type  1   force =    -0.00001721   -0.00088319    0.00000000
     atom  128 type  1   force =     0.00023639   -0.00108844   -0.00000001
     atom  129 type  1   force =     0.00064436   -0.00021333    0.00000000
     atom  130 type  1   force =     0.00009604    0.00004760   -0.00000000
     atom  131 type  1   force =     0.00062665   -0.00053118    0.00000001
     atom  132 type  1   force =     0.00032493    0.00026945   -0.00000000
     atom  133 type  1   force =     0.00021726   -0.00073232   -0.00000002
     atom  134 type  1   force =     0.00111748   -0.00078599   -0.00000001
     atom  135 type  1   force =     0.00082396   -0.00053104    0.00000000
     atom  136 type  1   force =     0.00085141   -0.00051224    0.00000001
     atom  137 type  1   force =     0.00009763   -0.00025838   -0.00000000
     atom  138 type  1   force =    -0.00041544   -0.00001907   -0.00000000
     atom  139 type  1   force =    -0.00000565   -0.00049836    0.00000001
     atom  140 type  1   force =     0.00019057    0.00000002    0.00000000
     atom  141 type  1   force =     0.00068152   -0.00000000   -0.00000002
     atom  142 type  1   force =     0.00049032    0.00079970    0.00000000
     atom  143 type  1   force =     0.00036232    0.00029336   -0.00000000
     atom  144 type  1   force =    -0.00009886   -0.00060885    0.00000000
     atom  145 type  1   force =     0.00004339    0.00030172   -0.00000000
     atom  146 type  1   force =     0.00015540   -0.00021738    0.00000001
     atom  147 type  1   force =    -0.00012405    0.00028377   -0.00000002
     atom  148 type  1   force =     0.00037544   -0.00069087   -0.00000000
     atom  149 type  1   force =    -0.00029699    0.00000205    0.00000001
     atom  150 type  1   force =     0.00023365   -0.00051848   -0.00000000
     atom  151 type  1   force =    -0.00022516   -0.00006188    0.00000000
     atom  152 type  1   force =     0.00056138   -0.00024868   -0.00000000
     atom  153 type  1   force =     0.00009473    0.00013643   -0.00000001
     atom  154 type  1   force =     0.00033802   -0.00003602   -0.00000001
     atom  155 type  1   force =     0.00020989   -0.00030474    0.00000000
     atom  156 type  1   force =     0.00066826   -0.00067284   -0.00000000
     atom  157 type  1   force =     0.00063914   -0.00096045    0.00000000
     atom  158 type  1   force =     0.00049035   -0.00079966    0.00000000
     atom  159 type  1   force =     0.00036230   -0.00029337   -0.00000001
     atom  160 type  1   force =    -0.00000947    0.00000001    0.00000001
     atom  161 type  1   force =    -0.00013627    0.00000001    0.00000002

     Total force =     0.017692     Total SCF correction =     0.000005
     Energy error            =      2.6E-04 Ry
     Gradient error          =      7.9E-03 Ry/Bohr

     number of scf cycles    =   9
     number of bfgs steps    =   8

     energy             old  =   -1939.0600904382 Ry
     energy             new  =   -1939.0603463609 Ry

     CASE: energy            _new < energy            _old

     new trust radius        =       0.0226731694 bohr
     new conv_thr            =            2.6E-11 Ry


ATOMIC_POSITIONS (crystal)
C                0.0369758153        0.0369758164       -0.0000000020
C                0.0740218987        0.0740218983       -0.0000000007
C                0.0368797744        0.1482027799        0.0000000005
C                0.0739657172        0.1852159685       -0.0000000006
C                0.0368572611        0.2593817287       -0.0000000006
C                0.0739857913        0.2963966021        0.0000000011
C                0.0369527953        0.3704540677        0.0000000011
C                0.0740617618        0.4075355969        0.0000000020
C                0.0371469566        0.4815951545       -0.0000000007
C                0.0742247156        0.5186071555       -0.0000000016
C                0.0372635974        0.5926565636       -0.0000000005
C                0.0744413508        0.6295654950        0.0000000031
C                0.0373235457        0.7035695616        0.0000000016
C                0.0745506802        0.7403856672        0.0000000015
C                0.0373644700        0.8144944321       -0.0000000004
C                0.0744422930        0.8513917845        0.0000000024
C                0.0372108233        0.9256432362        0.0000000005
C                0.0741354057        0.9627502862       -0.0000000028
C                0.1482027801        0.0368797724       -0.0000000014
C                0.1852159670        0.0739657169       -0.0000000013
C                0.1481421301        0.1481421306       -0.0000000014
C                0.1852321801        0.1852321791       -0.0000000024
C                0.1481992999        0.2593536172       -0.0000000007
C                0.1851723173        0.2964293310       -0.0000000011
C                0.1481290008        0.3705372421       -0.0000000005
C                0.1851525549        0.4075807563       -0.0000000001
C                0.1483995361        0.4815895752       -0.0000000026
C                0.1855459065        0.5185358721       -0.0000000032
C                0.1486660411        0.5925133670        0.0000000014
C                0.1858282921        0.6292315103        0.0000000007
C                0.1487775505        0.7031510426        0.0000000017
C                0.1860294129        0.7398424002        0.0000000001
C                0.1487450421        0.8140557956       -0.0000000002
C                0.1854628390        0.8513586053        0.0000000026
C                0.1483056537        0.9255775481       -0.0000000005
C                0.1852381497        0.9626898648        0.0000000009
C                0.2593817265        0.0368572615       -0.0000000005
C                0.2963966007        0.0739857905        0.0000000021
C                0.2593536160        0.1481992998       -0.0000000009
C                0.2964293301        0.1851723181        0.0000000019
C                0.2593894198        0.2593894200        0.0000000010
C                0.2963083907        0.2963083885        0.0000000016
C                0.2592204763        0.3704452154        0.0000000009
C                0.2959897549        0.4073630111        0.0000000009
C                0.2596504324        0.4811993188       -0.0000000027
C                0.2967156666        0.5182046039        0.0000000006
C                0.2602738704        0.5918646807        0.0000000013
C                0.2977652113        0.6281481875        0.0000000015
C                0.2604209698        0.7026119167        0.0000000010
C                0.2965534795        0.7402542419       -0.0000000003
C                0.2595349894        0.8142612288        0.0000000023
C                0.2964080378        0.8515116138        0.0000000008
C                0.2594586220        0.9254598772        0.0000000012
C                0.2964570232        0.9627311355        0.0000000012
C                0.3704540659        0.0369527954       -0.0000000003
C                0.4075355966        0.0740617615       -0.0000000009
C                0.3705372431        0.1481290011       -0.0000000015
C                0.4075807574        0.1851525551       -0.0000000005
C                0.3704452140        0.2592204770        0.0000000008
C                0.4073630132        0.2959897531        0.0000000004
C                0.3701789352        0.3701789290        0.0000000021
C                0.4065571569        0.4065571436       -0.0000000005
C                0.3716062816        0.4803589818        0.0000000020
C                0.4067210504        0.5171295481        0.0000000006
C                0.3732363933        0.5901574172        0.0000000003
C                0.4075995324        0.6297769938       -0.0000000003
C                0.3708020439        0.7029840360        0.0000000015
C                0.4076406714        0.7405413671       -0.0000000023
C                0.3705844162        0.8144130734       -0.0000000003
C                0.4075668475        0.8515127404        0.0000000000
C                0.3705131305        0.9256925166       -0.0000000009
C                0.4074980553        0.9627893953       -0.0000000025
C                0.4815951531        0.0371469584       -0.0000000005
C                0.5186071559        0.0742247170        0.0000000010
C                0.4815895759        0.1483995372        0.0000000012
C                0.5185358742        0.1855459096        0.0000000003
C                0.4811993200        0.2596504378        0.0000000019
C                0.5182046103        0.2967156669       -0.0000000023
C                0.4803589859        0.3716062877        0.0000000003
C                0.5171295460        0.4067210760        0.0000000036
C                0.5206868167        0.5206867981        0.0000000056
C                0.4816402305        0.5921895534        0.0000000050
C                0.5188973841        0.6296165072       -0.0000000001
C                0.4814761722        0.7036273621       -0.0000000050
C                0.5186093764        0.7405111402       -0.0000000044
C                0.4815751280        0.8145199826       -0.0000000016
C                0.5186128588        0.8516843379       -0.0000000009
C                0.4816015567        0.9257668117       -0.0000000023
C                0.5185736241        0.9629414692       -0.0000000007
C                0.5926565635        0.0372635969       -0.0000000022
C                0.6295654950        0.0744413505       -0.0000000027
C                0.5925133677        0.1486660430       -0.0000000035
C                0.6292315102        0.1858282983        0.0000000016
C                0.5918646854        0.2602738714        0.0000000052
C                0.6281481835        0.2977652200        0.0000000041
C                0.5901574106        0.3732364045       -0.0000000018
C                0.6297770003        0.4075995249       -0.0000000048
C                0.5921895622        0.4816402253        0.0000000037
C                0.6296165111        0.5188973838        0.0000000017
C                0.5925817213        0.5925817205       -0.0000000027
C                0.6296767948        0.6296767958       -0.0000000026
C                0.5926648133        0.7035261267       -0.0000000046
C                0.6296370050        0.7405797491        0.0000000003
C                0.5926283932        0.8146922353       -0.0000000012
C                0.6296259152        0.8517916351       -0.0000000010
C                0.5926061753        0.9259446417        0.0000000003
C                0.6296419118        0.9630967839       -0.0000000006
C                0.7035695614        0.0373235474       -0.0000000003
C                0.7403856672        0.0745506824       -0.0000000008
C                0.7031510421        0.1487775560        0.0000000001
C                0.7398423972        0.1860294173       -0.0000000006
C                0.7026119126        0.2604209768       -0.0000000011
C                0.7402542431        0.2965534788        0.0000000001
C                0.7029840359        0.3708020416       -0.0000000002
C                0.7405413680        0.4076406679       -0.0000000024
C                0.7036273644        0.4814761729       -0.0000000034
C                0.7405111421        0.5186093751       -0.0000000018
C                0.7035261276        0.5926648108       -0.0000000000
C                0.7405797493        0.6296370033        0.0000000056
C                0.7036431281        0.7036431273        0.0000000055
C                0.7407465871        0.7407465857        0.0000000016
C                0.7037363950        0.8147940222        0.0000000007
C                0.7407438363        0.8518458053        0.0000000005
C                0.7037057779        0.9260000981       -0.0000000001
C                0.7406868707        0.9630547783        0.0000000000
C                0.8144944305        0.0373644711       -0.0000000022
C                0.8513917842        0.0744422934       -0.0000000000
C                0.8140557947        0.1487450439        0.0000000002
C                0.8513586070        0.1854628376       -0.0000000023
C                0.8142612314        0.2595349889       -0.0000000011
C                0.8515116152        0.2964080376       -0.0000000003
C                0.8144130731        0.3705844163       -0.0000000003
C                0.8515127415        0.4075668479        0.0000000019
C                0.8145199855        0.4815751268        0.0000000004
C                0.8516843402        0.5186128574        0.0000000012
C                0.8146922370        0.5926283918        0.0000000018
C                0.8517916358        0.6296259148        0.0000000007
C                0.8147940222        0.7037363956        0.0000000000
C                0.8518458062        0.7407438365       -0.0000000016
C                0.8148167156        0.8148167144        0.0000000032
C                0.8518654794        0.8518654791        0.0000000018
C                0.8147936609        0.9259821944        0.0000000016
C                0.8517242845        0.9630977219        0.0000000003
C                0.9256432353        0.0372108227        0.0000000009
C                0.9627502850        0.0741354042        0.0000000005
C                0.9255775475        0.1483056540       -0.0000000016
C                0.9626898664        0.1852381502        0.0000000010
C                0.9254598782        0.2594586218       -0.0000000001
C                0.9627311364        0.2964570239       -0.0000000005
C                0.9256925180        0.3705131319        0.0000000018
C                0.9627893954        0.4074980568        0.0000000001
C                0.9257668134        0.4816015574        0.0000000026
C                0.9629414684        0.5185736256        0.0000000027
C                0.9259446421        0.5926061767        0.0000000010
C                0.9630967861        0.6296419124       -0.0000000020
C                0.9260000977        0.7037057788       -0.0000000032
C                0.9630547759        0.7406868720       -0.0000000025
C                0.9259821930        0.8147936620       -0.0000000026
C                0.9630977202        0.8517242864       -0.0000000019
C                0.9259209461        0.9259209460       -0.0000000014
C                0.9629508440        0.9629508421       -0.0000000010



     Writing config-only to output data dir /home/gregb26/links/scratch/qe_tmp/vacancy_relaxed/nspin1/vac_9x9_relax_nspin1.save/ :
     XML data file
     NEW-OLD atomic charge density approx. for the potential

     negative rho (up, down):  4.642E-06 0.000E+00

     total cpu time spent up to now is     1271.4 secs

     per-process dynamical memory:   351.9 Mb

     Self-consistent Calculation

     iteration #  1     ecut=   100.00 Ry     beta= 0.30
     Davidson diagonalization with overlap
     ethr =  1.00E-06,  avg # of iterations =  6.0

     negative rho (up, down):  3.066E-06 0.000E+00

     total cpu time spent up to now is     1285.7 secs

     total energy              =   -1939.05358481 Ry
     estimated scf accuracy    <       0.01641808 Ry

     iteration #  2     ecut=   100.00 Ry     beta= 0.30
     Davidson diagonalization with overlap
     c_bands:  1 eigenvalues not converged
     ethr =  2.55E-06,  avg # of iterations = 20.0

     negative rho (up, down):  2.843E-06 0.000E+00

     total cpu time spent up to now is     1296.2 secs

     total energy              =   -1939.05711681 Ry
     estimated scf accuracy    <       0.22870584 Ry

     iteration #  3     ecut=   100.00 Ry     beta= 0.30
     Davidson diagonalization with overlap
     ethr =  2.55E-06,  avg # of iterations = 11.0

     negative rho (up, down):  2.570E-06 0.000E+00

     total cpu time spent up to now is     1304.7 secs

     total energy              =   -1939.05951555 Ry
     estimated scf accuracy    <       0.04646849 Ry

     iteration #  4     ecut=   100.00 Ry     beta= 0.30
     Davidson diagonalization with overlap
     ethr =  2.55E-06,  avg # of iterations =  4.0

     negative rho (up, down):  1.284E-06 0.000E+00

     total cpu time spent up to now is     1311.9 secs

     total energy              =   -1939.06066118 Ry
     estimated scf accuracy    <       0.00074561 Ry

     iteration #  5     ecut=   100.00 Ry     beta= 0.30
     Davidson diagonalization with overlap
     ethr =  1.16E-07,  avg # of iterations =  5.0

     negative rho (up, down):  4.498E-07 0.000E+00

     total cpu time spent up to now is     1319.3 secs

     total energy              =   -1939.06068926 Ry
     estimated scf accuracy    <       0.00049048 Ry

     iteration #  6     ecut=   100.00 Ry     beta= 0.30
     Davidson diagonalization with overlap
     ethr =  7.62E-08,  avg # of iterations =  1.0

     negative rho (up, down):  1.451E-07 0.000E+00

     total cpu time spent up to now is     1325.6 secs

     total energy              =   -1939.06068128 Ry
     estimated scf accuracy    <       0.00021723 Ry

     iteration #  7     ecut=   100.00 Ry     beta= 0.30
     Davidson diagonalization with overlap
     ethr =  3.37E-08,  avg # of iterations =  2.0

     negative rho (up, down):  4.937E-08 0.000E+00

     total cpu time spent up to now is     1332.3 secs

     total energy              =   -1939.06069333 Ry
     estimated scf accuracy    <       0.00027938 Ry

     iteration #  8     ecut=   100.00 Ry     beta= 0.30
     Davidson diagonalization with overlap
     ethr =  3.37E-08,  avg # of iterations =  1.0

     negative rho (up, down):  1.111E-08 0.000E+00

     total cpu time spent up to now is     1338.5 secs

     total energy              =   -1939.06069665 Ry
     estimated scf accuracy    <       0.00001613 Ry

     iteration #  9     ecut=   100.00 Ry     beta= 0.30
     Davidson diagonalization with overlap
     ethr =  2.50E-09,  avg # of iterations =  5.0

     total cpu time spent up to now is     1346.3 secs

     total energy              =   -1939.06069802 Ry
     estimated scf accuracy    <       0.00000078 Ry

     iteration # 10     ecut=   100.00 Ry     beta= 0.30
     Davidson diagonalization with overlap
     ethr =  1.22E-10,  avg # of iterations =  5.0

     total cpu time spent up to now is     1355.5 secs

     total energy              =   -1939.06069832 Ry
     estimated scf accuracy    <       0.00000061 Ry

     iteration # 11     ecut=   100.00 Ry     beta= 0.30
     Davidson diagonalization with overlap
     ethr =  9.51E-11,  avg # of iterations =  2.0

     total cpu time spent up to now is     1362.4 secs

     total energy              =   -1939.06069809 Ry
     estimated scf accuracy    <       0.00000900 Ry

     iteration # 12     ecut=   100.00 Ry     beta= 0.30
     Davidson diagonalization with overlap
     ethr =  9.51E-11,  avg # of iterations =  2.0

     total cpu time spent up to now is     1369.5 secs

     total energy              =   -1939.06069827 Ry
     estimated scf accuracy    <       0.00000007 Ry

     iteration # 13     ecut=   100.00 Ry     beta= 0.30
     Davidson diagonalization with overlap
     ethr =  1.15E-11,  avg # of iterations =  2.0

     total cpu time spent up to now is     1376.5 secs

     total energy              =   -1939.06069827 Ry
     estimated scf accuracy    <          4.6E-09 Ry

     iteration # 14     ecut=   100.00 Ry     beta= 0.30
     Davidson diagonalization with overlap
     ethr =  7.19E-13,  avg # of iterations =  5.0

     total cpu time spent up to now is     1384.9 secs

     total energy              =   -1939.06069827 Ry
     estimated scf accuracy    <          1.2E-09 Ry

     iteration # 15     ecut=   100.00 Ry     beta= 0.30
     Davidson diagonalization with overlap
     ethr =  1.85E-13,  avg # of iterations =  2.0

     total cpu time spent up to now is     1392.0 secs

     total energy              =   -1939.06069827 Ry
     estimated scf accuracy    <          1.5E-09 Ry

     iteration # 16     ecut=   100.00 Ry     beta= 0.30
     Davidson diagonalization with overlap
     ethr =  1.85E-13,  avg # of iterations =  2.0

     total cpu time spent up to now is     1398.7 secs

     total energy              =   -1939.06069827 Ry
     estimated scf accuracy    <          8.1E-11 Ry

     iteration # 17     ecut=   100.00 Ry     beta= 0.30
     Davidson diagonalization with overlap
     ethr =  1.00E-13,  avg # of iterations =  1.0

     total cpu time spent up to now is     1405.0 secs

     End of self-consistent calculation

          k = 0.0000 0.0000 0.0000 (385710 PWs)   bands (ev):

   -23.7915 -23.5507 -23.5301 -23.4996 -23.4944 -23.4867 -23.4537 -22.9587
   -22.9462 -22.9395 -22.9353 -22.9318 -22.8372 -22.6570 -22.6564 -22.6512
   -22.6487 -22.6437 -22.4949 -21.8369 -21.8364 -21.8070 -21.8068 -21.7890
   -21.7872 -21.7781 -21.7725 -21.7716 -21.7704 -21.7665 -21.5434 -21.2452
   -21.2315 -21.2266 -21.2183 -21.2072 -21.0231 -20.4196 -20.4178 -20.3973
   -20.3771 -20.3730 -20.2967 -20.1449 -20.1385 -20.1337 -20.1243 -20.1232
   -20.1181 -20.1156 -20.1117 -20.1080 -20.0820 -20.0699 -19.7051 -19.3418
   -19.3396 -19.3302 -19.3011 -19.3010 -19.1107 -18.5935 -18.5902 -18.5844
   -18.5437 -18.5394 -18.5377 -18.5299 -18.5286 -18.5273 -18.5064 -18.5047
   -18.4304 -18.3854 -18.3804 -18.3799 -18.3704 -18.3651 -17.7820 -17.3550
   -17.3522 -17.3514 -17.2941 -17.2775 -17.1730 -16.9111 -16.8736 -16.8708
   -16.7882 -16.6836 -16.6806 -16.6774 -16.6032 -16.6017 -16.4203 -16.1265
   -16.1093 -16.1065 -16.0922 -16.0911 -16.0792 -16.0746 -16.0730 -16.0710
   -15.9566 -15.9507 -15.5433 -15.2533 -15.2455 -15.2403 -15.2212 -15.2159
   -15.2138 -15.2101 -15.2069 -15.2055 -15.0947 -15.0822 -14.7990 -14.7849
   -14.4450 -13.9966 -13.9903 -13.9849 -13.9572 -13.9533 -13.9522 -13.9426
   -13.9416 -13.9312 -13.8605 -13.8435 -13.5821 -13.5079 -13.4540 -13.4530
   -13.4324 -13.4323 -13.4245 -13.4193 -13.4163 -13.4146 -13.2405 -13.2330
   -12.8982 -12.5267 -12.5109 -12.5026 -12.4975 -12.4762 -12.4678 -12.4588
   -12.4540 -12.4515 -12.4381 -12.4378 -12.4356 -12.4314 -12.4302 -12.4267
   -12.1751 -12.1681 -11.8739 -11.7102 -11.6708 -11.6211 -11.6180 -11.5682
   -11.5535 -11.5404 -11.5345 -11.5302 -11.5258 -11.5200 -11.4648 -11.4231
   -11.3841 -11.3459 -11.3342 -11.3238 -11.3201 -11.3184 -11.3092 -11.3041
   -11.2901 -11.1744 -11.1694 -11.1686 -11.0251 -11.0119 -11.0092 -10.8856
   -10.8722 -10.8692 -10.8604 -10.8556 -10.8539 -10.8511 -10.7522 -10.7168
   -10.6480 -10.6453 -10.6279 -10.6108 -10.6039 -10.5436 -10.5236 -10.5221
   -10.5186 -10.5150 -10.5142 -10.4965 -10.4619 -10.4539 -10.4384 -10.4323
   -10.4279 -10.4240 -10.4210 -10.3984 -10.3616 -10.2198 -10.2190 -10.1894
   -10.1112 -10.1091 -10.1025 -10.0646 -10.0564 -10.0562 -10.0162 -10.0083
    -9.9882  -9.5487  -9.5470  -9.5414  -9.5285  -9.5273  -9.5181  -9.5107
    -9.5062  -9.5030  -9.5006  -9.4995  -9.4884  -9.4856  -9.2761  -9.1346
    -9.1103  -9.1020  -9.0961  -9.0441  -9.0410  -9.0402  -9.0382  -9.0371
    -9.0245  -8.9086  -8.8938  -8.8926  -8.8853  -8.8847  -8.7293  -8.7076
    -8.6552  -8.6514  -8.4454  -8.4440  -8.4409  -8.0833  -8.0728  -7.9531
    -7.9514  -7.9413  -7.9402  -7.9341  -7.9241  -7.9165  -7.9154  -7.8784
    -7.8605  -7.7132  -7.7120  -7.7051  -7.7015  -7.6997  -7.6961  -7.6912
    -7.6907  -7.6889  -7.6884  -7.6860  -7.6806  -7.3962  -7.3918  -7.3529
    -7.0652  -7.0583  -7.0498  -7.0476  -7.0435  -6.8104  -6.3759  -6.3657
    -6.3619  -6.3573  -6.3561  -6.2585  -6.0944  -6.0905  -6.0788  -6.0761
    -6.0689  -6.0614  -6.0527  -6.0510  -6.0495  -6.0471  -6.0439  -5.0425
    -4.2710  -4.2484  -4.2445  -4.1882  -4.0108  -3.9679  -2.6717  -2.6624
    -2.6552  -2.6401  -2.6364  -2.6264  -2.5908  -2.5665  -2.5638  -2.5451
    -2.5438  -2.5384  -2.5379  -2.5308  -2.5298  -2.4733  -2.4623  -2.2097
    -2.0533  -2.0429  -2.0232  -1.9893  -1.9874  -1.5482  -0.9726  -0.9688

     the Fermi energy is    -4.2209 ev

!    total energy              =   -1939.06069827 Ry
     estimated scf accuracy    <          2.3E-11 Ry
     smearing contrib. (-TS)   =      -0.01195846 Ry
     internal energy E=F+TS    =   -1939.04873981 Ry

     The total energy is F=E-TS. E is the sum of the following terms:
     one-electron contribution =  -21953.85753293 Ry
     hartree contribution      =   11036.94342312 Ry
     xc contribution           =    -689.97687654 Ry
     ewald contribution        =    9667.84224654 Ry

     convergence has been achieved in  17 iterations

     Forces acting on atoms (cartesian axes, Ry/au):

     atom    1 type  1   force =    -0.00049355   -0.00000003   -0.00000001
     atom    2 type  1   force =    -0.00051658   -0.00000001   -0.00000002
     atom    3 type  1   force =    -0.00051895    0.00014238    0.00000001
     atom    4 type  1   force =    -0.00036090    0.00020173   -0.00000000
     atom    5 type  1   force =    -0.00025712    0.00021633   -0.00000001
     atom    6 type  1   force =    -0.00029589    0.00027959   -0.00000001
     atom    7 type  1   force =     0.00007720    0.00023966   -0.00000000
     atom    8 type  1   force =    -0.00038446   -0.00011823   -0.00000001
     atom    9 type  1   force =    -0.00100641    0.00052684    0.00000001
     atom   10 type  1   force =    -0.00134728    0.00069031   -0.00000000
     atom   11 type  1   force =    -0.00160464    0.00058646    0.00000000
     atom   12 type  1   force =    -0.00162341    0.00125846   -0.00000002
     atom   13 type  1   force =    -0.00028038    0.00031637   -0.00000001
     atom   14 type  1   force =    -0.00058728    0.00185034   -0.00000001
     atom   15 type  1   force =     0.00021932    0.00161696    0.00000002
     atom   16 type  1   force =    -0.00001518    0.00153148   -0.00000003
     atom   17 type  1   force =     0.00008637    0.00111402   -0.00000001
     atom   18 type  1   force =     0.00013648   -0.00005562    0.00000001
     atom   19 type  1   force =    -0.00051895   -0.00014233    0.00000001
     atom   20 type  1   force =    -0.00036087   -0.00020173    0.00000000
     atom   21 type  1   force =    -0.00028295   -0.00000001    0.00000001
     atom   22 type  1   force =    -0.00031505    0.00000002   -0.00000000
     atom   23 type  1   force =    -0.00045008    0.00031692    0.00000001
     atom   24 type  1   force =    -0.00084046    0.00008804    0.00000001
     atom   25 type  1   force =    -0.00153697   -0.00010126    0.00000001
     atom   26 type  1   force =    -0.00161112   -0.00046990   -0.00000000
     atom   27 type  1   force =    -0.00186773    0.00015169    0.00000001
     atom   28 type  1   force =    -0.00291955   -0.00030849    0.00000000
     atom   29 type  1   force =    -0.00134520    0.00057269   -0.00000001
     atom   30 type  1   force =    -0.00136445    0.00173509    0.00000002
     atom   31 type  1   force =    -0.00023620    0.00107126    0.00000000
     atom   32 type  1   force =     0.00123294    0.00163127   -0.00000001
     atom   33 type  1   force =     0.00055157    0.00138039    0.00000001
     atom   34 type  1   force =     0.00084313    0.00083321   -0.00000002
     atom   35 type  1   force =     0.00058117    0.00088635    0.00000001
     atom   36 type  1   force =     0.00001513    0.00014872   -0.00000001
     atom   37 type  1   force =    -0.00025711   -0.00021634    0.00000001
     atom   38 type  1   force =    -0.00029587   -0.00027956   -0.00000003
     atom   39 type  1   force =    -0.00045005   -0.00031695    0.00000002
     atom   40 type  1   force =    -0.00084045   -0.00008811   -0.00000002
     atom   41 type  1   force =    -0.00188068   -0.00000001    0.00000002
     atom   42 type  1   force =    -0.00184489    0.00000006   -0.00000003
     atom   43 type  1   force =    -0.00070850    0.00035715   -0.00000000
     atom   44 type  1   force =    -0.00089961   -0.00018653   -0.00000000
     atom   45 type  1   force =    -0.00000411    0.00085049   -0.00000000
     atom   46 type  1   force =     0.00056548    0.00041215    0.00000001
     atom   47 type  1   force =    -0.00074259    0.00121323    0.00000001
     atom   48 type  1   force =    -0.00077199   -0.00224181    0.00000001
     atom   49 type  1   force =    -0.00084488   -0.00077539   -0.00000003
     atom   50 type  1   force =     0.00045402    0.00001944    0.00000001
     atom   51 type  1   force =     0.00015517    0.00016055   -0.00000003
     atom   52 type  1   force =     0.00101453    0.00087372    0.00000001
     atom   53 type  1   force =     0.00071428    0.00110130   -0.00000000
     atom   54 type  1   force =    -0.00005404    0.00036980   -0.00000002
     atom   55 type  1   force =     0.00007722   -0.00023970    0.00000001
     atom   56 type  1   force =    -0.00038446    0.00011825    0.00000001
     atom   57 type  1   force =    -0.00153703    0.00010131    0.00000001
     atom   58 type  1   force =    -0.00161116    0.00046994   -0.00000000
     atom   59 type  1   force =    -0.00070847   -0.00035725    0.00000002
     atom   60 type  1   force =    -0.00089962    0.00018653    0.00000002
     atom   61 type  1   force =    -0.00101852    0.00000006   -0.00000000
     atom   62 type  1   force =    -0.00086492    0.00000021    0.00000001
     atom   63 type  1   force =     0.00171438   -0.00197142   -0.00000000
     atom   64 type  1   force =     0.00304577   -0.00844784   -0.00000000
     atom   65 type  1   force =    -0.00223551   -0.00687082   -0.00000000
     atom   66 type  1   force =    -0.00106687   -0.00152777    0.00000002
     atom   67 type  1   force =    -0.00027783   -0.00043847   -0.00000003
     atom   68 type  1   force =     0.00013462    0.00006854    0.00000003
     atom   69 type  1   force =     0.00055836   -0.00035756   -0.00000002
     atom   70 type  1   force =     0.00067709    0.00112004   -0.00000001
     atom   71 type  1   force =     0.00051589    0.00112038   -0.00000000
     atom   72 type  1   force =    -0.00005950    0.00024770    0.00000001
     atom   73 type  1   force =    -0.00100642   -0.00052687    0.00000000
     atom   74 type  1   force =    -0.00134733   -0.00069033   -0.00000002
     atom   75 type  1   force =    -0.00186764   -0.00015168   -0.00000001
     atom   76 type  1   force =    -0.00291963    0.00030847   -0.00000001
     atom   77 type  1   force =    -0.00000415   -0.00085061   -0.00000004
     atom   78 type  1   force =     0.00056560   -0.00041196    0.00000005
     atom   79 type  1   force =     0.00171451    0.00197137   -0.00000001
     atom   80 type  1   force =     0.00304554    0.00844792   -0.00000003
     atom   81 type  1   force =    -0.00044596    0.00000008   -0.00000001
     atom   82 type  1   force =    -0.00156207   -0.00082655   -0.00000006
     atom   83 type  1   force =     0.00132202   -0.00074484    0.00000001
     atom   84 type  1   force =     0.00131356   -0.00028738    0.00000004
     atom   85 type  1   force =     0.00196973    0.00180179    0.00000001
     atom   86 type  1   force =     0.00135149    0.00109279    0.00000001
     atom   87 type  1   force =     0.00128719    0.00077559   -0.00000001
     atom   88 type  1   force =     0.00081107    0.00063347   -0.00000000
     atom   89 type  1   force =     0.00016422   -0.00025118    0.00000002
     atom   90 type  1   force =    -0.00160462   -0.00058645    0.00000001
     atom   91 type  1   force =    -0.00162337   -0.00125841   -0.00000000
     atom   92 type  1   force =    -0.00134520   -0.00057267    0.00000002
     atom   93 type  1   force =    -0.00136452   -0.00173526    0.00000000
     atom   94 type  1   force =    -0.00074254   -0.00121310   -0.00000004
     atom   95 type  1   force =    -0.00077199    0.00224176   -0.00000002
     atom   96 type  1   force =    -0.00223557    0.00687061   -0.00000001
     atom   97 type  1   force =    -0.00106671    0.00152801    0.00000003
     atom   98 type  1   force =    -0.00156194    0.00082644   -0.00000005
     atom   99 type  1   force =     0.00132206    0.00074473   -0.00000006
     atom  100 type  1   force =     0.00211972   -0.00000000    0.00000005
     atom  101 type  1   force =     0.00243214   -0.00000008    0.00000003
     atom  102 type  1   force =     0.00153443    0.00026201    0.00000001
     atom  103 type  1   force =     0.00244613    0.00059280    0.00000000
     atom  104 type  1   force =     0.00167979    0.00109720    0.00000001
     atom  105 type  1   force =     0.00037998    0.00035374    0.00000002
     atom  106 type  1   force =     0.00043332    0.00009453   -0.00000001
     atom  107 type  1   force =     0.00007248    0.00020498    0.00000000
     atom  108 type  1   force =    -0.00028036   -0.00031638   -0.00000000
     atom  109 type  1   force =    -0.00058729   -0.00185033   -0.00000000
     atom  110 type  1   force =    -0.00023629   -0.00107128   -0.00000003
     atom  111 type  1   force =     0.00123304   -0.00163131    0.00000002
     atom  112 type  1   force =    -0.00084495    0.00077533    0.00000001
     atom  113 type  1   force =     0.00045410   -0.00001948   -0.00000001
     atom  114 type  1   force =    -0.00027775    0.00043837   -0.00000004
     atom  115 type  1   force =     0.00013474   -0.00006843    0.00000002
     atom  116 type  1   force =     0.00131347    0.00028732    0.00000004
     atom  117 type  1   force =     0.00196975   -0.00180182    0.00000000
     atom  118 type  1   force =     0.00153446   -0.00026190   -0.00000001
     atom  119 type  1   force =     0.00244620   -0.00059284   -0.00000001
     atom  120 type  1   force =     0.00119701   -0.00000002   -0.00000001
     atom  121 type  1   force =    -0.00041349   -0.00000000    0.00000001
     atom  122 type  1   force =    -0.00026712    0.00014002   -0.00000002
     atom  123 type  1   force =     0.00014877    0.00059198    0.00000002
     atom  124 type  1   force =     0.00070412    0.00068573    0.00000000
     atom  125 type  1   force =     0.00073437    0.00097456    0.00000001
     atom  126 type  1   force =     0.00021936   -0.00161696    0.00000002
     atom  127 type  1   force =    -0.00001519   -0.00153145   -0.00000002
     atom  128 type  1   force =     0.00055155   -0.00138040   -0.00000001
     atom  129 type  1   force =     0.00084316   -0.00083317    0.00000002
     atom  130 type  1   force =     0.00015512   -0.00016047   -0.00000001
     atom  131 type  1   force =     0.00101450   -0.00087371    0.00000002
     atom  132 type  1   force =     0.00055836    0.00035757    0.00000001
     atom  133 type  1   force =     0.00067708   -0.00112004    0.00000000
     atom  134 type  1   force =     0.00135146   -0.00109275   -0.00000001
     atom  135 type  1   force =     0.00128721   -0.00077559    0.00000000
     atom  136 type  1   force =     0.00167978   -0.00109716    0.00000001
     atom  137 type  1   force =     0.00037998   -0.00035371    0.00000000
     atom  138 type  1   force =    -0.00026715   -0.00014003   -0.00000001
     atom  139 type  1   force =     0.00014873   -0.00059197    0.00000004
     atom  140 type  1   force =     0.00037067    0.00000004    0.00000000
     atom  141 type  1   force =     0.00081517    0.00000001    0.00000001
     atom  142 type  1   force =     0.00059256    0.00079614   -0.00000001
     atom  143 type  1   force =     0.00040227    0.00011377   -0.00000000
     atom  144 type  1   force =     0.00008639   -0.00111404   -0.00000002
     atom  145 type  1   force =     0.00013657    0.00005566   -0.00000002
     atom  146 type  1   force =     0.00058119   -0.00088642    0.00000002
     atom  147 type  1   force =     0.00001506   -0.00014874   -0.00000001
     atom  148 type  1   force =     0.00071431   -0.00110131    0.00000000
     atom  149 type  1   force =    -0.00005405   -0.00036982    0.00000001
     atom  150 type  1   force =     0.00051585   -0.00112035   -0.00000001
     atom  151 type  1   force =    -0.00005948   -0.00024775    0.00000002
     atom  152 type  1   force =     0.00081100   -0.00063341   -0.00000001
     atom  153 type  1   force =     0.00016426    0.00025117   -0.00000000
     atom  154 type  1   force =     0.00043332   -0.00009455   -0.00000000
     atom  155 type  1   force =     0.00007241   -0.00020497    0.00000002
     atom  156 type  1   force =     0.00070415   -0.00068576    0.00000000
     atom  157 type  1   force =     0.00073439   -0.00097463    0.00000000
     atom  158 type  1   force =     0.00059257   -0.00079614    0.00000002
     atom  159 type  1   force =     0.00040228   -0.00011384    0.00000000
     atom  160 type  1   force =     0.00008409    0.00000002   -0.00000000
     atom  161 type  1   force =    -0.00032688    0.00000002    0.00000003

     Total force =     0.023219     Total SCF correction =     0.000008
     Energy error            =      3.5E-04 Ry
     Gradient error          =      8.4E-03 Ry/Bohr

     number of scf cycles    =  10
     number of bfgs steps    =   9

     energy             old  =   -1939.0603463609 Ry
     energy             new  =   -1939.0606982704 Ry

     CASE: energy            _new < energy            _old

     new trust radius        =       0.0340097541 bohr
     new conv_thr            =            3.5E-11 Ry


ATOMIC_POSITIONS (crystal)
C                0.0369380847        0.0369380859       -0.0000000030
C                0.0739957449        0.0739957396       -0.0000000017
C                0.0368105828        0.1482161697        0.0000000011
C                0.0739264356        0.1852208387       -0.0000000009
C                0.0367816600        0.2594299520       -0.0000000012
C                0.0739404357        0.2964338068        0.0000000017
C                0.0369055020        0.3705042272        0.0000000005
C                0.0740422400        0.4075852228        0.0000000027
C                0.0371637381        0.4816373888       -0.0000000011
C                0.0742575375        0.5186375215       -0.0000000025
C                0.0373623370        0.5926750932       -0.0000000007
C                0.0745964080        0.6295252847        0.0000000040
C                0.0374637888        0.7035030175        0.0000000019
C                0.0747580713        0.7402372462        0.0000000026
C                0.0375117414        0.8143568177        0.0000000003
C                0.0745743874        0.8512319683        0.0000000025
C                0.0372598012        0.9255513744        0.0000000014
C                0.0741645261        0.9626578270       -0.0000000040
C                0.1482161692        0.0368105812       -0.0000000021
C                0.1852208381        0.0739264322       -0.0000000022
C                0.1481353600        0.1481353617       -0.0000000015
C                0.1852381376        0.1852381360       -0.0000000039
C                0.1481988227        0.2593894563       -0.0000000013
C                0.1851651257        0.2964591575       -0.0000000016
C                0.1481252643        0.3705859894       -0.0000000000
C                0.1851309486        0.4076135153        0.0000000008
C                0.1484177592        0.4815975345       -0.0000000040
C                0.1855772375        0.5185036657       -0.0000000042
C                0.1488266805        0.5924405666        0.0000000019
C                0.1860416322        0.6290805604        0.0000000014
C                0.1489936400        0.7029844051        0.0000000034
C                0.1862602550        0.7396131052       -0.0000000017
C                0.1489103640        0.8138504620       -0.0000000006
C                0.1855882926        0.8511689407        0.0000000038
C                0.1483909684        0.9254176456       -0.0000000000
C                0.1852769880        0.9625709794        0.0000000016
C                0.2594299483        0.0367816614       -0.0000000009
C                0.2964338040        0.0739404338        0.0000000021
C                0.2593894543        0.1481988223       -0.0000000013
C                0.2964591580        0.1851651251        0.0000000019
C                0.2593932181        0.2593932191        0.0000000029
C                0.2962912473        0.2962912473        0.0000000008
C                0.2591944168        0.3704091599        0.0000000011
C                0.2959234567        0.4072845036        0.0000000014
C                0.2596420573        0.4811073967       -0.0000000049
C                0.2967376526        0.5180295657        0.0000000013
C                0.2604936755        0.5916589733        0.0000000023
C                0.2981837472        0.6277682065        0.0000000016
C                0.2607175847        0.7023084129        0.0000000001
C                0.2967303620        0.7400445209       -0.0000000001
C                0.2596627575        0.8140786531        0.0000000022
C                0.2964605366        0.8513775836        0.0000000015
C                0.2595080056        0.9253319848        0.0000000021
C                0.2964993771        0.9626337847        0.0000000009
C                0.3705042239        0.0369055016       -0.0000000003
C                0.4075852226        0.0740422390       -0.0000000004
C                0.3705859882        0.1481252658       -0.0000000016
C                0.4076135150        0.1851309497       -0.0000000000
C                0.3704091576        0.2591944165        0.0000000029
C                0.4072845046        0.2959234576        0.0000000008
C                0.3700656622        0.3700656510        0.0000000033
C                0.4063832940        0.4063832874        0.0000000001
C                0.3715217655        0.4801299072        0.0000000018
C                0.4073732785        0.5162215544        0.0000000001
C                0.3737365246        0.5895808121       -0.0000000017
C                0.4078314702        0.6295315078       -0.0000000015
C                0.3709628091        0.7027681551        0.0000000009
C                0.4077088142        0.7404520207       -0.0000000025
C                0.3706321362        0.8143038411       -0.0000000005
C                0.4076076968        0.8514107676        0.0000000001
C                0.3705569213        0.9255975218       -0.0000000019
C                0.4075319785        0.9627231549       -0.0000000030
C                0.4816373852        0.0371637409       -0.0000000010
C                0.5186375224        0.0742575360        0.0000000015
C                0.4815975339        0.1484177622        0.0000000025
C                0.5185036691        0.1855772392        0.0000000003
C                0.4811073989        0.2596420621        0.0000000012
C                0.5180295724        0.2967376589       -0.0000000017
C                0.4801299158        0.3715217752        0.0000000008
C                0.5162215469        0.4073733085        0.0000000024
C                0.5210320180        0.5210319934        0.0000000063
C                0.4818711002        0.5923887289        0.0000000038
C                0.5190184651        0.6297880068        0.0000000013
C                0.4815281265        0.7037141983       -0.0000000055
C                0.5186436680        0.7405520039       -0.0000000051
C                0.4815940358        0.8145081756       -0.0000000008
C                0.5186424623        0.8516533035       -0.0000000019
C                0.4816424619        0.9257354037       -0.0000000038
C                0.5185975559        0.9629355470       -0.0000000002
C                0.5926750915        0.0373623364       -0.0000000031
C                0.6295252852        0.0745964062       -0.0000000038
C                0.5924405645        0.1488266852       -0.0000000050
C                0.6290805604        0.1860416407        0.0000000026
C                0.5916589794        0.2604936787        0.0000000064
C                0.6277681988        0.2981837631        0.0000000058
C                0.5895808033        0.3737365360       -0.0000000046
C                0.6295315086        0.4078314721       -0.0000000062
C                0.5923887416        0.4818710913        0.0000000067
C                0.6297880166        0.5190184620       -0.0000000002
C                0.5926737106        0.5926737127       -0.0000000027
C                0.6297286656        0.6297286642       -0.0000000003
C                0.5926835483        0.7035380849       -0.0000000061
C                0.6296423376        0.7405432882       -0.0000000000
C                0.5926404189        0.8146610750       -0.0000000011
C                0.6296149235        0.8517795363       -0.0000000014
C                0.5926178697        0.9259624021        0.0000000002
C                0.6296348984        0.9631754932       -0.0000000008
C                0.7035030179        0.0374637898        0.0000000000
C                0.7402372475        0.0747580722       -0.0000000010
C                0.7029844052        0.1489936481       -0.0000000018
C                0.7396131011        0.1862602602       -0.0000000002
C                0.7023084071        0.2607175939       -0.0000000005
C                0.7400445201        0.2967303648       -0.0000000000
C                0.7027681612        0.3709628015       -0.0000000000
C                0.7404520158        0.4077088171       -0.0000000036
C                0.7037142018        0.4815281263       -0.0000000029
C                0.7405520056        0.5186436679       -0.0000000033
C                0.7035380842        0.5926835484       -0.0000000015
C                0.7405432904        0.6296423352        0.0000000077
C                0.7036265899        0.7036265893        0.0000000069
C                0.7407295344        0.7407295310        0.0000000029
C                0.7037383632        0.8147891568        0.0000000004
C                0.7407391261        0.8518587118        0.0000000008
C                0.7036953674        0.9260596042        0.0000000004
C                0.7406347720        0.9631637361        0.0000000008
C                0.8143568173        0.0375117422       -0.0000000030
C                0.8512319676        0.0745743864       -0.0000000009
C                0.8138504634        0.1489103650        0.0000000003
C                0.8511689424        0.1855882903       -0.0000000031
C                0.8140786575        0.2596627572       -0.0000000025
C                0.8513775826        0.2964605377        0.0000000005
C                0.8143038422        0.3706321348       -0.0000000001
C                0.8514107680        0.4076076998        0.0000000036
C                0.8145081803        0.4815940342        0.0000000005
C                0.8516533070        0.5186424607        0.0000000015
C                0.8146610761        0.5926404172        0.0000000024
C                0.8517795377        0.6296149241        0.0000000007
C                0.8147891572        0.7037383630       -0.0000000001
C                0.8518587135        0.7407391259        0.0000000001
C                0.8148230574        0.8148230556        0.0000000058
C                0.8518801217        0.8518801212        0.0000000037
C                0.8147756038        0.9260361817        0.0000000016
C                0.8516655208        0.9631828400        0.0000000005
C                0.9255513754        0.0372597988        0.0000000009
C                0.9626578276        0.0741645219       -0.0000000004
C                0.9254176480        0.1483909675       -0.0000000024
C                0.9625709829        0.1852769868        0.0000000010
C                0.9253319890        0.2595080035        0.0000000001
C                0.9626337876        0.2964993782       -0.0000000003
C                0.9255975237        0.3705569239        0.0000000027
C                0.9627231563        0.4075319815        0.0000000009
C                0.9257354052        0.4816424631        0.0000000027
C                0.9629355466        0.5185975595        0.0000000036
C                0.9259624036        0.5926178714        0.0000000012
C                0.9631754967        0.6296348982       -0.0000000026
C                0.9260596050        0.7036953687       -0.0000000043
C                0.9631637352        0.7406347720       -0.0000000032
C                0.9260361814        0.8147756032       -0.0000000027
C                0.9631828409        0.8516655217       -0.0000000026
C                0.9259197583        0.9259197580       -0.0000000029
C                0.9629462381        0.9629462346       -0.0000000001



     Writing config-only to output data dir /home/gregb26/links/scratch/qe_tmp/vacancy_relaxed/nspin1/vac_9x9_relax_nspin1.save/ :
     XML data file
     NEW-OLD atomic charge density approx. for the potential

     negative rho (up, down):  6.620E-06 0.000E+00

     total cpu time spent up to now is     1408.3 secs

     per-process dynamical memory:   351.9 Mb

     Self-consistent Calculation

     iteration #  1     ecut=   100.00 Ry     beta= 0.30
     Davidson diagonalization with overlap
     ethr =  1.00E-06,  avg # of iterations =  7.0

     negative rho (up, down):  4.382E-06 0.000E+00

     total cpu time spent up to now is     1423.3 secs

     total energy              =   -1939.04478862 Ry
     estimated scf accuracy    <       0.03745290 Ry

     iteration #  2     ecut=   100.00 Ry     beta= 0.30
     Davidson diagonalization with overlap
     ethr =  5.82E-06,  avg # of iterations =  6.0

     negative rho (up, down):  4.021E-06 0.000E+00

     total cpu time spent up to now is     1431.3 secs

     total energy              =   -1939.05556292 Ry
     estimated scf accuracy    <       0.37839237 Ry

     iteration #  3     ecut=   100.00 Ry     beta= 0.30
     Davidson diagonalization with overlap
     ethr =  5.82E-06,  avg # of iterations =  6.0

     negative rho (up, down):  3.721E-06 0.000E+00

     total cpu time spent up to now is     1438.6 secs

     total energy              =   -1939.05924676 Ry
     estimated scf accuracy    <       0.11390296 Ry

     iteration #  4     ecut=   100.00 Ry     beta= 0.30
     Davidson diagonalization with overlap
     ethr =  5.82E-06,  avg # of iterations =  4.0

     negative rho (up, down):  2.338E-06 0.000E+00

     total cpu time spent up to now is     1445.7 secs

     total energy              =   -1939.06058473 Ry
     estimated scf accuracy    <       0.00444903 Ry

     iteration #  5     ecut=   100.00 Ry     beta= 0.30
     Davidson diagonalization with overlap
     ethr =  6.91E-07,  avg # of iterations =  7.0

     negative rho (up, down):  8.846E-07 0.000E+00

     total cpu time spent up to now is     1453.5 secs

     total energy              =   -1939.06036768 Ry
     estimated scf accuracy    <       0.02589973 Ry

     iteration #  6     ecut=   100.00 Ry     beta= 0.30
     Davidson diagonalization with overlap
     ethr =  6.91E-07,  avg # of iterations =  2.0

     negative rho (up, down):  4.760E-07 0.000E+00

     total cpu time spent up to now is     1460.4 secs

     total energy              =   -1939.06107595 Ry
     estimated scf accuracy    <       0.00305111 Ry

     iteration #  7     ecut=   100.00 Ry     beta= 0.30
     Davidson diagonalization with overlap
     ethr =  4.74E-07,  avg # of iterations =  1.0

     negative rho (up, down):  1.852E-07 0.000E+00

     total cpu time spent up to now is     1466.5 secs

     total energy              =   -1939.06112441 Ry
     estimated scf accuracy    <       0.00023365 Ry

     iteration #  8     ecut=   100.00 Ry     beta= 0.30
     Davidson diagonalization with overlap
     ethr =  3.63E-08,  avg # of iterations =  5.0

     negative rho (up, down):  6.775E-08 0.000E+00

     total cpu time spent up to now is     1474.0 secs

     total energy              =   -1939.06107505 Ry
     estimated scf accuracy    <       0.00180358 Ry

     iteration #  9     ecut=   100.00 Ry     beta= 0.30
     Davidson diagonalization with overlap
     ethr =  3.63E-08,  avg # of iterations =  2.0

     negative rho (up, down):  1.671E-08 0.000E+00

     total cpu time spent up to now is     1480.8 secs

     total energy              =   -1939.06111086 Ry
     estimated scf accuracy    <       0.00000852 Ry

     iteration # 10     ecut=   100.00 Ry     beta= 0.30
     Davidson diagonalization with overlap
     ethr =  1.32E-09,  avg # of iterations =  6.0

     total cpu time spent up to now is     1489.3 secs

     total energy              =   -1939.06111130 Ry
     estimated scf accuracy    <       0.00001976 Ry

     iteration # 11     ecut=   100.00 Ry     beta= 0.30
     Davidson diagonalization with overlap
     ethr =  1.32E-09,  avg # of iterations =  2.0

     total cpu time spent up to now is     1496.4 secs

     total energy              =   -1939.06111183 Ry
     estimated scf accuracy    <       0.00000283 Ry

     iteration # 12     ecut=   100.00 Ry     beta= 0.30
     Davidson diagonalization with overlap
     ethr =  4.40E-10,  avg # of iterations =  1.0

     total cpu time spent up to now is     1502.9 secs

     total energy              =   -1939.06111192 Ry
     estimated scf accuracy    <       0.00000062 Ry

     iteration # 13     ecut=   100.00 Ry     beta= 0.30
     Davidson diagonalization with overlap
     ethr =  9.69E-11,  avg # of iterations =  4.0

     total cpu time spent up to now is     1510.2 secs

     total energy              =   -1939.06111194 Ry
     estimated scf accuracy    <          5.3E-09 Ry

     iteration # 14     ecut=   100.00 Ry     beta= 0.30
     Davidson diagonalization with overlap
     ethr =  8.31E-13,  avg # of iterations =  6.0

     total cpu time spent up to now is     1522.8 secs

     total energy              =   -1939.06111195 Ry
     estimated scf accuracy    <          2.8E-09 Ry

     iteration # 15     ecut=   100.00 Ry     beta= 0.30
     Davidson diagonalization with overlap
     ethr =  4.42E-13,  avg # of iterations =  2.0

     total cpu time spent up to now is     1529.6 secs

     total energy              =   -1939.06111195 Ry
     estimated scf accuracy    <          1.1E-09 Ry

     iteration # 16     ecut=   100.00 Ry     beta= 0.30
     Davidson diagonalization with overlap
     ethr =  1.71E-13,  avg # of iterations =  4.0

     total cpu time spent up to now is     1537.2 secs

     total energy              =   -1939.06111195 Ry
     estimated scf accuracy    <          3.3E-10 Ry

     iteration # 17     ecut=   100.00 Ry     beta= 0.30
     Davidson diagonalization with overlap
     ethr =  1.00E-13,  avg # of iterations =  2.0

     total cpu time spent up to now is     1543.8 secs

     total energy              =   -1939.06111195 Ry
     estimated scf accuracy    <          1.9E-10 Ry

     iteration # 18     ecut=   100.00 Ry     beta= 0.30
     Davidson diagonalization with overlap
     ethr =  1.00E-13,  avg # of iterations =  1.0

     total cpu time spent up to now is     1550.3 secs

     End of self-consistent calculation

          k = 0.0000 0.0000 0.0000 (385710 PWs)   bands (ev):

   -23.7917 -23.5576 -23.5270 -23.5017 -23.4938 -23.4847 -23.4480 -22.9592
   -22.9436 -22.9408 -22.9376 -22.9284 -22.8331 -22.6581 -22.6576 -22.6522
   -22.6479 -22.6388 -22.4909 -21.8353 -21.8334 -21.8085 -21.8075 -21.7892
   -21.7832 -21.7782 -21.7728 -21.7692 -21.7685 -21.7661 -21.5408 -21.2445
   -21.2310 -21.2239 -21.2191 -21.2037 -21.0210 -20.4168 -20.4155 -20.3965
   -20.3770 -20.3703 -20.2959 -20.1438 -20.1356 -20.1302 -20.1257 -20.1238
   -20.1213 -20.1182 -20.1134 -20.1069 -20.0800 -20.0613 -19.7012 -19.3424
   -19.3378 -19.3258 -19.3013 -19.3007 -19.1094 -18.5898 -18.5879 -18.5802
   -18.5461 -18.5391 -18.5388 -18.5313 -18.5261 -18.5247 -18.5048 -18.5036
   -18.4300 -18.3840 -18.3824 -18.3823 -18.3695 -18.3585 -17.7735 -17.3558
   -17.3531 -17.3520 -17.2939 -17.2728 -17.1726 -16.9112 -16.8712 -16.8691
   -16.7864 -16.6823 -16.6792 -16.6747 -16.6039 -16.6009 -16.4208 -16.1209
   -16.1088 -16.1061 -16.0930 -16.0920 -16.0798 -16.0750 -16.0725 -16.0688
   -15.9530 -15.9479 -15.5414 -15.2501 -15.2429 -15.2338 -15.2227 -15.2169
   -15.2156 -15.2112 -15.2072 -15.2053 -15.0928 -15.0791 -14.7997 -14.7812
   -14.4448 -13.9941 -13.9856 -13.9839 -13.9567 -13.9533 -13.9506 -13.9445
   -13.9426 -13.9285 -13.8590 -13.8387 -13.5821 -13.5052 -13.4543 -13.4527
   -13.4335 -13.4335 -13.4235 -13.4186 -13.4140 -13.4120 -13.2391 -13.2286
   -12.8975 -12.5251 -12.5091 -12.4925 -12.4908 -12.4758 -12.4661 -12.4610
   -12.4538 -12.4514 -12.4379 -12.4372 -12.4346 -12.4322 -12.4307 -12.4252
   -12.1751 -12.1671 -11.8741 -11.7107 -11.6624 -11.6216 -11.6182 -11.5737
   -11.5514 -11.5403 -11.5323 -11.5305 -11.5256 -11.5188 -11.4595 -11.4218
   -11.3778 -11.3479 -11.3311 -11.3239 -11.3221 -11.3195 -11.3078 -11.3022
   -11.2892 -11.1712 -11.1655 -11.1633 -11.0251 -11.0113 -11.0067 -10.8892
   -10.8713 -10.8692 -10.8594 -10.8571 -10.8558 -10.8482 -10.7489 -10.7125
   -10.6480 -10.6409 -10.6281 -10.6108 -10.6020 -10.5443 -10.5243 -10.5231
   -10.5200 -10.5145 -10.5104 -10.4916 -10.4611 -10.4503 -10.4383 -10.4321
   -10.4273 -10.4235 -10.4209 -10.3983 -10.3577 -10.2209 -10.2182 -10.1890
   -10.1107 -10.1077 -10.0973 -10.0652 -10.0548 -10.0520 -10.0166 -10.0070
    -9.9895  -9.5467  -9.5465  -9.5413  -9.5288  -9.5208  -9.5190  -9.5111
    -9.5060  -9.5040  -9.5008  -9.4994  -9.4836  -9.4810  -9.2735  -9.1269
    -9.1090  -9.0986  -9.0927  -9.0471  -9.0435  -9.0435  -9.0407  -9.0365
    -9.0232  -8.9084  -8.8936  -8.8913  -8.8841  -8.8831  -8.7306  -8.7056
    -8.6508  -8.6481  -8.4448  -8.4430  -8.4425  -8.0851  -8.0710  -7.9515
    -7.9501  -7.9402  -7.9396  -7.9316  -7.9244  -7.9184  -7.9165  -7.8799
    -7.8608  -7.7174  -7.7132  -7.7031  -7.7024  -7.6994  -7.6971  -7.6936
    -7.6893  -7.6870  -7.6864  -7.6852  -7.6790  -7.3974  -7.3919  -7.3509
    -7.0622  -7.0603  -7.0501  -7.0483  -7.0412  -6.8090  -6.3736  -6.3680
    -6.3639  -6.3552  -6.3523  -6.2578  -6.0894  -6.0891  -6.0806  -6.0760
    -6.0652  -6.0638  -6.0545  -6.0532  -6.0505  -6.0453  -6.0423  -5.0357
    -4.2736  -4.2477  -4.2409  -4.1950  -3.9647  -3.8978  -2.6708  -2.6610
    -2.6532  -2.6420  -2.6370  -2.6278  -2.5888  -2.5707  -2.5659  -2.5481
    -2.5465  -2.5409  -2.5393  -2.5309  -2.5278  -2.4673  -2.4580  -2.2090
    -2.0542  -2.0428  -2.0246  -1.9897  -1.9842  -1.5491  -0.9731  -0.9696

     the Fermi energy is    -4.2216 ev

!    total energy              =   -1939.06111195 Ry
     estimated scf accuracy    <          1.5E-11 Ry
     smearing contrib. (-TS)   =      -0.01198180 Ry
     internal energy E=F+TS    =   -1939.04913015 Ry

     The total energy is F=E-TS. E is the sum of the following terms:
     one-electron contribution =  -21953.64725462 Ry
     hartree contribution      =   11036.85825418 Ry
     xc contribution           =    -689.97063251 Ry
     ewald contribution        =    9667.71050279 Ry

     convergence has been achieved in  18 iterations

     Forces acting on atoms (cartesian axes, Ry/au):

     atom    1 type  1   force =    -0.00026384   -0.00000009   -0.00000000
     atom    2 type  1   force =    -0.00070650    0.00000014    0.00000000
     atom    3 type  1   force =    -0.00034388   -0.00037041   -0.00000000
     atom    4 type  1   force =    -0.00057892    0.00047063    0.00000000
     atom    5 type  1   force =    -0.00015825   -0.00045230    0.00000002
     atom    6 type  1   force =    -0.00031930    0.00023558   -0.00000002
     atom    7 type  1   force =    -0.00006565    0.00003129    0.00000001
     atom    8 type  1   force =    -0.00073267   -0.00048937   -0.00000003
     atom    9 type  1   force =    -0.00136126    0.00081912    0.00000001
     atom   10 type  1   force =    -0.00212258    0.00036445   -0.00000001
     atom   11 type  1   force =    -0.00239446    0.00095957    0.00000000
     atom   12 type  1   force =    -0.00273287    0.00178461   -0.00000002
     atom   13 type  1   force =    -0.00046792    0.00067507   -0.00000001
     atom   14 type  1   force =    -0.00077034    0.00324090   -0.00000000
     atom   15 type  1   force =     0.00011113    0.00253721   -0.00000001
     atom   16 type  1   force =     0.00061949    0.00229857   -0.00000001
     atom   17 type  1   force =    -0.00004336    0.00135431   -0.00000002
     atom   18 type  1   force =     0.00056652    0.00017839    0.00000002
     atom   19 type  1   force =    -0.00034390    0.00037026    0.00000001
     atom   20 type  1   force =    -0.00057880   -0.00047047    0.00000000
     atom   21 type  1   force =    -0.00048225   -0.00000010   -0.00000001
     atom   22 type  1   force =    -0.00026192    0.00000006    0.00000002
     atom   23 type  1   force =    -0.00152204    0.00036899    0.00000001
     atom   24 type  1   force =    -0.00102196   -0.00008074    0.00000003
     atom   25 type  1   force =    -0.00272323    0.00016708    0.00000001
     atom   26 type  1   force =    -0.00230546   -0.00100340   -0.00000002
     atom   27 type  1   force =    -0.00216306    0.00053803    0.00000002
     atom   28 type  1   force =    -0.00325021   -0.00103922    0.00000001
     atom   29 type  1   force =    -0.00172507    0.00131057   -0.00000001
     atom   30 type  1   force =    -0.00122793    0.00156261    0.00000004
     atom   31 type  1   force =    -0.00067022    0.00164010   -0.00000003
     atom   32 type  1   force =     0.00190770    0.00132477    0.00000002
     atom   33 type  1   force =     0.00040517    0.00167050    0.00000001
     atom   34 type  1   force =     0.00147140    0.00142585   -0.00000003
     atom   35 type  1   force =     0.00070411    0.00193873    0.00000001
     atom   36 type  1   force =     0.00033634    0.00035091   -0.00000002
     atom   37 type  1   force =    -0.00015834    0.00045216    0.00000001
     atom   38 type  1   force =    -0.00031922   -0.00023552   -0.00000002
     atom   39 type  1   force =    -0.00152200   -0.00036904    0.00000001
     atom   40 type  1   force =    -0.00102198    0.00008085   -0.00000001
     atom   41 type  1   force =    -0.00275932   -0.00000002   -0.00000001
     atom   42 type  1   force =    -0.00227151    0.00000002    0.00000001
     atom   43 type  1   force =    -0.00118089    0.00092234   -0.00000000
     atom   44 type  1   force =    -0.00054056   -0.00001084   -0.00000003
     atom   45 type  1   force =    -0.00020504    0.00122937    0.00000003
     atom   46 type  1   force =     0.00160152    0.00026216    0.00000000
     atom   47 type  1   force =    -0.00087580    0.00189622    0.00000000
     atom   48 type  1   force =    -0.00132260   -0.00260590   -0.00000003
     atom   49 type  1   force =    -0.00118657   -0.00052582   -0.00000000
     atom   50 type  1   force =     0.00021889   -0.00021763    0.00000003
     atom   51 type  1   force =    -0.00012366    0.00052313   -0.00000000
     atom   52 type  1   force =     0.00149655    0.00109431   -0.00000001
     atom   53 type  1   force =     0.00113662    0.00164904    0.00000002
     atom   54 type  1   force =    -0.00007122    0.00064669   -0.00000000
     atom   55 type  1   force =    -0.00006562   -0.00003136    0.00000001
     atom   56 type  1   force =    -0.00073272    0.00048948   -0.00000001
     atom   57 type  1   force =    -0.00272328   -0.00016712    0.00000002
     atom   58 type  1   force =    -0.00230549    0.00100343    0.00000002
     atom   59 type  1   force =    -0.00118077   -0.00092232   -0.00000003
     atom   60 type  1   force =    -0.00054076    0.00001066    0.00000001
     atom   61 type  1   force =    -0.00173387    0.00000024   -0.00000004
     atom   62 type  1   force =    -0.00043908    0.00000008   -0.00000001
     atom   63 type  1   force =     0.00354102   -0.00270551    0.00000002
     atom   64 type  1   force =     0.00493173   -0.00700027    0.00000001
     atom   65 type  1   force =    -0.00282847   -0.00752399    0.00000001
     atom   66 type  1   force =    -0.00155943   -0.00141174    0.00000002
     atom   67 type  1   force =    -0.00021566   -0.00013993   -0.00000005
     atom   68 type  1   force =    -0.00015838   -0.00033312   -0.00000001
     atom   69 type  1   force =     0.00099663   -0.00036806    0.00000002
     atom   70 type  1   force =     0.00093497    0.00177174   -0.00000000
     atom   71 type  1   force =     0.00111267    0.00165023    0.00000001
     atom   72 type  1   force =     0.00002548    0.00061092    0.00000001
     atom   73 type  1   force =    -0.00136133   -0.00081923    0.00000000
     atom   74 type  1   force =    -0.00212252   -0.00036429   -0.00000002
     atom   75 type  1   force =    -0.00216311   -0.00053815   -0.00000003
     atom   76 type  1   force =    -0.00325028    0.00103936   -0.00000001
     atom   77 type  1   force =    -0.00020497   -0.00122940   -0.00000001
     atom   78 type  1   force =     0.00160125   -0.00026207    0.00000003
     atom   79 type  1   force =     0.00354072    0.00270582   -0.00000002
     atom   80 type  1   force =     0.00493161    0.00700009   -0.00000004
     atom   81 type  1   force =    -0.00150253    0.00000020    0.00000001
     atom   82 type  1   force =    -0.00367631   -0.00084687    0.00000000
     atom   83 type  1   force =     0.00105233   -0.00132790   -0.00000001
     atom   84 type  1   force =     0.00163128   -0.00016938    0.00000002
     atom   85 type  1   force =     0.00176903    0.00205952    0.00000002
     atom   86 type  1   force =     0.00197402    0.00109386   -0.00000000
     atom   87 type  1   force =     0.00157357    0.00148095    0.00000001
     atom   88 type  1   force =     0.00099548    0.00074300    0.00000003
     atom   89 type  1   force =     0.00018372   -0.00011942   -0.00000001
     atom   90 type  1   force =    -0.00239442   -0.00095965    0.00000003
     atom   91 type  1   force =    -0.00273282   -0.00178449   -0.00000002
     atom   92 type  1   force =    -0.00172502   -0.00131077    0.00000004
     atom   93 type  1   force =    -0.00122812   -0.00156281   -0.00000002
     atom   94 type  1   force =    -0.00087586   -0.00189604   -0.00000001
     atom   95 type  1   force =    -0.00132265    0.00260554   -0.00000003
     atom   96 type  1   force =    -0.00282809    0.00752390    0.00000004
     atom   97 type  1   force =    -0.00155946    0.00141135    0.00000005
     atom   98 type  1   force =    -0.00367599    0.00084696   -0.00000006
     atom   99 type  1   force =     0.00105227    0.00132819    0.00000001
     atom  100 type  1   force =     0.00292996   -0.00000015    0.00000002
     atom  101 type  1   force =     0.00219948    0.00000007   -0.00000003
     atom  102 type  1   force =     0.00224586    0.00025223    0.00000005
     atom  103 type  1   force =     0.00370000    0.00114059   -0.00000001
     atom  104 type  1   force =     0.00237982    0.00136073    0.00000000
     atom  105 type  1   force =     0.00127317    0.00059752    0.00000001
     atom  106 type  1   force =     0.00066760   -0.00005147    0.00000001
     atom  107 type  1   force =    -0.00057447   -0.00026466   -0.00000001
     atom  108 type  1   force =    -0.00046794   -0.00067509   -0.00000001
     atom  109 type  1   force =    -0.00077030   -0.00324082   -0.00000001
     atom  110 type  1   force =    -0.00067046   -0.00164022    0.00000004
     atom  111 type  1   force =     0.00190787   -0.00132484    0.00000000
     atom  112 type  1   force =    -0.00118660    0.00052578    0.00000001
     atom  113 type  1   force =     0.00021896    0.00021734   -0.00000001
     atom  114 type  1   force =    -0.00021559    0.00014037   -0.00000003
     atom  115 type  1   force =    -0.00015826    0.00033275    0.00000001
     atom  116 type  1   force =     0.00163134    0.00016941    0.00000000
     atom  117 type  1   force =     0.00176911   -0.00205958    0.00000002
     atom  118 type  1   force =     0.00224587   -0.00025230    0.00000003
     atom  119 type  1   force =     0.00370003   -0.00114053   -0.00000005
     atom  120 type  1   force =     0.00184644   -0.00000004   -0.00000003
     atom  121 type  1   force =     0.00048230    0.00000005    0.00000000
     atom  122 type  1   force =    -0.00007455    0.00020818   -0.00000001
     atom  123 type  1   force =     0.00033259    0.00078248    0.00000001
     atom  124 type  1   force =     0.00080054    0.00061246   -0.00000001
     atom  125 type  1   force =     0.00047960    0.00024732   -0.00000000
     atom  126 type  1   force =     0.00011102   -0.00253724    0.00000002
     atom  127 type  1   force =     0.00061961   -0.00229860    0.00000001
     atom  128 type  1   force =     0.00040501   -0.00167049   -0.00000003
     atom  129 type  1   force =     0.00147156   -0.00142590    0.00000002
     atom  130 type  1   force =    -0.00012382   -0.00052302    0.00000002
     atom  131 type  1   force =     0.00149668   -0.00109446   -0.00000001
     atom  132 type  1   force =     0.00099668    0.00036829   -0.00000001
     atom  133 type  1   force =     0.00093486   -0.00177190   -0.00000002
     atom  134 type  1   force =     0.00197398   -0.00109366   -0.00000000
     atom  135 type  1   force =     0.00157357   -0.00148093    0.00000000
     atom  136 type  1   force =     0.00237992   -0.00136069    0.00000001
     atom  137 type  1   force =     0.00127309   -0.00059755   -0.00000001
     atom  138 type  1   force =    -0.00007451   -0.00020820    0.00000001
     atom  139 type  1   force =     0.00033257   -0.00078249    0.00000002
     atom  140 type  1   force =     0.00061749    0.00000004   -0.00000004
     atom  141 type  1   force =     0.00105050   -0.00000002   -0.00000001
     atom  142 type  1   force =     0.00056297    0.00086763    0.00000001
     atom  143 type  1   force =     0.00039025   -0.00071720   -0.00000003
     atom  144 type  1   force =    -0.00004340   -0.00135432   -0.00000000
     atom  145 type  1   force =     0.00056664   -0.00017830    0.00000000
     atom  146 type  1   force =     0.00070401   -0.00193878    0.00000001
     atom  147 type  1   force =     0.00033632   -0.00035092   -0.00000001
     atom  148 type  1   force =     0.00113664   -0.00164891    0.00000000
     atom  149 type  1   force =    -0.00007132   -0.00064663    0.00000001
     atom  150 type  1   force =     0.00111264   -0.00165018    0.00000000
     atom  151 type  1   force =     0.00002543   -0.00061094    0.00000000
     atom  152 type  1   force =     0.00099550   -0.00074295   -0.00000001
     atom  153 type  1   force =     0.00018369    0.00011940   -0.00000002
     atom  154 type  1   force =     0.00066761    0.00005150   -0.00000001
     atom  155 type  1   force =    -0.00057449    0.00026472    0.00000001
     atom  156 type  1   force =     0.00080049   -0.00061249    0.00000003
     atom  157 type  1   force =     0.00047965   -0.00024735    0.00000002
     atom  158 type  1   force =     0.00056303   -0.00086760   -0.00000001
     atom  159 type  1   force =     0.00039014    0.00071718    0.00000000
     atom  160 type  1   force =    -0.00003553   -0.00000000    0.00000003
     atom  161 type  1   force =    -0.00034055    0.00000002    0.00000000

     Total force =     0.028578     Total SCF correction =     0.000005
     Energy error            =      4.1E-04 Ry
     Gradient error          =      7.5E-03 Ry/Bohr

     number of scf cycles    =  11
     number of bfgs steps    =  10

     energy             old  =   -1939.0606982704 Ry
     energy             new  =   -1939.0611119470 Ry

     CASE: energy            _new < energy            _old

     new trust radius        =       0.0307588719 bohr
     new conv_thr            =            4.1E-11 Ry


ATOMIC_POSITIONS (crystal)
C                0.0369097817        0.0369097805       -0.0000000036
C                0.0739708878        0.0739708839       -0.0000000016
C                0.0367671171        0.1482168676        0.0000000006
C                0.0738872512        0.1852257184       -0.0000000012
C                0.0367371772        0.2594497969       -0.0000000004
C                0.0739022108        0.2964602439        0.0000000018
C                0.0368704025        0.3705359102       -0.0000000001
C                0.0740236982        0.4076072819        0.0000000021
C                0.0371536272        0.4816646346       -0.0000000012
C                0.0742501501        0.5186435148       -0.0000000032
C                0.0374098644        0.5926804352       -0.0000000007
C                0.0746712934        0.6294933680        0.0000000039
C                0.0375582722        0.7034577858        0.0000000016
C                0.0748659796        0.7401648834        0.0000000042
C                0.0375940911        0.8142834581       -0.0000000000
C                0.0746331415        0.8511690260        0.0000000027
C                0.0372781699        0.9255020562        0.0000000018
C                0.0741841340        0.9626026509       -0.0000000044
C                0.1482168717        0.0367671114       -0.0000000026
C                0.1852257169        0.0738872492       -0.0000000027
C                0.1481249140        0.1481249120       -0.0000000024
C                0.1852390372        0.1852390361       -0.0000000041
C                0.1481778046        0.2593998652       -0.0000000018
C                0.1851513074        0.2964648253       -0.0000000008
C                0.1481021681        0.3705984389        0.0000000007
C                0.1851097994        0.4075979693        0.0000000009
C                0.1483807082        0.4815813294       -0.0000000050
C                0.1855607870        0.5184496247       -0.0000000040
C                0.1488756504        0.5923872197        0.0000000021
C                0.1861250467        0.6290028909        0.0000000021
C                0.1490872570        0.7029146295        0.0000000035
C                0.1863904913        0.7395036305       -0.0000000019
C                0.1489812684        0.8137686981       -0.0000000011
C                0.1856707153        0.8510695355        0.0000000040
C                0.1484381080        0.9253262687        0.0000000002
C                0.1853025997        0.9624986839        0.0000000016
C                0.2594497944        0.0367371745       -0.0000000015
C                0.2964602398        0.0739022093        0.0000000023
C                0.2593998637        0.1481778028       -0.0000000019
C                0.2964648225        0.1851513091        0.0000000015
C                0.2593681690        0.2593681701        0.0000000038
C                0.2962570099        0.2962570101        0.0000000015
C                0.2591525840        0.3703699001        0.0000000012
C                0.2958614453        0.4072220956        0.0000000008
C                0.2596023298        0.4810538507       -0.0000000048
C                0.2967677036        0.5179123938        0.0000000021
C                0.2605843535        0.5915506354        0.0000000033
C                0.2984893760        0.6274736061       -0.0000000004
C                0.2609037710        0.7020997326        0.0000000005
C                0.2968481969        0.7399129210        0.0000000011
C                0.2597461851        0.8139695385        0.0000000025
C                0.2964951980        0.8513131950        0.0000000013
C                0.2595279803        0.9252741880        0.0000000042
C                0.2965154966        0.9625766551        0.0000000007
C                0.3705359068        0.0368704009       -0.0000000001
C                0.4076072796        0.0740236976       -0.0000000006
C                0.3705984381        0.1481021689       -0.0000000011
C                0.4075979688        0.1851097999        0.0000000015
C                0.3703698961        0.2591525883        0.0000000031
C                0.4072220967        0.2958614406        0.0000000005
C                0.3699845807        0.3699845734        0.0000000022
C                0.4062670348        0.4062670325        0.0000000000
C                0.3715005810        0.4800036128        0.0000000020
C                0.4081011916        0.5154827181       -0.0000000000
C                0.3741081797        0.5890713983       -0.0000000030
C                0.4079933088        0.6293217940       -0.0000000030
C                0.3710943454        0.7025851119       -0.0000000008
C                0.4077596659        0.7403983290       -0.0000000042
C                0.3706643693        0.8142475210        0.0000000014
C                0.4076158794        0.8513781640        0.0000000002
C                0.3705730620        0.9255555545       -0.0000000025
C                0.4075486007        0.9626896284       -0.0000000029
C                0.4816646298        0.0371536273       -0.0000000019
C                0.5186435130        0.0742501516        0.0000000018
C                0.4815813282        0.1483807080        0.0000000025
C                0.5184496243        0.1855607915        0.0000000002
C                0.4810538517        0.2596023362        0.0000000013
C                0.5179123957        0.2967677081       -0.0000000015
C                0.4800036063        0.3715005959        0.0000000016
C                0.5154827125        0.4081012180        0.0000000002
C                0.5211950591        0.5211950337        0.0000000068
C                0.4820217772        0.5924913852        0.0000000039
C                0.5191209484        0.6299061932        0.0000000016
C                0.4815846524        0.7037936458       -0.0000000063
C                0.5186666429        0.7406374989       -0.0000000036
C                0.4815992140        0.8145643011       -0.0000000001
C                0.5186531080        0.8516777239       -0.0000000023
C                0.4816661213        0.9257322511       -0.0000000039
C                0.5186157292        0.9629341272       -0.0000000011
C                0.5926804347        0.0374098620       -0.0000000028
C                0.6294933675        0.0746712917       -0.0000000051
C                0.5923872207        0.1488756526       -0.0000000056
C                0.6290028890        0.1861250541        0.0000000021
C                0.5915506408        0.2605843574        0.0000000077
C                0.6274736011        0.2984893878        0.0000000059
C                0.5890713931        0.3741082020       -0.0000000044
C                0.6293217983        0.4079933048       -0.0000000058
C                0.5924913952        0.4820217746        0.0000000090
C                0.6299061960        0.5191209508        0.0000000001
C                0.5927743827        0.5927743809       -0.0000000041
C                0.6298008823        0.6298008863        0.0000000008
C                0.5927094919        0.7036025788       -0.0000000052
C                0.6296575214        0.7405624165       -0.0000000010
C                0.5926485974        0.8146708820       -0.0000000011
C                0.6296109775        0.8517959543       -0.0000000025
C                0.5926330486        0.9259804206        0.0000000008
C                0.6296286193        0.9632211238       -0.0000000016
C                0.7034577859        0.0375582714        0.0000000001
C                0.7401648851        0.0748659807       -0.0000000012
C                0.7029146321        0.1490872614       -0.0000000007
C                0.7395036254        0.1863904979       -0.0000000009
C                0.7020997270        0.2609037825        0.0000000006
C                0.7399129235        0.2968481984       -0.0000000005
C                0.7025851127        0.3710943453        0.0000000006
C                0.7403983297        0.4077596618       -0.0000000048
C                0.7037936503        0.4815846573       -0.0000000029
C                0.7406375013        0.5186666447       -0.0000000039
C                0.7036025808        0.5927094909       -0.0000000013
C                0.7405624177        0.6296575206        0.0000000080
C                0.7036294338        0.7036294334        0.0000000061
C                0.7407257207        0.7407257188        0.0000000046
C                0.7037372708        0.8147857177        0.0000000008
C                0.7407320635        0.8518820313       -0.0000000000
C                0.7036863712        0.9261211517        0.0000000008
C                0.7406014100        0.9632458844        0.0000000007
C                0.8142834580        0.0375940880       -0.0000000030
C                0.8511690294        0.0746331387       -0.0000000009
C                0.8137686996        0.1489812681       -0.0000000007
C                0.8510695404        0.1856707113       -0.0000000034
C                0.8139695430        0.2597461840       -0.0000000025
C                0.8513131978        0.2964951987        0.0000000002
C                0.8142475184        0.3706643721       -0.0000000007
C                0.8513781660        0.4076158792        0.0000000042
C                0.8145643031        0.4815992164        0.0000000010
C                0.8516777276        0.5186531068        0.0000000021
C                0.8146708836        0.5926485969        0.0000000030
C                0.8517959559        0.6296109775       -0.0000000001
C                0.8147857204        0.7037372706        0.0000000009
C                0.8518820349        0.7407320622        0.0000000010
C                0.8148333889        0.8148333866        0.0000000062
C                0.8518985576        0.8518985562        0.0000000041
C                0.8147504156        0.9260957620        0.0000000026
C                0.8516415299        0.9632348614       -0.0000000004
C                0.9255020587        0.0372781654        0.0000000012
C                0.9626026533        0.0741841275       -0.0000000009
C                0.9253262728        0.1484381051       -0.0000000028
C                0.9624986906        0.1853025963        0.0000000010
C                0.9252741908        0.2595279794        0.0000000002
C                0.9625766564        0.2965154997        0.0000000002
C                0.9255555562        0.3705730662        0.0000000039
C                0.9626896293        0.4075486045        0.0000000013
C                0.9257322536        0.4816661240        0.0000000028
C                0.9629341264        0.5186157336        0.0000000035
C                0.9259804229        0.5926330515        0.0000000013
C                0.9632211282        0.6296286194       -0.0000000032
C                0.9261211526        0.7036863724       -0.0000000034
C                0.9632458846        0.7406014102       -0.0000000026
C                0.9260957642        0.8147504134       -0.0000000034
C                0.9632348626        0.8516415288       -0.0000000030
C                0.9259183985        0.9259183971       -0.0000000035
C                0.9629419275        0.9629419232       -0.0000000004



     Writing config-only to output data dir /home/gregb26/links/scratch/qe_tmp/vacancy_relaxed/nspin1/vac_9x9_relax_nspin1.save/ :
     XML data file
     NEW-OLD atomic charge density approx. for the potential

     negative rho (up, down):  4.679E-06 0.000E+00

     total cpu time spent up to now is     1553.9 secs

     per-process dynamical memory:   351.9 Mb

     Self-consistent Calculation

     iteration #  1     ecut=   100.00 Ry     beta= 0.30
     Davidson diagonalization with overlap
     ethr =  1.00E-06,  avg # of iterations =  6.0

     negative rho (up, down):  3.090E-06 0.000E+00

     total cpu time spent up to now is     1567.9 secs

     total energy              =   -1939.05186897 Ry
     estimated scf accuracy    <       0.02237607 Ry

     iteration #  2     ecut=   100.00 Ry     beta= 0.30
     Davidson diagonalization with overlap
     ethr =  3.47E-06,  avg # of iterations =  6.0

     negative rho (up, down):  2.865E-06 0.000E+00

     total cpu time spent up to now is     1576.4 secs

     total energy              =   -1939.05732355 Ry
     estimated scf accuracy    <       0.31697737 Ry

     iteration #  3     ecut=   100.00 Ry     beta= 0.30
     Davidson diagonalization with overlap
     ethr =  3.47E-06,  avg # of iterations =  6.0

     negative rho (up, down):  2.649E-06 0.000E+00

     total cpu time spent up to now is     1584.1 secs

     total energy              =   -1939.06032267 Ry
     estimated scf accuracy    <       0.07881855 Ry

     iteration #  4     ecut=   100.00 Ry     beta= 0.30
     Davidson diagonalization with overlap
     ethr =  3.47E-06,  avg # of iterations =  4.0

     negative rho (up, down):  1.651E-06 0.000E+00

     total cpu time spent up to now is     1591.3 secs

     total energy              =   -1939.06156095 Ry
     estimated scf accuracy    <       0.00067796 Ry

     iteration #  5     ecut=   100.00 Ry     beta= 0.30
     Davidson diagonalization with overlap
     ethr =  1.05E-07,  avg # of iterations =  6.0

     negative rho (up, down):  6.012E-07 0.000E+00

     total cpu time spent up to now is     1599.6 secs

     total energy              =   -1939.06156642 Ry
     estimated scf accuracy    <       0.00647330 Ry

     iteration #  6     ecut=   100.00 Ry     beta= 0.30
     Davidson diagonalization with overlap
     ethr =  1.05E-07,  avg # of iterations =  2.0

     negative rho (up, down):  2.647E-07 0.000E+00

     total cpu time spent up to now is     1606.4 secs

     total energy              =   -1939.06170507 Ry
     estimated scf accuracy    <       0.00013897 Ry

     iteration #  7     ecut=   100.00 Ry     beta= 0.30
     Davidson diagonalization with overlap
     ethr =  2.16E-08,  avg # of iterations =  2.0

     negative rho (up, down):  8.900E-08 0.000E+00

     total cpu time spent up to now is     1613.4 secs

     total energy              =   -1939.06170432 Ry
     estimated scf accuracy    <       0.00016434 Ry

     iteration #  8     ecut=   100.00 Ry     beta= 0.30
     Davidson diagonalization with overlap
     ethr =  2.16E-08,  avg # of iterations =  1.0

     negative rho (up, down):  2.594E-08 0.000E+00

     total cpu time spent up to now is     1619.7 secs

     total energy              =   -1939.06170461 Ry
     estimated scf accuracy    <       0.00003830 Ry

     iteration #  9     ecut=   100.00 Ry     beta= 0.30
     Davidson diagonalization with overlap
     ethr =  5.95E-09,  avg # of iterations =  1.0

     total cpu time spent up to now is     1626.1 secs

     total energy              =   -1939.06170543 Ry
     estimated scf accuracy    <       0.00000025 Ry

     iteration # 10     ecut=   100.00 Ry     beta= 0.30
     Davidson diagonalization with overlap
     ethr =  3.80E-11,  avg # of iterations =  8.0

     total cpu time spent up to now is     1638.8 secs

     total energy              =   -1939.06170567 Ry
     estimated scf accuracy    <       0.00000188 Ry

     iteration # 11     ecut=   100.00 Ry     beta= 0.30
     Davidson diagonalization with overlap
     ethr =  3.80E-11,  avg # of iterations =  2.0

     total cpu time spent up to now is     1645.9 secs

     total energy              =   -1939.06170571 Ry
     estimated scf accuracy    <       0.00000094 Ry

     iteration # 12     ecut=   100.00 Ry     beta= 0.30
     Davidson diagonalization with overlap
     ethr =  3.80E-11,  avg # of iterations =  2.0

     total cpu time spent up to now is     1652.7 secs

     total energy              =   -1939.06170574 Ry
     estimated scf accuracy    <       0.00000029 Ry

     iteration # 13     ecut=   100.00 Ry     beta= 0.30
     Davidson diagonalization with overlap
     ethr =  3.80E-11,  avg # of iterations =  1.0

     total cpu time spent up to now is     1659.2 secs

     total energy              =   -1939.06170574 Ry
     estimated scf accuracy    <          4.9E-09 Ry

     iteration # 14     ecut=   100.00 Ry     beta= 0.30
     Davidson diagonalization with overlap
     ethr =  7.56E-13,  avg # of iterations =  5.0

     total cpu time spent up to now is     1666.6 secs

     total energy              =   -1939.06170574 Ry
     estimated scf accuracy    <          7.9E-10 Ry

     iteration # 15     ecut=   100.00 Ry     beta= 0.30
     Davidson diagonalization with overlap
     ethr =  1.22E-13,  avg # of iterations =  5.0

     total cpu time spent up to now is     1674.1 secs

     total energy              =   -1939.06170574 Ry
     estimated scf accuracy    <          2.4E-10 Ry

     iteration # 16     ecut=   100.00 Ry     beta= 0.30
     Davidson diagonalization with overlap
     ethr =  1.00E-13,  avg # of iterations =  1.0

     total cpu time spent up to now is     1680.1 secs

     total energy              =   -1939.06170574 Ry
     estimated scf accuracy    <          6.3E-11 Ry

     iteration # 17     ecut=   100.00 Ry     beta= 0.30
     Davidson diagonalization with overlap
     ethr =  1.00E-13,  avg # of iterations =  1.0

     total cpu time spent up to now is     1686.4 secs

     End of self-consistent calculation

          k = 0.0000 0.0000 0.0000 (385710 PWs)   bands (ev):

   -23.7912 -23.5590 -23.5223 -23.5046 -23.4948 -23.4850 -23.4405 -22.9575
   -22.9428 -22.9412 -22.9392 -22.9231 -22.8305 -22.6584 -22.6582 -22.6515
   -22.6461 -22.6353 -22.4880 -21.8313 -21.8280 -21.8073 -21.8051 -21.7907
   -21.7822 -21.7780 -21.7743 -21.7713 -21.7673 -21.7614 -21.5389 -21.2436
   -21.2295 -21.2210 -21.2190 -21.2014 -21.0196 -20.4132 -20.4124 -20.3940
   -20.3767 -20.3685 -20.2959 -20.1414 -20.1329 -20.1296 -20.1261 -20.1241
   -20.1198 -20.1190 -20.1144 -20.1059 -20.0783 -20.0558 -19.7004 -19.3416
   -19.3356 -19.3228 -19.3007 -19.2999 -19.1086 -18.5845 -18.5837 -18.5726
   -18.5479 -18.5412 -18.5387 -18.5323 -18.5262 -18.5219 -18.5036 -18.5020
   -18.4301 -18.3864 -18.3843 -18.3798 -18.3692 -18.3538 -17.7657 -17.3555
   -17.3536 -17.3520 -17.2931 -17.2703 -17.1735 -16.9091 -16.8692 -16.8672
   -16.7839 -16.6808 -16.6777 -16.6722 -16.6043 -16.6006 -16.4232 -16.1147
   -16.1065 -16.1048 -16.0922 -16.0916 -16.0801 -16.0755 -16.0726 -16.0669
   -15.9515 -15.9462 -15.5415 -15.2460 -15.2398 -15.2283 -15.2231 -15.2169
   -15.2159 -15.2117 -15.2075 -15.2045 -15.0905 -15.0758 -14.8007 -14.7803
   -14.4468 -13.9900 -13.9826 -13.9811 -13.9563 -13.9534 -13.9483 -13.9454
   -13.9427 -13.9267 -13.8564 -13.8337 -13.5796 -13.4990 -13.4535 -13.4510
   -13.4355 -13.4353 -13.4238 -13.4194 -13.4140 -13.4120 -13.2354 -13.2239
   -12.8996 -12.5230 -12.5070 -12.4831 -12.4822 -12.4739 -12.4643 -12.4612
   -12.4528 -12.4504 -12.4379 -12.4362 -12.4349 -12.4331 -12.4314 -12.4240
   -12.1761 -12.1663 -11.8741 -11.7114 -11.6531 -11.6221 -11.6181 -11.5750
   -11.5480 -11.5404 -11.5350 -11.5274 -11.5269 -11.5196 -11.4527 -11.4248
   -11.3714 -11.3465 -11.3281 -11.3220 -11.3211 -11.3194 -11.3081 -11.3022
   -11.2878 -11.1709 -11.1614 -11.1574 -11.0232 -11.0094 -11.0029 -10.8933
   -10.8714 -10.8677 -10.8601 -10.8579 -10.8568 -10.8439 -10.7469 -10.7064
   -10.6468 -10.6360 -10.6286 -10.6098 -10.5983 -10.5448 -10.5249 -10.5236
   -10.5197 -10.5133 -10.5074 -10.4837 -10.4593 -10.4486 -10.4381 -10.4314
   -10.4270 -10.4241 -10.4209 -10.3978 -10.3548 -10.2218 -10.2172 -10.1907
   -10.1109 -10.1055 -10.0927 -10.0642 -10.0526 -10.0470 -10.0158 -10.0062
    -9.9895  -9.5439  -9.5434  -9.5392  -9.5271  -9.5210  -9.5158  -9.5113
    -9.5074  -9.5055  -9.5012  -9.4988  -9.4794  -9.4768  -9.2717  -9.1164
    -9.1094  -9.0959  -9.0907  -9.0503  -9.0459  -9.0456  -9.0430  -9.0366
    -9.0216  -8.9080  -8.8934  -8.8900  -8.8828  -8.8814  -8.7402  -8.7043
    -8.6429  -8.6423  -8.4445  -8.4434  -8.4429  -8.0876  -8.0714  -7.9497
    -7.9484  -7.9392  -7.9388  -7.9290  -7.9229  -7.9180  -7.9163  -7.8819
    -7.8615  -7.7516  -7.7125  -7.7038  -7.7035  -7.6988  -7.6963  -7.6953
    -7.6871  -7.6870  -7.6838  -7.6821  -7.6778  -7.3975  -7.3930  -7.3509
    -7.0616  -7.0591  -7.0511  -7.0487  -7.0381  -6.8085  -6.3715  -6.3690
    -6.3637  -6.3548  -6.3492  -6.2576  -6.0875  -6.0836  -6.0811  -6.0747
    -6.0657  -6.0618  -6.0567  -6.0549  -6.0525  -6.0445  -6.0423  -5.0326
    -4.2737  -4.2471  -4.2395  -4.1997  -3.9635  -3.8114  -2.6698  -2.6603
    -2.6526  -2.6430  -2.6377  -2.6288  -2.5862  -2.5732  -2.5665  -2.5498
    -2.5482  -2.5432  -2.5412  -2.5322  -2.5269  -2.4638  -2.4551  -2.2085
    -2.0546  -2.0435  -2.0261  -1.9901  -1.9829  -1.5522  -0.9736  -0.9696

     the Fermi energy is    -4.2221 ev

!    total energy              =   -1939.06170574 Ry
     estimated scf accuracy    <          1.1E-11 Ry
     smearing contrib. (-TS)   =      -0.01210555 Ry
     internal energy E=F+TS    =   -1939.04960020 Ry

     The total energy is F=E-TS. E is the sum of the following terms:
     one-electron contribution =  -21953.28501536 Ry
     hartree contribution      =   11036.69267266 Ry
     xc contribution           =    -689.95527381 Ry
     ewald contribution        =    9667.49801632 Ry

     convergence has been achieved in  17 iterations

     Forces acting on atoms (cartesian axes, Ry/au):

     atom    1 type  1   force =     0.00006415   -0.00000005    0.00000001
     atom    2 type  1   force =    -0.00040286   -0.00000001   -0.00000000
     atom    3 type  1   force =    -0.00046472   -0.00047875   -0.00000001
     atom    4 type  1   force =    -0.00038207    0.00001330    0.00000002
     atom    5 type  1   force =    -0.00015050   -0.00054440    0.00000001
     atom    6 type  1   force =    -0.00056198   -0.00008884   -0.00000003
     atom    7 type  1   force =    -0.00019395   -0.00028695    0.00000001
     atom    8 type  1   force =    -0.00101851   -0.00034178   -0.00000001
     atom    9 type  1   force =    -0.00181631    0.00055299    0.00000003
     atom   10 type  1   force =    -0.00207259    0.00050649    0.00000000
     atom   11 type  1   force =    -0.00320366    0.00103630   -0.00000000
     atom   12 type  1   force =    -0.00318751    0.00223942   -0.00000004
     atom   13 type  1   force =    -0.00080135    0.00116033   -0.00000000
     atom   14 type  1   force =    -0.00090447    0.00396479   -0.00000002
     atom   15 type  1   force =     0.00023435    0.00345565    0.00000001
     atom   16 type  1   force =     0.00055089    0.00217488   -0.00000003
     atom   17 type  1   force =     0.00026527    0.00161182   -0.00000002
     atom   18 type  1   force =     0.00060072    0.00038378    0.00000002
     atom   19 type  1   force =    -0.00046480    0.00047887    0.00000002
     atom   20 type  1   force =    -0.00038200   -0.00001335   -0.00000001
     atom   21 type  1   force =    -0.00060520    0.00000003   -0.00000001
     atom   22 type  1   force =    -0.00107483    0.00000001    0.00000001
     atom   23 type  1   force =    -0.00154074    0.00039921    0.00000002
     atom   24 type  1   force =    -0.00184208    0.00014348    0.00000003
     atom   25 type  1   force =    -0.00322064   -0.00010293    0.00000001
     atom   26 type  1   force =    -0.00264616   -0.00048355   -0.00000002
     atom   27 type  1   force =    -0.00168575   -0.00015846   -0.00000001
     atom   28 type  1   force =    -0.00256184   -0.00085447    0.00000000
     atom   29 type  1   force =    -0.00122941    0.00095208   -0.00000000
     atom   30 type  1   force =    -0.00102633    0.00143151    0.00000001
     atom   31 type  1   force =    -0.00063870    0.00105917   -0.00000003
     atom   32 type  1   force =     0.00160460    0.00067955    0.00000003
     atom   33 type  1   force =     0.00057431    0.00081320    0.00000002
     atom   34 type  1   force =     0.00123896    0.00183804   -0.00000004
     atom   35 type  1   force =     0.00100985    0.00253113    0.00000000
     atom   36 type  1   force =     0.00052559    0.00099231   -0.00000002
     atom   37 type  1   force =    -0.00015045    0.00054447    0.00000001
     atom   38 type  1   force =    -0.00056195    0.00008876   -0.00000004
     atom   39 type  1   force =    -0.00154066   -0.00039917    0.00000002
     atom   40 type  1   force =    -0.00184208   -0.00014357   -0.00000002
     atom   41 type  1   force =    -0.00232869   -0.00000001   -0.00000001
     atom   42 type  1   force =    -0.00235798    0.00000004    0.00000002
     atom   43 type  1   force =    -0.00138166    0.00085071    0.00000000
     atom   44 type  1   force =     0.00014658    0.00034028   -0.00000003
     atom   45 type  1   force =    -0.00009352    0.00040342    0.00000003
     atom   46 type  1   force =     0.00244548    0.00062215    0.00000001
     atom   47 type  1   force =    -0.00069792    0.00108669   -0.00000003
     atom   48 type  1   force =    -0.00246175   -0.00222004    0.00000002
     atom   49 type  1   force =    -0.00066469   -0.00064412   -0.00000003
     atom   50 type  1   force =    -0.00033618   -0.00080571    0.00000000
     atom   51 type  1   force =    -0.00016950    0.00052798    0.00000000
     atom   52 type  1   force =     0.00146406    0.00103257    0.00000001
     atom   53 type  1   force =     0.00106690    0.00143466   -0.00000001
     atom   54 type  1   force =     0.00040839    0.00103389    0.00000000
     atom   55 type  1   force =    -0.00019391    0.00028695   -0.00000002
     atom   56 type  1   force =    -0.00101854    0.00034181    0.00000000
     atom   57 type  1   force =    -0.00322065    0.00010297    0.00000003
     atom   58 type  1   force =    -0.00264620    0.00048361    0.00000000
     atom   59 type  1   force =    -0.00138179   -0.00085089    0.00000001
     atom   60 type  1   force =     0.00014679   -0.00034020    0.00000001
     atom   61 type  1   force =    -0.00249041    0.00000008   -0.00000001
     atom   62 type  1   force =     0.00074440    0.00000011    0.00000000
     atom   63 type  1   force =     0.00461851   -0.00413382   -0.00000001
     atom   64 type  1   force =     0.00185143   -0.00517895    0.00000002
     atom   65 type  1   force =     0.00004913   -0.00706226    0.00000002
     atom   66 type  1   force =    -0.00187350   -0.00109251   -0.00000000
     atom   67 type  1   force =     0.00008791    0.00092321   -0.00000002
     atom   68 type  1   force =    -0.00051969   -0.00103589    0.00000004
     atom   69 type  1   force =     0.00090690   -0.00033009   -0.00000002
     atom   70 type  1   force =     0.00144319    0.00170490   -0.00000002
     atom   71 type  1   force =     0.00125036    0.00196908    0.00000001
     atom   72 type  1   force =     0.00020841    0.00064696    0.00000001
     atom   73 type  1   force =    -0.00181620   -0.00055300    0.00000001
     atom   74 type  1   force =    -0.00207267   -0.00050656   -0.00000003
     atom   75 type  1   force =    -0.00168558    0.00015850   -0.00000000
     atom   76 type  1   force =    -0.00256187    0.00085433   -0.00000001
     atom   77 type  1   force =    -0.00009360   -0.00040350   -0.00000001
     atom   78 type  1   force =     0.00244562   -0.00062203    0.00000003
     atom   79 type  1   force =     0.00461857    0.00413367   -0.00000003
     atom   80 type  1   force =     0.00185137    0.00517902   -0.00000005
     atom   81 type  1   force =    -0.00004518    0.00000030    0.00000001
     atom   82 type  1   force =    -0.00432624   -0.00106779   -0.00000002
     atom   83 type  1   force =     0.00052047   -0.00154854   -0.00000003
     atom   84 type  1   force =     0.00116990   -0.00001761    0.00000004
     atom   85 type  1   force =     0.00154714    0.00166414   -0.00000003
     atom   86 type  1   force =     0.00135884    0.00080375   -0.00000002
     atom   87 type  1   force =     0.00172550    0.00130835    0.00000000
     atom   88 type  1   force =     0.00107428    0.00118808    0.00000001
     atom   89 type  1   force =     0.00022422   -0.00014946   -0.00000000
     atom   90 type  1   force =    -0.00320360   -0.00103623    0.00000001
     atom   91 type  1   force =    -0.00318747   -0.00223938    0.00000000
     atom   92 type  1   force =    -0.00122947   -0.00095199    0.00000004
     atom   93 type  1   force =    -0.00102635   -0.00143177   -0.00000000
     atom   94 type  1   force =    -0.00069803   -0.00108643   -0.00000003
     atom   95 type  1   force =    -0.00246163    0.00222002   -0.00000003
     atom   96 type  1   force =     0.00004879    0.00706192    0.00000001
     atom   97 type  1   force =    -0.00187310    0.00109264    0.00000004
     atom   98 type  1   force =    -0.00432610    0.00106769   -0.00000006
     atom   99 type  1   force =     0.00052062    0.00154838    0.00000002
     atom  100 type  1   force =     0.00201018    0.00000009    0.00000005
     atom  101 type  1   force =     0.00211262   -0.00000019   -0.00000003
     atom  102 type  1   force =     0.00182874    0.00005301    0.00000004
     atom  103 type  1   force =     0.00443400    0.00132406   -0.00000000
     atom  104 type  1   force =     0.00293210    0.00169524   -0.00000002
     atom  105 type  1   force =     0.00148636    0.00037175    0.00000003
     atom  106 type  1   force =     0.00054899    0.00006687   -0.00000000
     atom  107 type  1   force =    -0.00050181   -0.00049461    0.00000000
     atom  108 type  1   force =    -0.00080127   -0.00116028   -0.00000001
     atom  109 type  1   force =    -0.00090453   -0.00396474   -0.00000000
     atom  110 type  1   force =    -0.00063888   -0.00105907   -0.00000000
     atom  111 type  1   force =     0.00160477   -0.00067966    0.00000001
     atom  112 type  1   force =    -0.00066481    0.00064398    0.00000000
     atom  113 type  1   force =    -0.00033614    0.00080562    0.00000000
     atom  114 type  1   force =     0.00008791   -0.00092335   -0.00000005
     atom  115 type  1   force =    -0.00051943    0.00103608    0.00000006
     atom  116 type  1   force =     0.00116958    0.00001749    0.00000001
     atom  117 type  1   force =     0.00154715   -0.00166420   -0.00000000
     atom  118 type  1   force =     0.00182871   -0.00005279    0.00000004
     atom  119 type  1   force =     0.00443403   -0.00132408   -0.00000005
     atom  120 type  1   force =     0.00246438   -0.00000003   -0.00000001
     atom  121 type  1   force =     0.00098351   -0.00000002   -0.00000002
     atom  122 type  1   force =     0.00083019    0.00050351   -0.00000003
     atom  123 type  1   force =     0.00054974    0.00075444    0.00000003
     atom  124 type  1   force =     0.00010592   -0.00001791   -0.00000003
     atom  125 type  1   force =     0.00037717   -0.00011433    0.00000002
     atom  126 type  1   force =     0.00023450   -0.00345558    0.00000003
     atom  127 type  1   force =     0.00055082   -0.00217480   -0.00000002
     atom  128 type  1   force =     0.00057427   -0.00081319   -0.00000001
     atom  129 type  1   force =     0.00123901   -0.00183799    0.00000002
     atom  130 type  1   force =    -0.00016953   -0.00052791    0.00000002
     atom  131 type  1   force =     0.00146398   -0.00103259   -0.00000000
     atom  132 type  1   force =     0.00090689    0.00032992    0.00000001
     atom  133 type  1   force =     0.00144327   -0.00170478   -0.00000002
     atom  134 type  1   force =     0.00135877   -0.00080389    0.00000001
     atom  135 type  1   force =     0.00172552   -0.00130832   -0.00000000
     atom  136 type  1   force =     0.00293214   -0.00169522    0.00000001
     atom  137 type  1   force =     0.00148637   -0.00037176    0.00000001
     atom  138 type  1   force =     0.00083011   -0.00050347    0.00000001
     atom  139 type  1   force =     0.00054972   -0.00075437    0.00000001
     atom  140 type  1   force =     0.00075615    0.00000002   -0.00000003
     atom  141 type  1   force =     0.00106883   -0.00000003   -0.00000002
     atom  142 type  1   force =     0.00038000   -0.00006057   -0.00000002
     atom  143 type  1   force =     0.00020290   -0.00077056   -0.00000001
     atom  144 type  1   force =     0.00026529   -0.00161179   -0.00000000
     atom  145 type  1   force =     0.00060086   -0.00038369   -0.00000000
     atom  146 type  1   force =     0.00100979   -0.00253115    0.00000002
     atom  147 type  1   force =     0.00052554   -0.00099223   -0.00000001
     atom  148 type  1   force =     0.00106696   -0.00143468    0.00000001
     atom  149 type  1   force =     0.00040838   -0.00103398    0.00000002
     atom  150 type  1   force =     0.00125029   -0.00196909   -0.00000002
     atom  151 type  1   force =     0.00020842   -0.00064702   -0.00000000
     atom  152 type  1   force =     0.00107419   -0.00118805   -0.00000000
     atom  153 type  1   force =     0.00022430    0.00014939   -0.00000002
     atom  154 type  1   force =     0.00054893   -0.00006686   -0.00000001
     atom  155 type  1   force =    -0.00050186    0.00049465    0.00000002
     atom  156 type  1   force =     0.00010595    0.00001787    0.00000003
     atom  157 type  1   force =     0.00037715    0.00011428    0.00000001
     atom  158 type  1   force =     0.00038000    0.00006068    0.00000002
     atom  159 type  1   force =     0.00020297    0.00077054   -0.00000001
     atom  160 type  1   force =     0.00014983   -0.00000001    0.00000002
     atom  161 type  1   force =    -0.00039458    0.00000001   -0.00000000

     Total force =     0.028375     Total SCF correction =     0.000004
     Energy error            =      5.9E-04 Ry
     Gradient error          =      7.1E-03 Ry/Bohr

     number of scf cycles    =  12
     number of bfgs steps    =  11

     energy             old  =   -1939.0611119470 Ry
     energy             new  =   -1939.0617057441 Ry

     CASE: energy            _new < energy            _old

     new trust radius        =       0.0338347591 bohr
     new conv_thr            =            5.9E-11 Ry


ATOMIC_POSITIONS (crystal)
C                0.0368844661        0.0368844630       -0.0000000036
C                0.0739475714        0.0739475617       -0.0000000015
C                0.0367257025        0.1482066055       -0.0000000006
C                0.0738583688        0.1852210494       -0.0000000011
C                0.0366988474        0.2594600782        0.0000000006
C                0.0738653869        0.2964721306        0.0000000014
C                0.0368403564        0.3705563139       -0.0000000008
C                0.0739938397        0.4076198442        0.0000000016
C                0.0371255026        0.4816739139       -0.0000000000
C                0.0742171984        0.5186467296       -0.0000000037
C                0.0374212339        0.5926685675       -0.0000000006
C                0.0746959888        0.6294677409        0.0000000027
C                0.0376250908        0.7034242558        0.0000000012
C                0.0749186995        0.7401358901        0.0000000051
C                0.0376312478        0.8142614046        0.0000000002
C                0.0746684315        0.8511346460        0.0000000021
C                0.0372787970        0.9254818092        0.0000000018
C                0.0741988086        0.9625600405       -0.0000000047
C                0.1482066076        0.0367256977       -0.0000000027
C                0.1852210518        0.0738583626       -0.0000000035
C                0.1481086675        0.1481086666       -0.0000000033
C                0.1852234867        0.1852234839       -0.0000000041
C                0.1481418392        0.2594034636       -0.0000000017
C                0.1851123165        0.2964525923        0.0000000007
C                0.1480639878        0.3705793637        0.0000000016
C                0.1850642983        0.4075631359        0.0000000008
C                0.1483385125        0.4815384580       -0.0000000069
C                0.1855207729        0.5183879882       -0.0000000036
C                0.1489009484        0.5923295766        0.0000000023
C                0.1861575159        0.6289506179        0.0000000023
C                0.1491587094        0.7028614087        0.0000000035
C                0.1865071041        0.7394131355       -0.0000000015
C                0.1490473414        0.8137093782       -0.0000000008
C                0.1857312342        0.8510053287        0.0000000035
C                0.1484626123        0.9252749050        0.0000000003
C                0.1853125320        0.9624552765        0.0000000015
C                0.2594600743        0.0366988469       -0.0000000019
C                0.2964721280        0.0738653821        0.0000000014
C                0.2594034611        0.1481418384       -0.0000000024
C                0.2964525913        0.1851123160        0.0000000006
C                0.2593292639        0.2593292654        0.0000000043
C                0.2962060757        0.2962060773        0.0000000030
C                0.2590944690        0.3703203999        0.0000000013
C                0.2957885343        0.4071680756       -0.0000000001
C                0.2595755134        0.4809984357       -0.0000000041
C                0.2968197322        0.5178149387        0.0000000038
C                0.2606669489        0.5914434800        0.0000000033
C                0.2987859470        0.6271490363       -0.0000000014
C                0.2610976331        0.7018791890        0.0000000001
C                0.2969649054        0.7397777061        0.0000000020
C                0.2598241214        0.8138713822        0.0000000030
C                0.2965281386        0.8512701326        0.0000000016
C                0.2595403001        0.9252364570        0.0000000057
C                0.2965184817        0.9625463331        0.0000000003
C                0.3705563097        0.0368403550       -0.0000000011
C                0.4076198414        0.0739938380       -0.0000000003
C                0.3705793616        0.1480639907        0.0000000001
C                0.4075631340        0.1850642986        0.0000000028
C                0.3703203959        0.2590944697        0.0000000044
C                0.4071680762        0.2957885350        0.0000000003
C                0.3698956809        0.3698956715        0.0000000011
C                0.4061694866        0.4061694934        0.0000000005
C                0.3715555064        0.4798771627        0.0000000011
C                0.4089040229        0.5146720526        0.0000000005
C                0.3745261003        0.5885533628       -0.0000000037
C                0.4081410133        0.6290940094       -0.0000000059
C                0.3712148377        0.7024093437       -0.0000000023
C                0.4078189163        0.7403346092       -0.0000000045
C                0.3706974479        0.8142000090        0.0000000024
C                0.4076185462        0.8513821544       -0.0000000005
C                0.3705712842        0.9255449449       -0.0000000031
C                0.4075616321        0.9626686475       -0.0000000028
C                0.4816739083        0.0371255042       -0.0000000025
C                0.5186467283        0.0742171958        0.0000000016
C                0.4815384559        0.1483385153        0.0000000029
C                0.5183879906        0.1855207739        0.0000000000
C                0.4809984350        0.2595755172        0.0000000013
C                0.5178149384        0.2968197415       -0.0000000007
C                0.4798771547        0.3715555202        0.0000000021
C                0.5146720435        0.4089040504       -0.0000000036
C                0.5213348184        0.5213348016        0.0000000071
C                0.4821616261        0.5925595951        0.0000000030
C                0.5192241559        0.6300080524        0.0000000007
C                0.4816516152        0.7038632798       -0.0000000061
C                0.5186943165        0.7407534029       -0.0000000032
C                0.4815975812        0.8146435429        0.0000000003
C                0.5186663368        0.8517296618       -0.0000000029
C                0.4816736997        0.9257603401       -0.0000000042
C                0.5186372801        0.9629335281       -0.0000000021
C                0.5926685652        0.0374212337       -0.0000000027
C                0.6294677409        0.0746959856       -0.0000000057
C                0.5923295727        0.1489009529       -0.0000000056
C                0.6289506186        0.1861575212        0.0000000016
C                0.5914434798        0.2606669559        0.0000000081
C                0.6271490299        0.2987859635        0.0000000054
C                0.5885533594        0.3745261174       -0.0000000046
C                0.6290940109        0.4081410227       -0.0000000048
C                0.5925596039        0.4821616234        0.0000000114
C                0.6300080604        0.5192241575        0.0000000009
C                0.5928780759        0.5928780818       -0.0000000046
C                0.6299005046        0.6299005015        0.0000000020
C                0.5927421173        0.7036889715       -0.0000000034
C                0.6296898796        0.7406316791       -0.0000000020
C                0.5926553662        0.8147263594       -0.0000000020
C                0.6296185293        0.8518234013       -0.0000000031
C                0.5926462460        0.9260042541        0.0000000011
C                0.6296286877        0.9632586634       -0.0000000021
C                0.7034242553        0.0376250907        0.0000000002
C                0.7401358908        0.0749186994       -0.0000000011
C                0.7028614091        0.1491587145       -0.0000000008
C                0.7394131311        0.1865071114       -0.0000000013
C                0.7018791847        0.2610976431        0.0000000020
C                0.7397777089        0.2969649091       -0.0000000006
C                0.7024093509        0.3712148321        0.0000000008
C                0.7403346060        0.4078189198       -0.0000000043
C                0.7038632832        0.4816516167       -0.0000000020
C                0.7407534054        0.5186943198       -0.0000000051
C                0.7036889686        0.5927421220       -0.0000000002
C                0.7406316811        0.6296898788        0.0000000072
C                0.7036541128        0.7036541128        0.0000000051
C                0.7407322188        0.7407322154        0.0000000061
C                0.7037399577        0.8148067200        0.0000000007
C                0.7407258140        0.8519183602       -0.0000000003
C                0.7036819106        0.9261660448        0.0000000001
C                0.7405750897        0.9633271721        0.0000000015
C                0.8142614061        0.0376312458       -0.0000000019
C                0.8511346488        0.0746684273       -0.0000000018
C                0.8137093810        0.1490473405       -0.0000000015
C                0.8510053339        0.1857312290       -0.0000000032
C                0.8138713884        0.2598241209       -0.0000000021
C                0.8512701344        0.2965281385       -0.0000000002
C                0.8142000107        0.3706974450       -0.0000000008
C                0.8513821542        0.4076185519        0.0000000044
C                0.8146435493        0.4815975798        0.0000000025
C                0.8517296658        0.5186663367        0.0000000027
C                0.8147263613        0.5926553662        0.0000000039
C                0.8518234035        0.6296185302       -0.0000000004
C                0.8148067222        0.7037399570        0.0000000021
C                0.8519183641        0.7407258131        0.0000000018
C                0.8148498468        0.8148498433        0.0000000065
C                0.8519232935        0.8519232908        0.0000000039
C                0.8147416432        0.9261399529        0.0000000025
C                0.8516242516        0.9632811148       -0.0000000012
C                0.9254818134        0.0372787919        0.0000000014
C                0.9625600454        0.0741988000       -0.0000000017
C                0.9252749109        0.1484626080       -0.0000000027
C                0.9624552841        0.1853125274        0.0000000008
C                0.9252364618        0.2595402982        0.0000000006
C                0.9625463372        0.2965184844        0.0000000012
C                0.9255449470        0.3705712881        0.0000000047
C                0.9626686496        0.4075616361        0.0000000016
C                0.9257603424        0.4816737020        0.0000000030
C                0.9629335301        0.5186372855        0.0000000030
C                0.9260042568        0.5926462485        0.0000000010
C                0.9632586684        0.6296286872       -0.0000000035
C                0.9261660473        0.7036819120       -0.0000000018
C                0.9633271733        0.7405750885       -0.0000000018
C                0.9261399546        0.8147416407       -0.0000000032
C                0.9632811193        0.8516242502       -0.0000000039
C                0.9259203434        0.9259203405       -0.0000000041
C                0.9629355738        0.9629355686       -0.0000000010



     Writing config-only to output data dir /home/gregb26/links/scratch/qe_tmp/vacancy_relaxed/nspin1/vac_9x9_relax_nspin1.save/ :
     XML data file
     NEW-OLD atomic charge density approx. for the potential

     negative rho (up, down):  4.865E-06 0.000E+00

     total cpu time spent up to now is     1690.0 secs

     per-process dynamical memory:   351.9 Mb

     Self-consistent Calculation

     iteration #  1     ecut=   100.00 Ry     beta= 0.30
     Davidson diagonalization with overlap
     ethr =  1.00E-06,  avg # of iterations =  6.0

     negative rho (up, down):  3.213E-06 0.000E+00

     total cpu time spent up to now is     1704.3 secs

     total energy              =   -1939.05016221 Ry
     estimated scf accuracy    <       0.02783671 Ry

     iteration #  2     ecut=   100.00 Ry     beta= 0.30
     Davidson diagonalization with overlap
     ethr =  4.32E-06,  avg # of iterations =  6.0

     negative rho (up, down):  2.974E-06 0.000E+00

     total cpu time spent up to now is     1712.6 secs

     total energy              =   -1939.05749815 Ry
     estimated scf accuracy    <       0.37422598 Ry

     iteration #  3     ecut=   100.00 Ry     beta= 0.30
     Davidson diagonalization with overlap
     ethr =  4.32E-06,  avg # of iterations =  6.0

     negative rho (up, down):  2.770E-06 0.000E+00

     total cpu time spent up to now is     1720.2 secs

     total energy              =   -1939.06088513 Ry
     estimated scf accuracy    <       0.10416705 Ry

     iteration #  4     ecut=   100.00 Ry     beta= 0.30
     Davidson diagonalization with overlap
     ethr =  4.32E-06,  avg # of iterations =  4.0

     negative rho (up, down):  1.787E-06 0.000E+00

     total cpu time spent up to now is     1727.4 secs

     total energy              =   -1939.06218286 Ry
     estimated scf accuracy    <       0.00253864 Ry

     iteration #  5     ecut=   100.00 Ry     beta= 0.30
     Davidson diagonalization with overlap
     ethr =  3.94E-07,  avg # of iterations =  5.0

     negative rho (up, down):  6.288E-07 0.000E+00

     total cpu time spent up to now is     1734.9 secs

     total energy              =   -1939.06221830 Ry
     estimated scf accuracy    <       0.00831652 Ry

     iteration #  6     ecut=   100.00 Ry     beta= 0.30
     Davidson diagonalization with overlap
     ethr =  3.94E-07,  avg # of iterations =  1.0

     negative rho (up, down):  2.641E-07 0.000E+00

     total cpu time spent up to now is     1741.2 secs

     total energy              =   -1939.06241603 Ry
     estimated scf accuracy    <       0.00046845 Ry

     iteration #  7     ecut=   100.00 Ry     beta= 0.30
     Davidson diagonalization with overlap
     ethr =  7.27E-08,  avg # of iterations =  2.0

     negative rho (up, down):  8.718E-08 0.000E+00

     total cpu time spent up to now is     1748.0 secs

     total energy              =   -1939.06242814 Ry
     estimated scf accuracy    <       0.00002217 Ry

     iteration #  8     ecut=   100.00 Ry     beta= 0.30
     Davidson diagonalization with overlap
     ethr =  3.44E-09,  avg # of iterations =  6.0

     negative rho (up, down):  3.868E-08 0.000E+00

     total cpu time spent up to now is     1756.7 secs

     total energy              =   -1939.06242864 Ry
     estimated scf accuracy    <       0.00038436 Ry

     iteration #  9     ecut=   100.00 Ry     beta= 0.30
     Davidson diagonalization with overlap
     ethr =  3.44E-09,  avg # of iterations =  2.0

     total cpu time spent up to now is     1763.7 secs

     total energy              =   -1939.06242981 Ry
     estimated scf accuracy    <       0.00003977 Ry

     iteration # 10     ecut=   100.00 Ry     beta= 0.30
     Davidson diagonalization with overlap
     ethr =  3.44E-09,  avg # of iterations =  2.0

     total cpu time spent up to now is     1770.9 secs

     total energy              =   -1939.06243088 Ry
     estimated scf accuracy    <       0.00000968 Ry

     iteration # 11     ecut=   100.00 Ry     beta= 0.30
     Davidson diagonalization with overlap
     ethr =  1.50E-09,  avg # of iterations =  1.0

     total cpu time spent up to now is     1777.2 secs

     total energy              =   -1939.06243109 Ry
     estimated scf accuracy    <       0.00000013 Ry

     iteration # 12     ecut=   100.00 Ry     beta= 0.30
     Davidson diagonalization with overlap
     ethr =  1.98E-11,  avg # of iterations =  5.0

     total cpu time spent up to now is     1784.9 secs

     total energy              =   -1939.06243111 Ry
     estimated scf accuracy    <       0.00000002 Ry

     iteration # 13     ecut=   100.00 Ry     beta= 0.30
     Davidson diagonalization with overlap
     ethr =  2.79E-12,  avg # of iterations =  5.0

     total cpu time spent up to now is     1793.0 secs

     total energy              =   -1939.06243111 Ry
     estimated scf accuracy    <          4.3E-09 Ry

     iteration # 14     ecut=   100.00 Ry     beta= 0.30
     Davidson diagonalization with overlap
     ethr =  6.73E-13,  avg # of iterations =  4.0

     total cpu time spent up to now is     1800.6 secs

     total energy              =   -1939.06243111 Ry
     estimated scf accuracy    <          2.3E-09 Ry

     iteration # 15     ecut=   100.00 Ry     beta= 0.30
     Davidson diagonalization with overlap
     ethr =  3.58E-13,  avg # of iterations =  2.0

     total cpu time spent up to now is     1807.3 secs

     total energy              =   -1939.06243111 Ry
     estimated scf accuracy    <          2.0E-10 Ry

     iteration # 16     ecut=   100.00 Ry     beta= 0.30
     Davidson diagonalization with overlap
     ethr =  1.00E-13,  avg # of iterations =  4.0

     total cpu time spent up to now is     1814.5 secs

     End of self-consistent calculation

          k = 0.0000 0.0000 0.0000 (385710 PWs)   bands (ev):

   -23.7906 -23.5580 -23.5167 -23.5072 -23.4963 -23.4870 -23.4327 -22.9559
   -22.9426 -22.9410 -22.9389 -22.9179 -22.8292 -22.6586 -22.6580 -22.6502
   -22.6437 -22.6320 -22.4855 -21.8257 -21.8222 -21.8057 -21.8012 -21.7933
   -21.7833 -21.7781 -21.7760 -21.7734 -21.7665 -21.7547 -21.5374 -21.2426
   -21.2285 -21.2187 -21.2182 -21.1985 -21.0185 -20.4096 -20.4089 -20.3917
   -20.3764 -20.3661 -20.2970 -20.1392 -20.1310 -20.1297 -20.1255 -20.1249
   -20.1191 -20.1146 -20.1145 -20.1031 -20.0792 -20.0518 -19.7008 -19.3412
   -19.3336 -19.3198 -19.2996 -19.2988 -19.1075 -18.5799 -18.5794 -18.5628
   -18.5498 -18.5435 -18.5387 -18.5340 -18.5258 -18.5195 -18.5020 -18.5004
   -18.4296 -18.3879 -18.3856 -18.3782 -18.3683 -18.3493 -17.7586 -17.3548
   -17.3538 -17.3517 -17.2934 -17.2684 -17.1751 -16.9067 -16.8671 -16.8653
   -16.7819 -16.6792 -16.6769 -16.6701 -16.6041 -16.5991 -16.4254 -16.1104
   -16.1039 -16.1028 -16.0909 -16.0908 -16.0802 -16.0758 -16.0731 -16.0637
   -15.9493 -15.9446 -15.5411 -15.2430 -15.2369 -15.2242 -15.2230 -15.2167
   -15.2156 -15.2123 -15.2069 -15.2027 -15.0881 -15.0729 -14.8017 -14.7791
   -14.4490 -13.9864 -13.9815 -13.9774 -13.9555 -13.9529 -13.9466 -13.9442
   -13.9423 -13.9246 -13.8542 -13.8294 -13.5759 -13.4913 -13.4512 -13.4477
   -13.4388 -13.4379 -13.4241 -13.4211 -13.4151 -13.4134 -13.2318 -13.2180
   -12.9024 -12.5213 -12.5053 -12.4752 -12.4743 -12.4694 -12.4610 -12.4606
   -12.4523 -12.4482 -12.4387 -12.4370 -12.4353 -12.4351 -12.4317 -12.4229
   -12.1753 -12.1647 -11.8740 -11.7113 -11.6436 -11.6223 -11.6179 -11.5744
   -11.5442 -11.5406 -11.5371 -11.5287 -11.5250 -11.5218 -11.4456 -11.4298
   -11.3662 -11.3437 -11.3270 -11.3207 -11.3191 -11.3168 -11.3073 -11.3029
   -11.2849 -11.1702 -11.1565 -11.1507 -11.0230 -11.0086 -10.9991 -10.8969
   -10.8713 -10.8664 -10.8608 -10.8583 -10.8568 -10.8398 -10.7460 -10.6991
   -10.6471 -10.6323 -10.6284 -10.6075 -10.5929 -10.5468 -10.5252 -10.5235
   -10.5191 -10.5115 -10.5048 -10.4758 -10.4574 -10.4472 -10.4364 -10.4315
   -10.4275 -10.4240 -10.4203 -10.3963 -10.3525 -10.2229 -10.2165 -10.1940
   -10.1108 -10.1027 -10.0883 -10.0627 -10.0499 -10.0417 -10.0145 -10.0051
    -9.9894  -9.5403  -9.5400  -9.5370  -9.5246  -9.5235  -9.5137  -9.5118
    -9.5094  -9.5071  -9.4986  -9.4979  -9.4745  -9.4734  -9.2705  -9.1099
    -9.1075  -9.0939  -9.0877  -9.0536  -9.0479  -9.0474  -9.0450  -9.0363
    -9.0178  -8.9074  -8.8929  -8.8893  -8.8807  -8.8795  -8.7523  -8.7035
    -8.6369  -8.6363  -8.4454  -8.4442  -8.4438  -8.0895  -8.0718  -7.9483
    -7.9465  -7.9381  -7.9381  -7.9260  -7.9229  -7.9179  -7.9172  -7.8816
    -7.8630  -7.7888  -7.7122  -7.7047  -7.7038  -7.6999  -7.6964  -7.6939
    -7.6871  -7.6865  -7.6810  -7.6783  -7.6753  -7.3976  -7.3953  -7.3518
    -7.0632  -7.0577  -7.0503  -7.0500  -7.0336  -6.8081  -6.3704  -6.3690
    -6.3628  -6.3536  -6.3462  -6.2561  -6.0873  -6.0828  -6.0778  -6.0733
    -6.0672  -6.0596  -6.0588  -6.0547  -6.0536  -6.0433  -6.0420  -5.0311
    -4.2736  -4.2466  -4.2383  -4.2041  -3.9630  -3.7080  -2.6696  -2.6605
    -2.6526  -2.6450  -2.6391  -2.6309  -2.5854  -2.5763  -2.5673  -2.5513
    -2.5499  -2.5451  -2.5424  -2.5327  -2.5256  -2.4588  -2.4513  -2.2090
    -2.0555  -2.0448  -2.0270  -1.9906  -1.9805  -1.5548  -0.9747  -0.9704

     the Fermi energy is    -4.2226 ev

!    total energy              =   -1939.06243111 Ry
     estimated scf accuracy    <          3.9E-11 Ry
     smearing contrib. (-TS)   =      -0.01222014 Ry
     internal energy E=F+TS    =   -1939.05021097 Ry

     The total energy is F=E-TS. E is the sum of the following terms:
     one-electron contribution =  -21952.84621559 Ry
     hartree contribution      =   11036.48789089 Ry
     xc contribution           =    -689.93685539 Ry
     ewald contribution        =    9667.24496913 Ry

     convergence has been achieved in  16 iterations

     Forces acting on atoms (cartesian axes, Ry/au):

     atom    1 type  1   force =     0.00049561   -0.00000007   -0.00000002
     atom    2 type  1   force =    -0.00041902    0.00000017    0.00000001
     atom    3 type  1   force =     0.00023373   -0.00080600    0.00000000
     atom    4 type  1   force =    -0.00063215   -0.00003957    0.00000002
     atom    5 type  1   force =    -0.00011482   -0.00108035   -0.00000001
     atom    6 type  1   force =    -0.00065538   -0.00010978   -0.00000002
     atom    7 type  1   force =    -0.00052915   -0.00063284    0.00000001
     atom    8 type  1   force =    -0.00142278   -0.00045385   -0.00000001
     atom    9 type  1   force =    -0.00131988    0.00024499   -0.00000002
     atom   10 type  1   force =    -0.00226088   -0.00013447    0.00000000
     atom   11 type  1   force =    -0.00270330    0.00103627   -0.00000001
     atom   12 type  1   force =    -0.00310308    0.00183031   -0.00000001
     atom   13 type  1   force =    -0.00088966    0.00139786    0.00000001
     atom   14 type  1   force =    -0.00057029    0.00360460   -0.00000003
     atom   15 type  1   force =     0.00026138    0.00303367   -0.00000000
     atom   16 type  1   force =     0.00084611    0.00181955    0.00000001
     atom   17 type  1   force =     0.00036086    0.00108922   -0.00000004
     atom   18 type  1   force =     0.00065222    0.00090138    0.00000004
     atom   19 type  1   force =     0.00023373    0.00080583    0.00000003
     atom   20 type  1   force =    -0.00063208    0.00003979   -0.00000001
     atom   21 type  1   force =    -0.00071415   -0.00000008    0.00000000
     atom   22 type  1   force =    -0.00108904    0.00000005   -0.00000000
     atom   23 type  1   force =    -0.00204139   -0.00008567   -0.00000000
     atom   24 type  1   force =    -0.00200297   -0.00008337    0.00000000
     atom   25 type  1   force =    -0.00318768    0.00003341    0.00000002
     atom   26 type  1   force =    -0.00267913   -0.00049319   -0.00000001
     atom   27 type  1   force =    -0.00119131   -0.00000494    0.00000001
     atom   28 type  1   force =    -0.00112148   -0.00139917    0.00000002
     atom   29 type  1   force =    -0.00105986    0.00133075   -0.00000001
     atom   30 type  1   force =    -0.00046349    0.00013670   -0.00000003
     atom   31 type  1   force =    -0.00080216    0.00135531    0.00000002
     atom   32 type  1   force =     0.00130730   -0.00044259    0.00000001
     atom   33 type  1   force =     0.00020379    0.00031831    0.00000002
     atom   34 type  1   force =     0.00123900    0.00163735   -0.00000003
     atom   35 type  1   force =     0.00106830    0.00241719   -0.00000000
     atom   36 type  1   force =     0.00052252    0.00101905   -0.00000000
     atom   37 type  1   force =    -0.00011488    0.00108016    0.00000001
     atom   38 type  1   force =    -0.00065530    0.00010991   -0.00000003
     atom   39 type  1   force =    -0.00204138    0.00008556   -0.00000000
     atom   40 type  1   force =    -0.00200293    0.00008344    0.00000002
     atom   41 type  1   force =    -0.00231191   -0.00000002   -0.00000002
     atom   42 type  1   force =    -0.00199209   -0.00000002    0.00000001
     atom   43 type  1   force =    -0.00133507    0.00092401    0.00000003
     atom   44 type  1   force =     0.00034482    0.00020060   -0.00000000
     atom   45 type  1   force =     0.00022914    0.00030000    0.00000003
     atom   46 type  1   force =     0.00236212    0.00016981   -0.00000003
     atom   47 type  1   force =    -0.00113331    0.00086238   -0.00000003
     atom   48 type  1   force =    -0.00162779   -0.00210558    0.00000002
     atom   49 type  1   force =    -0.00066664   -0.00039362    0.00000001
     atom   50 type  1   force =    -0.00067010   -0.00107074   -0.00000003
     atom   51 type  1   force =    -0.00018564    0.00080921    0.00000003
     atom   52 type  1   force =     0.00092832    0.00068490    0.00000006
     atom   53 type  1   force =     0.00101310    0.00136557   -0.00000006
     atom   54 type  1   force =     0.00043265    0.00107885   -0.00000000
     atom   55 type  1   force =    -0.00052916    0.00063274    0.00000003
     atom   56 type  1   force =    -0.00142274    0.00045391    0.00000000
     atom   57 type  1   force =    -0.00318783   -0.00003349    0.00000002
     atom   58 type  1   force =    -0.00267909    0.00049319    0.00000000
     atom   59 type  1   force =    -0.00133500   -0.00092399   -0.00000003
     atom   60 type  1   force =     0.00034473   -0.00020074   -0.00000000
     atom   61 type  1   force =    -0.00167139    0.00000034   -0.00000001
     atom   62 type  1   force =     0.00012890   -0.00000009   -0.00000003
     atom   63 type  1   force =     0.00309376   -0.00397765    0.00000005
     atom   64 type  1   force =     0.00121083   -0.00270688   -0.00000001
     atom   65 type  1   force =     0.00011907   -0.00637533    0.00000001
     atom   66 type  1   force =    -0.00064776   -0.00063559    0.00000004
     atom   67 type  1   force =     0.00032250    0.00141412    0.00000001
     atom   68 type  1   force =    -0.00067092   -0.00128706    0.00000001
     atom   69 type  1   force =     0.00113257   -0.00035374   -0.00000001
     atom   70 type  1   force =     0.00106231    0.00138468   -0.00000001
     atom   71 type  1   force =     0.00139921    0.00188419   -0.00000001
     atom   72 type  1   force =     0.00028748    0.00102210   -0.00000002
     atom   73 type  1   force =    -0.00131998   -0.00024509    0.00000003
     atom   74 type  1   force =    -0.00226077    0.00013458   -0.00000001
     atom   75 type  1   force =    -0.00119133    0.00000482    0.00000002
     atom   76 type  1   force =    -0.00112154    0.00139935    0.00000003
     atom   77 type  1   force =     0.00022926   -0.00029999   -0.00000003
     atom   78 type  1   force =     0.00236206   -0.00016975    0.00000003
     atom   79 type  1   force =     0.00309391    0.00397775   -0.00000006
     atom   80 type  1   force =     0.00121061    0.00270665   -0.00000001
     atom   81 type  1   force =     0.00131610    0.00000015    0.00000004
     atom   82 type  1   force =    -0.00385301   -0.00080545   -0.00000003
     atom   83 type  1   force =    -0.00005112   -0.00168064   -0.00000001
     atom   84 type  1   force =     0.00114107    0.00031683    0.00000001
     atom   85 type  1   force =     0.00020691    0.00082160   -0.00000003
     atom   86 type  1   force =     0.00134952    0.00049570   -0.00000003
     atom   87 type  1   force =     0.00146539    0.00142796   -0.00000002
     atom   88 type  1   force =     0.00084837    0.00084619    0.00000002
     atom   89 type  1   force =     0.00004132    0.00000566   -0.00000001
     atom   90 type  1   force =    -0.00270334   -0.00103633   -0.00000001
     atom   91 type  1   force =    -0.00310295   -0.00183010    0.00000002
     atom   92 type  1   force =    -0.00105977   -0.00133098    0.00000002
     atom   93 type  1   force =    -0.00046360   -0.00013669   -0.00000004
     atom   94 type  1   force =    -0.00113332   -0.00086234   -0.00000006
     atom   95 type  1   force =    -0.00162786    0.00210537   -0.00000001
     atom   96 type  1   force =     0.00011907    0.00637543    0.00000007
     atom   97 type  1   force =    -0.00064787    0.00063517    0.00000005
     atom   98 type  1   force =    -0.00385262    0.00080548   -0.00000015
     atom   99 type  1   force =    -0.00005127    0.00168086    0.00000003
     atom  100 type  1   force =     0.00162059   -0.00000017    0.00000007
     atom  101 type  1   force =     0.00048083    0.00000020    0.00000001
     atom  102 type  1   force =     0.00251182   -0.00000909    0.00000003
     atom  103 type  1   force =     0.00374649    0.00121459   -0.00000001
     atom  104 type  1   force =     0.00294258    0.00147023    0.00000000
     atom  105 type  1   force =     0.00203754    0.00054887    0.00000005
     atom  106 type  1   force =     0.00056727   -0.00006289   -0.00000004
     atom  107 type  1   force =    -0.00109668   -0.00097136    0.00000003
     atom  108 type  1   force =    -0.00088965   -0.00139788   -0.00000003
     atom  109 type  1   force =    -0.00057027   -0.00360457   -0.00000001
     atom  110 type  1   force =    -0.00080230   -0.00135535   -0.00000002
     atom  111 type  1   force =     0.00130740    0.00044241   -0.00000001
     atom  112 type  1   force =    -0.00066670    0.00039359   -0.00000001
     atom  113 type  1   force =    -0.00067017    0.00107054    0.00000001
     atom  114 type  1   force =     0.00032270   -0.00141376    0.00000001
     atom  115 type  1   force =    -0.00067083    0.00128668    0.00000007
     atom  116 type  1   force =     0.00114119   -0.00031677    0.00000002
     atom  117 type  1   force =     0.00020691   -0.00082165    0.00000005
     atom  118 type  1   force =     0.00251180    0.00000888    0.00000002
     atom  119 type  1   force =     0.00374656   -0.00121450   -0.00000004
     atom  120 type  1   force =     0.00283341   -0.00000009    0.00000000
     atom  121 type  1   force =     0.00236127    0.00000003   -0.00000002
     atom  122 type  1   force =     0.00115605    0.00022313   -0.00000001
     atom  123 type  1   force =     0.00074674    0.00012491    0.00000003
     atom  124 type  1   force =     0.00039665   -0.00009665   -0.00000001
     atom  125 type  1   force =    -0.00046232   -0.00129877   -0.00000002
     atom  126 type  1   force =     0.00026134   -0.00303363    0.00000001
     atom  127 type  1   force =     0.00084615   -0.00181942    0.00000002
     atom  128 type  1   force =     0.00020365   -0.00031824    0.00000000
     atom  129 type  1   force =     0.00123912   -0.00163729    0.00000001
     atom  130 type  1   force =    -0.00018577   -0.00080924    0.00000002
     atom  131 type  1   force =     0.00092839   -0.00068505   -0.00000003
     atom  132 type  1   force =     0.00113274    0.00035407    0.00000001
     atom  133 type  1   force =     0.00106213   -0.00138494   -0.00000002
     atom  134 type  1   force =     0.00134951   -0.00049547   -0.00000003
     atom  135 type  1   force =     0.00146542   -0.00142796    0.00000001
     atom  136 type  1   force =     0.00294262   -0.00147020    0.00000001
     atom  137 type  1   force =     0.00203751   -0.00054889    0.00000002
     atom  138 type  1   force =     0.00115605   -0.00022314    0.00000003
     atom  139 type  1   force =     0.00074668   -0.00012492   -0.00000000
     atom  140 type  1   force =     0.00085485    0.00000005   -0.00000004
     atom  141 type  1   force =     0.00051413   -0.00000002   -0.00000002
     atom  142 type  1   force =     0.00032666   -0.00012516   -0.00000000
     atom  143 type  1   force =    -0.00009734   -0.00166721    0.00000001
     atom  144 type  1   force =     0.00036082   -0.00108917   -0.00000001
     atom  145 type  1   force =     0.00065235   -0.00090128    0.00000002
     atom  146 type  1   force =     0.00106821   -0.00241725    0.00000002
     atom  147 type  1   force =     0.00052254   -0.00101895   -0.00000002
     atom  148 type  1   force =     0.00101318   -0.00136559   -0.00000001
     atom  149 type  1   force =     0.00043251   -0.00107886   -0.00000001
     atom  150 type  1   force =     0.00139918   -0.00188413   -0.00000000
     atom  151 type  1   force =     0.00028744   -0.00102212   -0.00000002
     atom  152 type  1   force =     0.00084843   -0.00084615    0.00000001
     atom  153 type  1   force =     0.00004121   -0.00000570   -0.00000002
     atom  154 type  1   force =     0.00056725    0.00006291   -0.00000002
     atom  155 type  1   force =    -0.00109670    0.00097145    0.00000001
     atom  156 type  1   force =     0.00039656    0.00009660   -0.00000000
     atom  157 type  1   force =    -0.00046227    0.00129874   -0.00000001
     atom  158 type  1   force =     0.00032678    0.00012521    0.00000004
     atom  159 type  1   force =    -0.00009749    0.00166727   -0.00000002
     atom  160 type  1   force =     0.00002154   -0.00000000   -0.00000004
     atom  161 type  1   force =    -0.00016750   -0.00000003   -0.00000002

     Total force =     0.025490     Total SCF correction =     0.000009
     Energy error            =      7.3E-04 Ry
     Gradient error          =      6.4E-03 Ry/Bohr

     number of scf cycles    =  13
     number of bfgs steps    =  12

     energy             old  =   -1939.0617057441 Ry
     energy             new  =   -1939.0624311133 Ry

     CASE: energy            _new < energy            _old

     new trust radius        =       0.0507521387 bohr
     new conv_thr            =            6.4E-11 Ry


ATOMIC_POSITIONS (crystal)
C                0.0368561316        0.0368561234       -0.0000000051
C                0.0739092695        0.0739092649       -0.0000000004
C                0.0366947067        0.1481854621       -0.0000000021
C                0.0738094093        0.1852016042       -0.0000000005
C                0.0366690495        0.2594437490        0.0000000010
C                0.0738053943        0.2964791893        0.0000000012
C                0.0368026576        0.3705594190       -0.0000000020
C                0.0739377890        0.4076098177        0.0000000001
C                0.0370835629        0.4816771466       -0.0000000005
C                0.0741615842        0.5186114717       -0.0000000042
C                0.0374075366        0.5926496121       -0.0000000009
C                0.0746950049        0.6294208095        0.0000000020
C                0.0376853011        0.7033939255        0.0000000015
C                0.0749589030        0.7401318573        0.0000000057
C                0.0376571291        0.8142646316        0.0000000003
C                0.0747129564        0.8511137052        0.0000000033
C                0.0372814637        0.9254606247        0.0000000004
C                0.0741984101        0.9625313254       -0.0000000031
C                0.1481854731        0.0366946946       -0.0000000016
C                0.1852016024        0.0738094076       -0.0000000049
C                0.1480757868        0.1480757780       -0.0000000045
C                0.1851894303        0.1851894282       -0.0000000047
C                0.1480781888        0.2593671424       -0.0000000026
C                0.1850426803        0.2964042018        0.0000000018
C                0.1479776935        0.3705271501        0.0000000041
C                0.1849801775        0.4074762972        0.0000000009
C                0.1482600929        0.4814720281       -0.0000000089
C                0.1854962383        0.5182743910       -0.0000000015
C                0.1488922597        0.5922633310        0.0000000019
C                0.1862212927        0.6288545591       -0.0000000002
C                0.1492180485        0.7028114274        0.0000000056
C                0.1867097481        0.7392591589       -0.0000000016
C                0.1491411023        0.8136215775       -0.0000000001
C                0.1858142246        0.8509401227        0.0000000021
C                0.1484807811        0.9252366232        0.0000000001
C                0.1853176241        0.9624104333        0.0000000018
C                0.2594437511        0.0366690393       -0.0000000026
C                0.2964791819        0.0738053935        0.0000000001
C                0.2593671431        0.1480781822       -0.0000000039
C                0.2964041997        0.1850426827        0.0000000005
C                0.2592462749        0.2592462758        0.0000000042
C                0.2961173335        0.2961173340        0.0000000047
C                0.2589819121        0.3702500116        0.0000000029
C                0.2956791030        0.4070785330       -0.0000000004
C                0.2595461309        0.4809373633       -0.0000000018
C                0.2969378695        0.5176596651        0.0000000040
C                0.2607657484        0.5912753529        0.0000000028
C                0.2992659659        0.6266409267       -0.0000000028
C                0.2613865606        0.7015271646        0.0000000023
C                0.2971425655        0.7395623839        0.0000000017
C                0.2599215100        0.8137423766        0.0000000055
C                0.2965759166        0.8512072135        0.0000000053
C                0.2595448278        0.9252118558        0.0000000051
C                0.2965076865        0.9625223177       -0.0000000008
C                0.3705594175        0.0368026512        0.0000000000
C                0.4076098142        0.0739377892        0.0000000001
C                0.3705271471        0.1479776911        0.0000000017
C                0.4074762977        0.1849801765        0.0000000048
C                0.3702500065        0.2589819179        0.0000000040
C                0.4070785355        0.2956790967       -0.0000000005
C                0.3697740305        0.3697740409       -0.0000000011
C                0.4060108804        0.4060108881       -0.0000000007
C                0.3716721085        0.4796539835        0.0000000032
C                0.4101223853        0.5134702472       -0.0000000005
C                0.3752015835        0.5877117465       -0.0000000051
C                0.4083719026        0.6287734534       -0.0000000081
C                0.3713795622        0.7021649078       -0.0000000031
C                0.4079148340        0.7402252698       -0.0000000065
C                0.3707665550        0.8141356030        0.0000000047
C                0.4076116397        0.8514063333       -0.0000000017
C                0.3705564311        0.9255672398       -0.0000000056
C                0.4075591386        0.9626685086       -0.0000000042
C                0.4816771391        0.0370835576       -0.0000000022
C                0.5186114679        0.0741615866        0.0000000019
C                0.4814720275        0.1482600908        0.0000000046
C                0.5182743845        0.1854962448        0.0000000022
C                0.4809373620        0.2595461367       -0.0000000003
C                0.5176596575        0.2969378826        0.0000000012
C                0.4796539699        0.3716721307        0.0000000003
C                0.5134702381        0.4101223976       -0.0000000083
C                0.5215584183        0.5215584087        0.0000000093
C                0.4823552958        0.5926415472        0.0000000001
C                0.5193842979        0.6301283649       -0.0000000001
C                0.4817602362        0.7039713806       -0.0000000065
C                0.5187311458        0.7409083557       -0.0000000024
C                0.4816049740        0.8147834427        0.0000000004
C                0.5186720693        0.8518423111       -0.0000000054
C                0.4816835900        0.9258121774       -0.0000000037
C                0.5186629418        0.9629349222       -0.0000000040
C                0.5926496099        0.0374075326       -0.0000000033
C                0.6294208051        0.0746950094       -0.0000000057
C                0.5922633355        0.1488922587       -0.0000000063
C                0.6288545521        0.1862213009       -0.0000000021
C                0.5912753519        0.2607657562        0.0000000058
C                0.6266409218        0.2992659767        0.0000000051
C                0.5877117369        0.3752016145       -0.0000000008
C                0.6287734585        0.4083719037       -0.0000000013
C                0.5926415557        0.4823553044        0.0000000088
C                0.6301283594        0.5193843067        0.0000000032
C                0.5930402067        0.5930402049       -0.0000000038
C                0.6300395901        0.6300396045        0.0000000060
C                0.5928241977        0.7038590282        0.0000000001
C                0.6297463228        0.7407695877       -0.0000000044
C                0.5926742151        0.8148530299       -0.0000000022
C                0.6296425534        0.8519036323       -0.0000000025
C                0.5926745660        0.9260416646       -0.0000000008
C                0.6296362589        0.9632723682       -0.0000000013
C                0.7033939256        0.0376852981       -0.0000000014
C                0.7401318584        0.0749589022       -0.0000000016
C                0.7028114289        0.1492180494       -0.0000000017
C                0.7392591583        0.1867097524       -0.0000000035
C                0.7015271590        0.2613865724        0.0000000036
C                0.7395623911        0.2971425647       -0.0000000003
C                0.7021649114        0.3713795716        0.0000000042
C                0.7402252802        0.4079148235       -0.0000000018
C                0.7039713847        0.4817602481        0.0000000003
C                0.7409083588        0.5187311508       -0.0000000037
C                0.7038590329        0.5928241966        0.0000000011
C                0.7407695880        0.6297463285        0.0000000054
C                0.7037241878        0.7037241831        0.0000000037
C                0.7407826540        0.7407826527        0.0000000085
C                0.7037636761        0.8148460514        0.0000000013
C                0.7407452136        0.8519659452       -0.0000000008
C                0.7036864352        0.9262420063        0.0000000002
C                0.7405674894        0.9633863462        0.0000000003
C                0.8142646322        0.0376571242       -0.0000000007
C                0.8511137063        0.0747129559       -0.0000000010
C                0.8136215763        0.1491411013       -0.0000000023
C                0.8509401283        0.1858142210       -0.0000000031
C                0.8137423860        0.2599215048       -0.0000000008
C                0.8512072230        0.2965759121       -0.0000000025
C                0.8141355958        0.3707665671       -0.0000000007
C                0.8514063389        0.4076116334        0.0000000041
C                0.8147834426        0.4816049821        0.0000000028
C                0.8518423171        0.5186720701        0.0000000045
C                0.8148530307        0.5926742171        0.0000000051
C                0.8519036353        0.6296425548       -0.0000000002
C                0.8148460563        0.7037636748        0.0000000058
C                0.8519659510        0.7407452094        0.0000000024
C                0.8148835241        0.8148835222        0.0000000059
C                0.8519548739        0.8519548701        0.0000000033
C                0.8147305504        0.9262088079        0.0000000034
C                0.8516404529        0.9632996504       -0.0000000013
C                0.9254606294        0.0372814573        0.0000000011
C                0.9625313339        0.0741983999       -0.0000000021
C                0.9252366337        0.1484807716       -0.0000000020
C                0.9624104427        0.1853176202       -0.0000000004
C                0.9252118645        0.2595448249        0.0000000001
C                0.9625223202        0.2965076880        0.0000000013
C                0.9255672402        0.3705564378        0.0000000065
C                0.9626685107        0.4075591422        0.0000000013
C                0.9258121813        0.4816835957        0.0000000039
C                0.9629349241        0.5186629457        0.0000000017
C                0.9260416690        0.5926745688        0.0000000002
C                0.9632723710        0.6296362599       -0.0000000043
C                0.9262420090        0.7036864342       -0.0000000003
C                0.9633863503        0.7405674877       -0.0000000013
C                0.9262088136        0.8147305485       -0.0000000014
C                0.9632996527        0.8516404483       -0.0000000061
C                0.9259218940        0.9259218897       -0.0000000084
C                0.9629286555        0.9629286464       -0.0000000030



     Writing config-only to output data dir /home/gregb26/links/scratch/qe_tmp/vacancy_relaxed/nspin1/vac_9x9_relax_nspin1.save/ :
     XML data file
     NEW-OLD atomic charge density approx. for the potential

     negative rho (up, down):  7.973E-06 0.000E+00

     total cpu time spent up to now is     1818.0 secs

     per-process dynamical memory:   351.9 Mb

     Self-consistent Calculation

     iteration #  1     ecut=   100.00 Ry     beta= 0.30
     Davidson diagonalization with overlap
     ethr =  1.00E-06,  avg # of iterations =  7.0

     negative rho (up, down):  5.272E-06 0.000E+00

     total cpu time spent up to now is     1833.4 secs

     total energy              =   -1939.03710438 Ry
     estimated scf accuracy    <       0.05986545 Ry

     iteration #  2     ecut=   100.00 Ry     beta= 0.30
     Davidson diagonalization with overlap
     ethr =  9.30E-06,  avg # of iterations =  7.0

     negative rho (up, down):  4.831E-06 0.000E+00

     total cpu time spent up to now is     1842.0 secs

     total energy              =   -1939.05570114 Ry
     estimated scf accuracy    <       0.58764870 Ry

     iteration #  3     ecut=   100.00 Ry     beta= 0.30
     Davidson diagonalization with overlap
     ethr =  9.30E-06,  avg # of iterations =  6.0

     negative rho (up, down):  4.519E-06 0.000E+00

     total cpu time spent up to now is     1849.8 secs

     total energy              =   -1939.06152059 Ry
     estimated scf accuracy    <       0.19201966 Ry

     iteration #  4     ecut=   100.00 Ry     beta= 0.30
     Davidson diagonalization with overlap
     ethr =  9.30E-06,  avg # of iterations =  2.0

     negative rho (up, down):  3.106E-06 0.000E+00

     total cpu time spent up to now is     1856.6 secs

     total energy              =   -1939.06176387 Ry
     estimated scf accuracy    <       0.02432770 Ry

     iteration #  5     ecut=   100.00 Ry     beta= 0.30
     Davidson diagonalization with overlap
     ethr =  3.78E-06,  avg # of iterations =  4.0

     negative rho (up, down):  1.550E-06 0.000E+00

     total cpu time spent up to now is     1863.9 secs

     total energy              =   -1939.06182575 Ry
     estimated scf accuracy    <       0.06162523 Ry

     iteration #  6     ecut=   100.00 Ry     beta= 0.30
     Davidson diagonalization with overlap
     ethr =  3.78E-06,  avg # of iterations =  1.0

     negative rho (up, down):  5.638E-07 0.000E+00

     total cpu time spent up to now is     1870.3 secs

     total energy              =   -1939.06327098 Ry
     estimated scf accuracy    <       0.00638486 Ry

     iteration #  7     ecut=   100.00 Ry     beta= 0.30
     Davidson diagonalization with overlap
     ethr =  9.91E-07,  avg # of iterations =  1.0

     negative rho (up, down):  2.098E-07 0.000E+00

     total cpu time spent up to now is     1876.6 secs

     total energy              =   -1939.06337850 Ry
     estimated scf accuracy    <       0.00008783 Ry

     iteration #  8     ecut=   100.00 Ry     beta= 0.30
     Davidson diagonalization with overlap
     ethr =  1.36E-08,  avg # of iterations =  6.0

     negative rho (up, down):  9.862E-08 0.000E+00

     total cpu time spent up to now is     1885.1 secs

     total energy              =   -1939.06339311 Ry
     estimated scf accuracy    <       0.00364508 Ry

     iteration #  9     ecut=   100.00 Ry     beta= 0.30
     Davidson diagonalization with overlap
     ethr =  1.36E-08,  avg # of iterations =  2.0

     negative rho (up, down):  2.564E-08 0.000E+00

     total cpu time spent up to now is     1892.2 secs

     total energy              =   -1939.06335670 Ry
     estimated scf accuracy    <       0.00154457 Ry

     iteration # 10     ecut=   100.00 Ry     beta= 0.30
     Davidson diagonalization with overlap
     ethr =  1.36E-08,  avg # of iterations =  2.0

     total cpu time spent up to now is     1899.3 secs

     total energy              =   -1939.06337757 Ry
     estimated scf accuracy    <       0.00000619 Ry

     iteration # 11     ecut=   100.00 Ry     beta= 0.30
     Davidson diagonalization with overlap
     ethr =  9.62E-10,  avg # of iterations =  4.0

     total cpu time spent up to now is     1906.7 secs

     total energy              =   -1939.06337727 Ry
     estimated scf accuracy    <       0.00002559 Ry

     iteration # 12     ecut=   100.00 Ry     beta= 0.30
     Davidson diagonalization with overlap
     ethr =  9.62E-10,  avg # of iterations =  1.0

     total cpu time spent up to now is     1912.7 secs

     total energy              =   -1939.06337753 Ry
     estimated scf accuracy    <       0.00000101 Ry

     iteration # 13     ecut=   100.00 Ry     beta= 0.30
     Davidson diagonalization with overlap
     ethr =  1.56E-10,  avg # of iterations =  4.0

     total cpu time spent up to now is     1920.5 secs

     total energy              =   -1939.06337759 Ry
     estimated scf accuracy    <       0.00000001 Ry

     iteration # 14     ecut=   100.00 Ry     beta= 0.30
     Davidson diagonalization with overlap
     ethr =  1.99E-12,  avg # of iterations =  6.0

     total cpu time spent up to now is     1933.3 secs

     total energy              =   -1939.06337761 Ry
     estimated scf accuracy    <          3.6E-09 Ry

     iteration # 15     ecut=   100.00 Ry     beta= 0.30
     Davidson diagonalization with overlap
     ethr =  5.64E-13,  avg # of iterations =  2.0

     total cpu time spent up to now is     1940.4 secs

     total energy              =   -1939.06337761 Ry
     estimated scf accuracy    <          4.6E-09 Ry

     iteration # 16     ecut=   100.00 Ry     beta= 0.30
     Davidson diagonalization with overlap
     ethr =  5.64E-13,  avg # of iterations =  2.0

     total cpu time spent up to now is     1947.4 secs

     total energy              =   -1939.06337761 Ry
     estimated scf accuracy    <          3.9E-10 Ry

     iteration # 17     ecut=   100.00 Ry     beta= 0.30
     Davidson diagonalization with overlap
     ethr =  1.00E-13,  avg # of iterations =  4.0

     total cpu time spent up to now is     1954.9 secs

     total energy              =   -1939.06337761 Ry
     estimated scf accuracy    <          9.0E-11 Ry

     iteration # 18     ecut=   100.00 Ry     beta= 0.30
     Davidson diagonalization with overlap
     ethr =  1.00E-13,  avg # of iterations =  2.0

     total cpu time spent up to now is     1961.6 secs

     End of self-consistent calculation

          k = 0.0000 0.0000 0.0000 (385710 PWs)   bands (ev):

   -23.7901 -23.5549 -23.5160 -23.5019 -23.4985 -23.4917 -23.4228 -22.9551
   -22.9418 -22.9402 -22.9369 -22.9110 -22.8296 -22.6600 -22.6568 -22.6471
   -22.6393 -22.6270 -22.4822 -21.8180 -21.8137 -21.8034 -21.7982 -21.7953
   -21.7869 -21.7791 -21.7775 -21.7744 -21.7661 -21.7430 -21.5351 -21.2425
   -21.2265 -21.2185 -21.2135 -21.1941 -21.0167 -20.4054 -20.4049 -20.3882
   -20.3763 -20.3631 -20.2993 -20.1363 -20.1298 -20.1290 -20.1250 -20.1226
   -20.1172 -20.1139 -20.1071 -20.0984 -20.0816 -20.0465 -19.7034 -19.3398
   -19.3317 -19.3167 -19.2965 -19.2959 -19.1064 -18.5738 -18.5720 -18.5531
   -18.5522 -18.5456 -18.5408 -18.5340 -18.5251 -18.5170 -18.4988 -18.4974
   -18.4310 -18.3883 -18.3861 -18.3758 -18.3652 -18.3438 -17.7497 -17.3531
   -17.3525 -17.3504 -17.2949 -17.2664 -17.1780 -16.9039 -16.8634 -16.8625
   -16.7795 -16.6774 -16.6751 -16.6678 -16.6037 -16.5963 -16.4282 -16.1051
   -16.1021 -16.0959 -16.0896 -16.0884 -16.0801 -16.0769 -16.0743 -16.0592
   -15.9467 -15.9433 -15.5428 -15.2392 -15.2340 -15.2219 -15.2203 -15.2154
   -15.2137 -15.2108 -15.2036 -15.1992 -15.0849 -15.0697 -14.8044 -14.7789
   -14.4537 -13.9831 -13.9790 -13.9748 -13.9532 -13.9509 -13.9446 -13.9413
   -13.9402 -13.9216 -13.8512 -13.8230 -13.5694 -13.4792 -13.4484 -13.4445
   -13.4421 -13.4396 -13.4246 -13.4235 -13.4179 -13.4167 -13.2261 -13.2091
   -12.9075 -12.5203 -12.5040 -12.4702 -12.4682 -12.4606 -12.4582 -12.4559
   -12.4502 -12.4445 -12.4398 -12.4383 -12.4350 -12.4343 -12.4302 -12.4198
   -12.1745 -12.1622 -11.8741 -11.7133 -11.6318 -11.6230 -11.6177 -11.5721
   -11.5455 -11.5405 -11.5319 -11.5312 -11.5265 -11.5223 -11.4384 -11.4365
   -11.3592 -11.3376 -11.3274 -11.3180 -11.3180 -11.3158 -11.3051 -11.2982
   -11.2787 -11.1740 -11.1512 -11.1414 -11.0198 -11.0050 -10.9930 -10.9024
   -10.8708 -10.8658 -10.8607 -10.8582 -10.8559 -10.8345 -10.7465 -10.6882
   -10.6493 -10.6291 -10.6268 -10.6015 -10.5835 -10.5461 -10.5262 -10.5229
   -10.5171 -10.5082 -10.5006 -10.4660 -10.4539 -10.4477 -10.4347 -10.4309
   -10.4291 -10.4217 -10.4203 -10.3918 -10.3496 -10.2249 -10.2166 -10.2008
   -10.1115 -10.1000 -10.0830 -10.0584 -10.0458 -10.0334 -10.0118 -10.0023
    -9.9858  -9.5362  -9.5349  -9.5332  -9.5277  -9.5212  -9.5157  -9.5135
    -9.5115  -9.5076  -9.4988  -9.4882  -9.4689  -9.4675  -9.2689  -9.1152
    -9.0946  -9.0905  -9.0840  -9.0576  -9.0510  -9.0508  -9.0467  -9.0370
    -9.0118  -8.9079  -8.8927  -8.8881  -8.8773  -8.8762  -8.7743  -8.7022
    -8.6254  -8.6240  -8.4467  -8.4446  -8.4444  -8.0947  -8.0762  -7.9467
    -7.9452  -7.9373  -7.9369  -7.9216  -7.9211  -7.9200  -7.9148  -7.8803
    -7.8655  -7.8456  -7.7121  -7.7049  -7.7034  -7.7005  -7.6962  -7.6920
    -7.6871  -7.6859  -7.6759  -7.6734  -7.6711  -7.3987  -7.3962  -7.3543
    -7.0652  -7.0584  -7.0506  -7.0462  -7.0273  -6.8083  -6.3692  -6.3691
    -6.3608  -6.3507  -6.3428  -6.2560  -6.0878  -6.0834  -6.0725  -6.0693
    -6.0682  -6.0623  -6.0610  -6.0568  -6.0483  -6.0414  -6.0399  -5.0301
    -4.2740  -4.2458  -4.2357  -4.2097  -3.9640  -3.5400  -2.6702  -2.6610
    -2.6529  -2.6470  -2.6401  -2.6329  -2.5836  -2.5799  -2.5677  -2.5508
    -2.5508  -2.5489  -2.5468  -2.5340  -2.5251  -2.4527  -2.4472  -2.2088
    -2.0568  -2.0461  -2.0295  -1.9923  -1.9776  -1.5595  -0.9771  -0.9711

     the Fermi energy is    -4.2230 ev

!    total energy              =   -1939.06337761 Ry
     estimated scf accuracy    <          8.8E-12 Ry
     smearing contrib. (-TS)   =      -0.01233549 Ry
     internal energy E=F+TS    =   -1939.05104212 Ry

     The total energy is F=E-TS. E is the sum of the following terms:
     one-electron contribution =  -21952.18361664 Ry
     hartree contribution      =   11036.17631639 Ry
     xc contribution           =    -689.90854706 Ry
     ewald contribution        =    9666.86480518 Ry

     convergence has been achieved in  18 iterations

     Forces acting on atoms (cartesian axes, Ry/au):

     atom    1 type  1   force =     0.00071606    0.00000001    0.00000002
     atom    2 type  1   force =     0.00071101   -0.00000014   -0.00000004
     atom    3 type  1   force =    -0.00010679   -0.00077106    0.00000002
     atom    4 type  1   force =    -0.00013071   -0.00078777   -0.00000002
     atom    5 type  1   force =    -0.00017030   -0.00078174    0.00000001
     atom    6 type  1   force =    -0.00117169   -0.00086612   -0.00000002
     atom    7 type  1   force =    -0.00085218   -0.00100537    0.00000001
     atom    8 type  1   force =    -0.00139731   -0.00025424   -0.00000001
     atom    9 type  1   force =    -0.00155469   -0.00061352   -0.00000001
     atom   10 type  1   force =    -0.00102998   -0.00003741   -0.00000001
     atom   11 type  1   force =    -0.00260060    0.00059912   -0.00000002
     atom   12 type  1   force =    -0.00209597    0.00191337    0.00000000
     atom   13 type  1   force =    -0.00111616    0.00164887   -0.00000002
     atom   14 type  1   force =    -0.00072839    0.00276531   -0.00000004
     atom   15 type  1   force =     0.00044830    0.00262722    0.00000001
     atom   16 type  1   force =     0.00035226    0.00054677   -0.00000002
     atom   17 type  1   force =     0.00084586    0.00094144   -0.00000001
     atom   18 type  1   force =     0.00059363    0.00073472    0.00000001
     atom   19 type  1   force =    -0.00010692    0.00077141   -0.00000001
     atom   20 type  1   force =    -0.00013070    0.00078742    0.00000003
     atom   21 type  1   force =    -0.00094284    0.00000021    0.00000001
     atom   22 type  1   force =    -0.00200670   -0.00000003    0.00000003
     atom   23 type  1   force =    -0.00156366   -0.00017086    0.00000002
     atom   24 type  1   force =    -0.00265019   -0.00013792    0.00000000
     atom   25 type  1   force =    -0.00266660   -0.00032830   -0.00000001
     atom   26 type  1   force =    -0.00203903    0.00053476   -0.00000002
     atom   27 type  1   force =    -0.00038305   -0.00106458    0.00000005
     atom   28 type  1   force =     0.00027415   -0.00015444   -0.00000003
     atom   29 type  1   force =    -0.00032366    0.00005004   -0.00000000
     atom   30 type  1   force =    -0.00061236    0.00051106    0.00000007
     atom   31 type  1   force =    -0.00025206    0.00007035   -0.00000001
     atom   32 type  1   force =    -0.00040816   -0.00048638    0.00000004
     atom   33 type  1   force =     0.00051414   -0.00058281    0.00000001
     atom   34 type  1   force =     0.00032675    0.00147716    0.00000001
     atom   35 type  1   force =     0.00086161    0.00183893    0.00000001
     atom   36 type  1   force =     0.00080682    0.00127311   -0.00000000
     atom   37 type  1   force =    -0.00017016    0.00078209    0.00000001
     atom   38 type  1   force =    -0.00117166    0.00086577   -0.00000002
     atom   39 type  1   force =    -0.00156345    0.00017105    0.00000002
     atom   40 type  1   force =    -0.00265037    0.00013782    0.00000000
     atom   41 type  1   force =    -0.00127476   -0.00000000   -0.00000003
     atom   42 type  1   force =    -0.00152169    0.00000010    0.00000002
     atom   43 type  1   force =    -0.00117189    0.00003994   -0.00000001
     atom   44 type  1   force =     0.00105705    0.00051959   -0.00000000
     atom   45 type  1   force =    -0.00009327   -0.00112819    0.00000002
     atom   46 type  1   force =     0.00159686    0.00000564   -0.00000002
     atom   47 type  1   force =     0.00034567   -0.00061490   -0.00000001
     atom   48 type  1   force =    -0.00197286   -0.00144816    0.00000002
     atom   49 type  1   force =     0.00048095   -0.00083444   -0.00000005
     atom   50 type  1   force =    -0.00120173   -0.00036276    0.00000002
     atom   51 type  1   force =    -0.00002564    0.00037417    0.00000001
     atom   52 type  1   force =     0.00068478    0.00050134    0.00000001
     atom   53 type  1   force =     0.00022132    0.00036992   -0.00000002
     atom   54 type  1   force =     0.00076725    0.00129437   -0.00000000
     atom   55 type  1   force =    -0.00085207    0.00100563   -0.00000002
     atom   56 type  1   force =    -0.00139755    0.00025418    0.00000001
     atom   57 type  1   force =    -0.00266636    0.00032837    0.00000001
     atom   58 type  1   force =    -0.00203917   -0.00053461   -0.00000002
     atom   59 type  1   force =    -0.00117198   -0.00004027   -0.00000001
     atom   60 type  1   force =     0.00105731   -0.00051903    0.00000000
     atom   61 type  1   force =    -0.00303612   -0.00000037   -0.00000001
     atom   62 type  1   force =     0.00106131    0.00000016    0.00000001
     atom   63 type  1   force =     0.00181399   -0.00275657   -0.00000000
     atom   64 type  1   force =    -0.00165160   -0.00112029   -0.00000004
     atom   65 type  1   force =     0.00231790   -0.00300158   -0.00000001
     atom   66 type  1   force =    -0.00066696   -0.00022603    0.00000003
     atom   67 type  1   force =     0.00064949    0.00144553   -0.00000000
     atom   68 type  1   force =     0.00003224   -0.00093544    0.00000004
     atom   69 type  1   force =     0.00040445   -0.00012598   -0.00000007
     atom   70 type  1   force =     0.00140973    0.00059576    0.00000002
     atom   71 type  1   force =     0.00082299    0.00141490    0.00000004
     atom   72 type  1   force =     0.00025047    0.00078850    0.00000002
     atom   73 type  1   force =    -0.00155426    0.00061355    0.00000000
     atom   74 type  1   force =    -0.00103027    0.00003720   -0.00000004
     atom   75 type  1   force =    -0.00038290    0.00106474   -0.00000000
     atom   76 type  1   force =     0.00027425    0.00015407   -0.00000004
     atom   77 type  1   force =    -0.00009330    0.00112816   -0.00000001
     atom   78 type  1   force =     0.00159697   -0.00000573   -0.00000001
     atom   79 type  1   force =     0.00181373    0.00275615    0.00000001
     atom   80 type  1   force =    -0.00165122    0.00112041    0.00000002
     atom   81 type  1   force =     0.00161647    0.00000005    0.00000002
     atom   82 type  1   force =    -0.00145856    0.00001127   -0.00000002
     atom   83 type  1   force =    -0.00002324   -0.00092050   -0.00000004
     atom   84 type  1   force =    -0.00034991    0.00004440    0.00000003
     atom   85 type  1   force =     0.00077068   -0.00004969   -0.00000000
     atom   86 type  1   force =    -0.00002136   -0.00005976   -0.00000003
     atom   87 type  1   force =     0.00124955    0.00047901    0.00000003
     atom   88 type  1   force =     0.00053290    0.00118210    0.00000001
     atom   89 type  1   force =     0.00006913    0.00001592    0.00000001
     atom   90 type  1   force =    -0.00260043   -0.00059896    0.00000001
     atom   91 type  1   force =    -0.00209610   -0.00191369   -0.00000001
     atom   92 type  1   force =    -0.00032381   -0.00004958    0.00000004
     atom   93 type  1   force =    -0.00061219   -0.00051138    0.00000003
     atom   94 type  1   force =     0.00034558    0.00061515   -0.00000005
     atom   95 type  1   force =    -0.00197266    0.00144834   -0.00000002
     atom   96 type  1   force =     0.00231724    0.00300110   -0.00000001
     atom   97 type  1   force =    -0.00066655    0.00022633    0.00000008
     atom   98 type  1   force =    -0.00145896   -0.00001137   -0.00000005
     atom   99 type  1   force =    -0.00002285    0.00092000   -0.00000000
     atom  100 type  1   force =    -0.00028145    0.00000032    0.00000011
     atom  101 type  1   force =     0.00132792   -0.00000052   -0.00000007
     atom  102 type  1   force =     0.00057529   -0.00040786    0.00000001
     atom  103 type  1   force =     0.00369256    0.00053992    0.00000005
     atom  104 type  1   force =     0.00246747    0.00127272   -0.00000004
     atom  105 type  1   force =     0.00169095    0.00000503    0.00000002
     atom  106 type  1   force =     0.00008924    0.00023872   -0.00000001
     atom  107 type  1   force =    -0.00024189   -0.00078289    0.00000000
     atom  108 type  1   force =    -0.00111611   -0.00164876   -0.00000002
     atom  109 type  1   force =    -0.00072849   -0.00276530   -0.00000001
     atom  110 type  1   force =    -0.00025209   -0.00007017   -0.00000001
     atom  111 type  1   force =    -0.00040825    0.00048645    0.00000003
     atom  112 type  1   force =     0.00048093    0.00083425   -0.00000003
     atom  113 type  1   force =    -0.00120165    0.00036302    0.00000005
     atom  114 type  1   force =     0.00064904   -0.00144596   -0.00000005
     atom  115 type  1   force =     0.00003273    0.00093641    0.00000002
     atom  116 type  1   force =    -0.00035049   -0.00004466   -0.00000002
     atom  117 type  1   force =     0.00077069    0.00004971    0.00000002
     atom  118 type  1   force =     0.00057528    0.00040845    0.00000002
     atom  119 type  1   force =     0.00369233   -0.00054018   -0.00000003
     atom  120 type  1   force =     0.00282563    0.00000022   -0.00000001
     atom  121 type  1   force =     0.00237649   -0.00000006   -0.00000006
     atom  122 type  1   force =     0.00250110    0.00033264    0.00000001
     atom  123 type  1   force =     0.00088529    0.00010629    0.00000004
     atom  124 type  1   force =    -0.00075259   -0.00117871   -0.00000002
     atom  125 type  1   force =    -0.00021938   -0.00102039    0.00000001
     atom  126 type  1   force =     0.00044851   -0.00262716   -0.00000000
     atom  127 type  1   force =     0.00035214   -0.00054687    0.00000001
     atom  128 type  1   force =     0.00051432    0.00058280   -0.00000001
     atom  129 type  1   force =     0.00032670   -0.00147731    0.00000003
     atom  130 type  1   force =    -0.00002560   -0.00037407   -0.00000003
     atom  131 type  1   force =     0.00068482   -0.00050104   -0.00000001
     atom  132 type  1   force =     0.00040428    0.00012506   -0.00000001
     atom  133 type  1   force =     0.00141007   -0.00059516   -0.00000000
     atom  134 type  1   force =    -0.00002147    0.00005929   -0.00000000
     atom  135 type  1   force =     0.00124949   -0.00047884   -0.00000001
     atom  136 type  1   force =     0.00246759   -0.00127278   -0.00000003
     atom  137 type  1   force =     0.00169089   -0.00000506    0.00000003
     atom  138 type  1   force =     0.00250104   -0.00033254   -0.00000001
     atom  139 type  1   force =     0.00088531   -0.00010614    0.00000003
     atom  140 type  1   force =     0.00071545   -0.00000006   -0.00000003
     atom  141 type  1   force =     0.00075974   -0.00000000    0.00000001
     atom  142 type  1   force =    -0.00023163   -0.00165563   -0.00000001
     atom  143 type  1   force =    -0.00021699   -0.00098798    0.00000001
     atom  144 type  1   force =     0.00084585   -0.00094140   -0.00000003
     atom  145 type  1   force =     0.00059365   -0.00073466    0.00000000
     atom  146 type  1   force =     0.00086166   -0.00183875   -0.00000000
     atom  147 type  1   force =     0.00080668   -0.00127320    0.00000001
     atom  148 type  1   force =     0.00022128   -0.00036986   -0.00000001
     atom  149 type  1   force =     0.00076746   -0.00129450   -0.00000001
     atom  150 type  1   force =     0.00082287   -0.00141517   -0.00000002
     atom  151 type  1   force =     0.00025055   -0.00078850    0.00000003
     atom  152 type  1   force =     0.00053278   -0.00118222    0.00000001
     atom  153 type  1   force =     0.00006928   -0.00001598   -0.00000001
     atom  154 type  1   force =     0.00008912   -0.00023869   -0.00000002
     atom  155 type  1   force =    -0.00024185    0.00078284    0.00000005
     atom  156 type  1   force =    -0.00075250    0.00117869   -0.00000001
     atom  157 type  1   force =    -0.00021941    0.00102044    0.00000001
     atom  158 type  1   force =    -0.00023182    0.00165566    0.00000000
     atom  159 type  1   force =    -0.00021678    0.00098797    0.00000002
     atom  160 type  1   force =     0.00034416   -0.00000000    0.00000003
     atom  161 type  1   force =     0.00010953    0.00000009   -0.00000001

     Total force =     0.020328     Total SCF correction =     0.000004
     Energy error            =      9.5E-04 Ry
     Gradient error          =      3.7E-03 Ry/Bohr

     number of scf cycles    =  14
     number of bfgs steps    =  13

     energy             old  =   -1939.0624311133 Ry
     energy             new  =   -1939.0633776090 Ry

     CASE: energy            _new < energy            _old

     new trust radius        =       0.0739181010 bohr
     new conv_thr            =            3.7E-11 Ry


ATOMIC_POSITIONS (crystal)
C                0.0368255351        0.0368255216       -0.0000000055
C                0.0738787232        0.0738787082       -0.0000000016
C                0.0366632815        0.1481298303       -0.0000000027
C                0.0737736137        0.1851451419       -0.0000000021
C                0.0366358072        0.2594039665        0.0000000028
C                0.0737332578        0.2964280754       -0.0000000001
C                0.0367613559        0.3705176705       -0.0000000031
C                0.0738468002        0.4075704168       -0.0000000023
C                0.0370292158        0.4816274309       -0.0000000018
C                0.0740870535        0.5185600699       -0.0000000061
C                0.0373516481        0.5925966130       -0.0000000022
C                0.0746310084        0.6293860707        0.0000000013
C                0.0377135133        0.7033749712       -0.0000000001
C                0.0749600008        0.7401572015        0.0000000056
C                0.0376566543        0.8143222073        0.0000000008
C                0.0747959799        0.8510635352        0.0000000034
C                0.0372825347        0.9254647338       -0.0000000013
C                0.0741985656        0.9625068160       -0.0000000015
C                0.1481298332        0.0366632729       -0.0000000020
C                0.1851451538        0.0737735987       -0.0000000049
C                0.1480112554        0.1480112562       -0.0000000055
C                0.1851037225        0.1851037179       -0.0000000034
C                0.1479735349        0.2592897619       -0.0000000026
C                0.1849122946        0.2962843781        0.0000000036
C                0.1478312371        0.3704112065        0.0000000061
C                0.1848117958        0.4073588877        0.0000000001
C                0.1481938392        0.4813411468       -0.0000000081
C                0.1854618455        0.5181450613       -0.0000000014
C                0.1489114368        0.5921462149        0.0000000015
C                0.1862818974        0.6287231772        0.0000000023
C                0.1493362630        0.7027131894        0.0000000070
C                0.1869902753        0.7389979998        0.0000000011
C                0.1493189363        0.8134676035        0.0000000003
C                0.1859032601        0.8508672937        0.0000000021
C                0.1484848530        0.9252152031        0.0000000009
C                0.1853135327        0.9623855386        0.0000000023
C                0.2594039613        0.0366358060       -0.0000000031
C                0.2964280801        0.0737332443       -0.0000000016
C                0.2592897623        0.1479735363       -0.0000000045
C                0.2962843717        0.1849122914        0.0000000002
C                0.2591158131        0.2591158136        0.0000000028
C                0.2959730865        0.2959730964        0.0000000084
C                0.2588208515        0.3701212219        0.0000000032
C                0.2955217354        0.4069784696       -0.0000000010
C                0.2595564924        0.4807965739        0.0000000021
C                0.2971319088        0.5174218243        0.0000000037
C                0.2609927294        0.5910063956        0.0000000032
C                0.2999761435        0.6258431356       -0.0000000046
C                0.2618691773        0.7009838580        0.0000000024
C                0.2973641331        0.7392472320        0.0000000041
C                0.2600665379        0.8135479752        0.0000000088
C                0.2966435175        0.8511320305        0.0000000088
C                0.2595552129        0.9251578048        0.0000000052
C                0.2964717296        0.9625282564       -0.0000000026
C                0.3705176625        0.0367613595       -0.0000000001
C                0.4075704075        0.0738467918        0.0000000008
C                0.3704112070        0.1478312403        0.0000000042
C                0.4073588790        0.1848117961        0.0000000064
C                0.3701212292        0.2588208479        0.0000000025
C                0.4069784520        0.2955217529       -0.0000000014
C                0.3695421532        0.3695421425       -0.0000000050
C                0.4057910997        0.4057911267       -0.0000000012
C                0.3718592931        0.4793096360        0.0000000050
C                0.4118456579        0.5116708767       -0.0000000047
C                0.3762266479        0.5865346389       -0.0000000085
C                0.4086981673        0.6283070510       -0.0000000101
C                0.3716129708        0.7018338297       -0.0000000053
C                0.4080690909        0.7400781274       -0.0000000078
C                0.3708677488        0.8140329655        0.0000000045
C                0.4076236886        0.8514608988       -0.0000000015
C                0.3705198124        0.9256244468       -0.0000000061
C                0.4075413516        0.9626818644       -0.0000000045
C                0.4816274315        0.0370292155       -0.0000000029
C                0.5185600638        0.0740870448       -0.0000000003
C                0.4813411438        0.1481938411        0.0000000059
C                0.5181450641        0.1854618449        0.0000000012
C                0.4807965716        0.2595565002       -0.0000000021
C                0.5174218136        0.2971319209        0.0000000016
C                0.4793096220        0.3718592967        0.0000000004
C                0.5116708734        0.4118456707       -0.0000000131
C                0.5219129775        0.5219129756        0.0000000134
C                0.4826351445        0.5928064312       -0.0000000039
C                0.5196193210        0.6303081032       -0.0000000036
C                0.4819102539        0.7040844172       -0.0000000056
C                0.5188191740        0.7411389487        0.0000000002
C                0.4816186694        0.8149514082       -0.0000000011
C                0.5187028782        0.8520101807       -0.0000000062
C                0.4816696376        0.9259246751       -0.0000000023
C                0.5186986355        0.9629404610       -0.0000000064
C                0.5925966099        0.0373516511       -0.0000000025
C                0.6293860741        0.0746309982       -0.0000000072
C                0.5921462018        0.1489114489       -0.0000000052
C                0.6287231808        0.1862818985       -0.0000000044
C                0.5910063794        0.2609927483        0.0000000011
C                0.6258431296        0.2999761611        0.0000000036
C                0.5865346290        0.3762266628        0.0000000025
C                0.6283070546        0.4086981829        0.0000000081
C                0.5928064284        0.4826351477        0.0000000066
C                0.6303081144        0.5196193289        0.0000000055
C                0.5932469784        0.5932469984        0.0000000022
C                0.6302745934        0.6302745775        0.0000000062
C                0.5929470724        0.7040666059        0.0000000045
C                0.6298847666        0.7410174503       -0.0000000038
C                0.5927061474        0.8150853659       -0.0000000051
C                0.6297068844        0.8520263670       -0.0000000023
C                0.5926990145        0.9261038169       -0.0000000025
C                0.6296674199        0.9632906634       -0.0000000014
C                0.7033749684        0.0377135116       -0.0000000044
C                0.7401572000        0.0749599969       -0.0000000026
C                0.7027131842        0.1493362660       -0.0000000019
C                0.7389979929        0.1869902805       -0.0000000043
C                0.7009838567        0.2618691859        0.0000000038
C                0.7392472357        0.2973641437        0.0000000031
C                0.7018338320        0.3716129654        0.0000000052
C                0.7400781203        0.4080691223       -0.0000000004
C                0.7040844181        0.4819102523        0.0000000015
C                0.7411389522        0.5188191841       -0.0000000014
C                0.7040665896        0.5929470947        0.0000000041
C                0.7410174552        0.6298847593        0.0000000021
C                0.7038635061        0.7038635205        0.0000000004
C                0.7408871300        0.7408871256        0.0000000088
C                0.7038411343        0.8149620439        0.0000000033
C                0.7407846466        0.8520516252        0.0000000001
C                0.7037203953        0.9262786799       -0.0000000002
C                0.7405713256        0.9634611116       -0.0000000004
C                0.8143222101        0.0376566506        0.0000000002
C                0.8510635410        0.0747959733        0.0000000006
C                0.8134676042        0.1493189383       -0.0000000048
C                0.8508673090        0.1859032467       -0.0000000014
C                0.8135479834        0.2600665347       -0.0000000014
C                0.8511320367        0.2966435248       -0.0000000057
C                0.8140329863        0.3708677274       -0.0000000019
C                0.8514608919        0.4076237086        0.0000000043
C                0.8149514204        0.4816186635        0.0000000039
C                0.8520101799        0.5187028852        0.0000000058
C                0.8150853721        0.5927061530        0.0000000044
C                0.8520263704        0.6297068823        0.0000000011
C                0.8149620471        0.7038411360        0.0000000094
C                0.8520516287        0.7407846456        0.0000000055
C                0.8149403047        0.8149402969        0.0000000040
C                0.8520154548        0.8520154496        0.0000000038
C                0.8147741185        0.9262282485        0.0000000047
C                0.8516658667        0.9633184953       -0.0000000013
C                0.9254647389        0.0372825261       -0.0000000006
C                0.9625068270        0.0741985533       -0.0000000029
C                0.9252152125        0.1484848475       -0.0000000020
C                0.9623855541        0.1853135174       -0.0000000006
C                0.9251578111        0.2595552122       -0.0000000006
C                0.9625282683        0.2964717318        0.0000000005
C                0.9256244560        0.3705198062        0.0000000085
C                0.9626818678        0.4075413581        0.0000000035
C                0.9259246834        0.4816696382        0.0000000053
C                0.9629404691        0.5186986409       -0.0000000002
C                0.9261038199        0.5926990161       -0.0000000019
C                0.9632906692        0.6296674204       -0.0000000025
C                0.9262786858        0.7037203944        0.0000000018
C                0.9634611158        0.7405713257        0.0000000010
C                0.9262282535        0.8147741107       -0.0000000005
C                0.9633185031        0.8516658621       -0.0000000071
C                0.9259327420        0.9259327361       -0.0000000109
C                0.9629253385        0.9629253348       -0.0000000057



     Writing config-only to output data dir /home/gregb26/links/scratch/qe_tmp/vacancy_relaxed/nspin1/vac_9x9_relax_nspin1.save/ :
     XML data file
     NEW-OLD atomic charge density approx. for the potential

     negative rho (up, down):  1.241E-05 0.000E+00

     total cpu time spent up to now is     1965.1 secs

     per-process dynamical memory:   351.9 Mb

     Self-consistent Calculation

     iteration #  1     ecut=   100.00 Ry     beta= 0.30
     Davidson diagonalization with overlap
     ethr =  1.00E-06,  avg # of iterations =  7.0

     negative rho (up, down):  8.236E-06 0.000E+00

     total cpu time spent up to now is     1982.8 secs

     total energy              =   -1939.00450470 Ry
     estimated scf accuracy    <       0.13572743 Ry

     iteration #  2     ecut=   100.00 Ry     beta= 0.30
     Davidson diagonalization with overlap
     ethr =  2.11E-05,  avg # of iterations =  7.0

     negative rho (up, down):  7.474E-06 0.000E+00

     total cpu time spent up to now is     1991.3 secs

     total energy              =   -1939.04970426 Ry
     estimated scf accuracy    <       1.01598152 Ry

     iteration #  3     ecut=   100.00 Ry     beta= 0.30
     Davidson diagonalization with overlap
     ethr =  2.11E-05,  avg # of iterations =  6.0

     negative rho (up, down):  6.890E-06 0.000E+00

     total cpu time spent up to now is     1998.9 secs

     total energy              =   -1939.06425246 Ry
     estimated scf accuracy    <       0.29350224 Ry

     iteration #  4     ecut=   100.00 Ry     beta= 0.30
     Davidson diagonalization with overlap
     ethr =  2.11E-05,  avg # of iterations =  2.0

     negative rho (up, down):  5.535E-06 0.000E+00

     total cpu time spent up to now is     2005.8 secs

     total energy              =   -1939.05640592 Ry
     estimated scf accuracy    <       0.12998065 Ry

     iteration #  5     ecut=   100.00 Ry     beta= 0.30
     Davidson diagonalization with overlap
     ethr =  2.02E-05,  avg # of iterations =  3.0

     negative rho (up, down):  3.307E-06 0.000E+00

     total cpu time spent up to now is     2012.7 secs

     total energy              =   -1939.06062411 Ry
     estimated scf accuracy    <       0.29474015 Ry

     iteration #  6     ecut=   100.00 Ry     beta= 0.30
     Davidson diagonalization with overlap
     ethr =  2.02E-05,  avg # of iterations =  1.0

     negative rho (up, down):  9.746E-07 0.000E+00

     total cpu time spent up to now is     2019.0 secs

     total energy              =   -1939.06389517 Ry
     estimated scf accuracy    <       0.00227633 Ry

     iteration #  7     ecut=   100.00 Ry     beta= 0.30
     Davidson diagonalization with overlap
     ethr =  3.53E-07,  avg # of iterations =  6.0

     negative rho (up, down):  4.380E-07 0.000E+00

     total cpu time spent up to now is     2026.5 secs

     total energy              =   -1939.06431014 Ry
     estimated scf accuracy    <       0.00479846 Ry

     iteration #  8     ecut=   100.00 Ry     beta= 0.30
     Davidson diagonalization with overlap
     ethr =  3.53E-07,  avg # of iterations =  1.0

     negative rho (up, down):  1.637E-07 0.000E+00

     total cpu time spent up to now is     2032.8 secs

     total energy              =   -1939.06400016 Ry
     estimated scf accuracy    <       0.01824029 Ry

     iteration #  9     ecut=   100.00 Ry     beta= 0.30
     Davidson diagonalization with overlap
     ethr =  3.53E-07,  avg # of iterations =  2.0

     negative rho (up, down):  5.615E-08 0.000E+00

     total cpu time spent up to now is     2039.5 secs

     total energy              =   -1939.06409842 Ry
     estimated scf accuracy    <       0.00182852 Ry

     iteration # 10     ecut=   100.00 Ry     beta= 0.30
     Davidson diagonalization with overlap
     ethr =  2.84E-07,  avg # of iterations =  1.0

     total cpu time spent up to now is     2045.7 secs

     total energy              =   -1939.06410733 Ry
     estimated scf accuracy    <       0.00020868 Ry

     iteration # 11     ecut=   100.00 Ry     beta= 0.30
     Davidson diagonalization with overlap
     ethr =  3.24E-08,  avg # of iterations =  5.0

     total cpu time spent up to now is     2053.0 secs

     total energy              =   -1939.06411193 Ry
     estimated scf accuracy    <       0.00000283 Ry

     iteration # 12     ecut=   100.00 Ry     beta= 0.30
     Davidson diagonalization with overlap
     ethr =  4.39E-10,  avg # of iterations =  6.0

     total cpu time spent up to now is     2063.1 secs

     total energy              =   -1939.06411309 Ry
     estimated scf accuracy    <       0.00001233 Ry

     iteration # 13     ecut=   100.00 Ry     beta= 0.30
     Davidson diagonalization with overlap
     ethr =  4.39E-10,  avg # of iterations =  2.0

     total cpu time spent up to now is     2070.1 secs

     total energy              =   -1939.06411321 Ry
     estimated scf accuracy    <       0.00000049 Ry

     iteration # 14     ecut=   100.00 Ry     beta= 0.30
     Davidson diagonalization with overlap
     ethr =  7.55E-11,  avg # of iterations =  2.0

     total cpu time spent up to now is     2077.3 secs

     total energy              =   -1939.06411321 Ry
     estimated scf accuracy    <       0.00000025 Ry

     iteration # 15     ecut=   100.00 Ry     beta= 0.30
     Davidson diagonalization with overlap
     ethr =  3.95E-11,  avg # of iterations =  2.0

     total cpu time spent up to now is     2084.4 secs

     total energy              =   -1939.06411322 Ry
     estimated scf accuracy    <       0.00000001 Ry

     iteration # 16     ecut=   100.00 Ry     beta= 0.30
     Davidson diagonalization with overlap
     ethr =  1.58E-12,  avg # of iterations =  5.0

     total cpu time spent up to now is     2092.4 secs

     total energy              =   -1939.06411322 Ry
     estimated scf accuracy    <          9.1E-10 Ry

     iteration # 17     ecut=   100.00 Ry     beta= 0.30
     Davidson diagonalization with overlap
     ethr =  1.42E-13,  avg # of iterations =  4.0

     total cpu time spent up to now is     2101.9 secs

     total energy              =   -1939.06411322 Ry
     estimated scf accuracy    <          2.2E-10 Ry

     iteration # 18     ecut=   100.00 Ry     beta= 0.30
     Davidson diagonalization with overlap
     ethr =  1.00E-13,  avg # of iterations =  2.0

     total cpu time spent up to now is     2109.0 secs

     total energy              =   -1939.06411322 Ry
     estimated scf accuracy    <          2.0E-10 Ry

     iteration # 19     ecut=   100.00 Ry     beta= 0.30
     Davidson diagonalization with overlap
     ethr =  1.00E-13,  avg # of iterations =  1.0

     total cpu time spent up to now is     2115.2 secs

     End of self-consistent calculation

          k = 0.0000 0.0000 0.0000 (385710 PWs)   bands (ev):

   -23.7907 -23.5502 -23.5226 -23.5025 -23.4998 -23.4861 -23.4108 -22.9558
   -22.9396 -22.9387 -22.9332 -22.9035 -22.8335 -22.6634 -22.6551 -22.6421
   -22.6328 -22.6183 -22.4766 -21.8101 -21.8053 -21.8027 -21.7980 -21.7934
   -21.7901 -21.7827 -21.7791 -21.7724 -21.7673 -21.7243 -21.5329 -21.2420
   -21.2252 -21.2185 -21.2073 -21.1857 -21.0131 -20.4010 -20.3994 -20.3867
   -20.3766 -20.3580 -20.3036 -20.1339 -20.1295 -20.1283 -20.1234 -20.1199
   -20.1153 -20.1093 -20.0993 -20.0874 -20.0854 -20.0374 -19.7070 -19.3394
   -19.3290 -19.3152 -19.2914 -19.2892 -19.1025 -18.5699 -18.5642 -18.5571
   -18.5559 -18.5449 -18.5449 -18.5266 -18.5231 -18.5118 -18.4926 -18.4913
   -18.4313 -18.3864 -18.3837 -18.3722 -18.3583 -18.3358 -17.7378 -17.3511
   -17.3511 -17.3478 -17.2984 -17.2647 -17.1824 -16.9014 -16.8595 -16.8581
   -16.7781 -16.6741 -16.6740 -16.6642 -16.6021 -16.5904 -16.4310 -16.1011
   -16.1009 -16.0906 -16.0899 -16.0830 -16.0811 -16.0808 -16.0701 -16.0499
   -15.9399 -15.9395 -15.5445 -15.2366 -15.2305 -15.2216 -15.2186 -15.2125
   -15.2125 -15.2103 -15.1941 -15.1907 -15.0816 -15.0668 -14.8071 -14.7762
   -14.4602 -13.9812 -13.9744 -13.9728 -13.9512 -13.9489 -13.9414 -13.9392
   -13.9332 -13.9146 -13.8482 -13.8148 -13.5612 -13.4674 -13.4501 -13.4479
   -13.4410 -13.4358 -13.4276 -13.4269 -13.4204 -13.4158 -13.2204 -13.1962
   -12.9160 -12.5174 -12.5026 -12.4657 -12.4639 -12.4574 -12.4522 -12.4515
   -12.4480 -12.4448 -12.4439 -12.4382 -12.4294 -12.4261 -12.4246 -12.4124
   -12.1695 -12.1565 -11.8752 -11.7138 -11.6241 -11.6232 -11.6143 -11.5686
   -11.5519 -11.5403 -11.5359 -11.5337 -11.5198 -11.5191 -11.4508 -11.4252
   -11.3541 -11.3322 -11.3294 -11.3177 -11.3139 -11.3117 -11.3082 -11.2819
   -11.2680 -11.1743 -11.1410 -11.1272 -11.0218 -11.0045 -10.9855 -10.9073
   -10.8675 -10.8665 -10.8593 -10.8574 -10.8539 -10.8286 -10.7498 -10.6721
   -10.6559 -10.6281 -10.6258 -10.5890 -10.5735 -10.5431 -10.5285 -10.5221
   -10.5137 -10.5035 -10.4939 -10.4589 -10.4488 -10.4466 -10.4336 -10.4320
   -10.4301 -10.4159 -10.4118 -10.3857 -10.3448 -10.2293 -10.2195 -10.2074
   -10.1118 -10.0936 -10.0729 -10.0522 -10.0389 -10.0210 -10.0082  -9.9984
    -9.9810  -9.5358  -9.5318  -9.5288  -9.5244  -9.5218  -9.5183  -9.5173
    -9.5140  -9.5047  -9.5003  -9.4713  -9.4647  -9.4561  -9.2673  -9.1210
    -9.0912  -9.0815  -9.0764  -9.0623  -9.0536  -9.0530  -9.0458  -9.0360
    -8.9974  -8.9079  -8.8926  -8.8879  -8.8719  -8.8705  -8.8084  -8.7001
    -8.6149  -8.6126  -8.4544  -8.4465  -8.4418  -8.0982  -8.0828  -7.9452
    -7.9437  -7.9405  -7.9361  -7.9361  -7.9241  -7.9160  -7.9155  -7.8924
    -7.8750  -7.8696  -7.7131  -7.7063  -7.7022  -7.7004  -7.6957  -7.6906
    -7.6896  -7.6870  -7.6665  -7.6655  -7.6610  -7.4011  -7.3988  -7.3582
    -7.0689  -7.0616  -7.0538  -7.0371  -7.0167  -6.8072  -6.3678  -6.3671
    -6.3585  -6.3453  -6.3392  -6.2530  -6.0924  -6.0876  -6.0764  -6.0714
    -6.0673  -6.0660  -6.0567  -6.0529  -6.0415  -6.0359  -6.0269  -5.0304
    -4.2746  -4.2449  -4.2317  -4.2172  -3.9660  -3.2456  -2.6724  -2.6624
    -2.6554  -2.6521  -2.6432  -2.6384  -2.5869  -2.5861  -2.5693  -2.5540
    -2.5521  -2.5504  -2.5493  -2.5320  -2.5219  -2.4409  -2.4394  -2.2122
    -2.0593  -2.0491  -2.0308  -1.9939  -1.9709  -1.5640  -0.9808  -0.9750

     the Fermi energy is    -4.2236 ev

!    total energy              =   -1939.06411322 Ry
     estimated scf accuracy    <          1.7E-11 Ry
     smearing contrib. (-TS)   =      -0.01244790 Ry
     internal energy E=F+TS    =   -1939.05166532 Ry

     The total energy is F=E-TS. E is the sum of the following terms:
     one-electron contribution =  -21951.32249242 Ry
     hartree contribution      =   11035.77323050 Ry
     xc contribution           =    -689.87043589 Ry
     ewald contribution        =    9666.36803250 Ry

     convergence has been achieved in  19 iterations

     Forces acting on atoms (cartesian axes, Ry/au):

     atom    1 type  1   force =     0.00153235    0.00000005    0.00000003
     atom    2 type  1   force =    -0.00015896    0.00000021   -0.00000002
     atom    3 type  1   force =     0.00120874   -0.00022789    0.00000002
     atom    4 type  1   force =    -0.00063982   -0.00032913   -0.00000001
     atom    5 type  1   force =    -0.00088079   -0.00134546   -0.00000003
     atom    6 type  1   force =    -0.00076902   -0.00058506   -0.00000002
     atom    7 type  1   force =    -0.00141144   -0.00133304    0.00000004
     atom    8 type  1   force =    -0.00184321   -0.00062393    0.00000001
     atom    9 type  1   force =     0.00022775   -0.00085441   -0.00000001
     atom   10 type  1   force =    -0.00080746   -0.00124778    0.00000000
     atom   11 type  1   force =     0.00020191    0.00016781   -0.00000001
     atom   12 type  1   force =    -0.00048491   -0.00040006    0.00000000
     atom   13 type  1   force =    -0.00052370    0.00118708   -0.00000000
     atom   14 type  1   force =     0.00033139    0.00010660   -0.00000000
     atom   15 type  1   force =    -0.00026206   -0.00001468   -0.00000000
     atom   16 type  1   force =     0.00094489   -0.00006217   -0.00000005
     atom   17 type  1   force =     0.00044816   -0.00080218   -0.00000000
     atom   18 type  1   force =     0.00063835    0.00096080   -0.00000002
     atom   19 type  1   force =     0.00120892    0.00022747    0.00000000
     atom   20 type  1   force =    -0.00063986    0.00032982   -0.00000001
     atom   21 type  1   force =    -0.00077554   -0.00000032    0.00000002
     atom   22 type  1   force =    -0.00138523    0.00000012   -0.00000002
     atom   23 type  1   force =    -0.00202055   -0.00120981    0.00000002
     atom   24 type  1   force =    -0.00147037   -0.00024582   -0.00000002
     atom   25 type  1   force =    -0.00113896   -0.00059693   -0.00000004
     atom   26 type  1   force =    -0.00091371   -0.00070122   -0.00000001
     atom   27 type  1   force =     0.00077837    0.00016309    0.00000002
     atom   28 type  1   force =     0.00114909   -0.00118630   -0.00000000
     atom   29 type  1   force =    -0.00029082    0.00137952    0.00000002
     atom   30 type  1   force =     0.00115258   -0.00187382    0.00000002
     atom   31 type  1   force =    -0.00163836    0.00099680   -0.00000003
     atom   32 type  1   force =     0.00008463   -0.00184813    0.00000003
     atom   33 type  1   force =    -0.00068430   -0.00069765    0.00000002
     atom   34 type  1   force =     0.00027905   -0.00002727    0.00000002
     atom   35 type  1   force =     0.00073685    0.00021199    0.00000001
     atom   36 type  1   force =    -0.00001560    0.00053827   -0.00000000
     atom   37 type  1   force =    -0.00088086    0.00134485   -0.00000000
     atom   38 type  1   force =    -0.00076884    0.00058570   -0.00000002
     atom   39 type  1   force =    -0.00202095    0.00120948    0.00000003
     atom   40 type  1   force =    -0.00146987    0.00024577   -0.00000000
     atom   41 type  1   force =    -0.00138540    0.00000005    0.00000003
     atom   42 type  1   force =    -0.00021282   -0.00000042   -0.00000002
     atom   43 type  1   force =    -0.00053496    0.00052134   -0.00000001
     atom   44 type  1   force =    -0.00169834   -0.00042371    0.00000000
     atom   45 type  1   force =     0.00064424    0.00015724   -0.00000002
     atom   46 type  1   force =     0.00012716   -0.00052404   -0.00000002
     atom   47 type  1   force =    -0.00154947   -0.00022039   -0.00000005
     atom   48 type  1   force =     0.00163017   -0.00026618   -0.00000000
     atom   49 type  1   force =    -0.00122750    0.00032914   -0.00000004
     atom   50 type  1   force =     0.00033423   -0.00062258   -0.00000002
     atom   51 type  1   force =     0.00005882    0.00122092   -0.00000003
     atom   52 type  1   force =    -0.00077895   -0.00077359   -0.00000000
     atom   53 type  1   force =     0.00048265    0.00047624   -0.00000002
     atom   54 type  1   force =    -0.00003967    0.00033847   -0.00000001
     atom   55 type  1   force =    -0.00141177    0.00133260   -0.00000002
     atom   56 type  1   force =    -0.00184240    0.00062401    0.00000000
     atom   57 type  1   force =    -0.00113966    0.00059690   -0.00000001
     atom   58 type  1   force =    -0.00091319    0.00070096    0.00000000
     atom   59 type  1   force =    -0.00053530   -0.00052060    0.00000004
     atom   60 type  1   force =    -0.00169828    0.00042259   -0.00000002
     atom   61 type  1   force =     0.00163596    0.00000085    0.00000003
     atom   62 type  1   force =    -0.00194315   -0.00000051   -0.00000000
     atom   63 type  1   force =    -0.00121630   -0.00030653   -0.00000002
     atom   64 type  1   force =    -0.00154654    0.00081330   -0.00000002
     atom   65 type  1   force =     0.00082705    0.00045013   -0.00000001
     atom   66 type  1   force =     0.00177657    0.00059555   -0.00000001
     atom   67 type  1   force =     0.00032394    0.00151866   -0.00000005
     atom   68 type  1   force =    -0.00035793   -0.00049633    0.00000004
     atom   69 type  1   force =     0.00126882    0.00075066   -0.00000002
     atom   70 type  1   force =    -0.00025577   -0.00021958   -0.00000000
     atom   71 type  1   force =    -0.00002843    0.00037505    0.00000001
     atom   72 type  1   force =     0.00017778    0.00105281    0.00000002
     atom   73 type  1   force =     0.00022701    0.00085441    0.00000002
     atom   74 type  1   force =    -0.00080682    0.00124803    0.00000002
     atom   75 type  1   force =     0.00077815   -0.00016324   -0.00000003
     atom   76 type  1   force =     0.00114892    0.00118683   -0.00000001
     atom   77 type  1   force =     0.00064388   -0.00015711    0.00000003
     atom   78 type  1   force =     0.00012699    0.00052406   -0.00000005
     atom   79 type  1   force =    -0.00121566    0.00030698   -0.00000003
     atom   80 type  1   force =    -0.00154705   -0.00081309    0.00000003
     atom   81 type  1   force =     0.00133591    0.00000015   -0.00000001
     atom   82 type  1   force =     0.00056793    0.00020891    0.00000002
     atom   83 type  1   force =    -0.00057375   -0.00003155    0.00000001
     atom   84 type  1   force =     0.00133984    0.00048822   -0.00000003
     atom   85 type  1   force =    -0.00199674   -0.00159770    0.00000004
     atom   86 type  1   force =     0.00092077   -0.00041016   -0.00000004
     atom   87 type  1   force =    -0.00006015    0.00035186    0.00000003
     atom   88 type  1   force =    -0.00040766    0.00003269   -0.00000002
     atom   89 type  1   force =    -0.00021477    0.00082421    0.00000003
     atom   90 type  1   force =     0.00020157   -0.00016811   -0.00000002
     atom   91 type  1   force =    -0.00048468    0.00040073    0.00000002
     atom   92 type  1   force =    -0.00029075   -0.00138040   -0.00000001
     atom   93 type  1   force =     0.00115240    0.00187448    0.00000003
     atom   94 type  1   force =    -0.00154928    0.00021977    0.00000000
     atom   95 type  1   force =     0.00162992    0.00026605    0.00000001
     atom   96 type  1   force =     0.00082732   -0.00045021   -0.00000003
     atom   97 type  1   force =     0.00177590   -0.00059578   -0.00000000
     atom   98 type  1   force =     0.00056864   -0.00020886    0.00000003
     atom   99 type  1   force =    -0.00057443    0.00003224    0.00000000
     atom  100 type  1   force =     0.00117601   -0.00000061    0.00000002
     atom  101 type  1   force =    -0.00259462    0.00000100    0.00000002
     atom  102 type  1   force =     0.00313651    0.00001641   -0.00000002
     atom  103 type  1   force =    -0.00039771   -0.00002853    0.00000003
     atom  104 type  1   force =     0.00127562   -0.00036328   -0.00000000
     atom  105 type  1   force =     0.00199473    0.00002409    0.00000001
     atom  106 type  1   force =     0.00040455   -0.00001253   -0.00000000
     atom  107 type  1   force =    -0.00104039   -0.00104692   -0.00000001
     atom  108 type  1   force =    -0.00052371   -0.00118732    0.00000001
     atom  109 type  1   force =     0.00033156   -0.00010658    0.00000002
     atom  110 type  1   force =    -0.00163831   -0.00099706   -0.00000000
     atom  111 type  1   force =     0.00008486    0.00184799    0.00000003
     atom  112 type  1   force =    -0.00122756   -0.00032910   -0.00000000
     atom  113 type  1   force =     0.00033388    0.00062210   -0.00000001
     atom  114 type  1   force =     0.00032495   -0.00151809   -0.00000002
     atom  115 type  1   force =    -0.00035894    0.00049475    0.00000003
     atom  116 type  1   force =     0.00134083   -0.00048778   -0.00000000
     atom  117 type  1   force =    -0.00199693    0.00159767    0.00000009
     atom  118 type  1   force =     0.00313646   -0.00001774    0.00000000
     atom  119 type  1   force =    -0.00039716    0.00002930    0.00000000
     atom  120 type  1   force =     0.00291691   -0.00000059    0.00000002
     atom  121 type  1   force =     0.00394347    0.00000013   -0.00000006
     atom  122 type  1   force =     0.00111801   -0.00014188    0.00000001
     atom  123 type  1   force =     0.00147141   -0.00147787    0.00000004
     atom  124 type  1   force =     0.00067818    0.00002079   -0.00000002
     atom  125 type  1   force =    -0.00148526   -0.00287617    0.00000002
     atom  126 type  1   force =    -0.00026219    0.00001467   -0.00000001
     atom  127 type  1   force =     0.00094492    0.00006239   -0.00000002
     atom  128 type  1   force =    -0.00068449    0.00069745    0.00000002
     atom  129 type  1   force =     0.00027915    0.00002782   -0.00000001
     atom  130 type  1   force =     0.00005889   -0.00122094   -0.00000001
     atom  131 type  1   force =    -0.00077946    0.00077299    0.00000004
     atom  132 type  1   force =     0.00126942   -0.00074902    0.00000001
     atom  133 type  1   force =    -0.00025624    0.00021827   -0.00000002
     atom  134 type  1   force =     0.00092091    0.00041116   -0.00000000
     atom  135 type  1   force =    -0.00005992   -0.00035230    0.00000001
     atom  136 type  1   force =     0.00127511    0.00036334   -0.00000001
     atom  137 type  1   force =     0.00199506   -0.00002398    0.00000003
     atom  138 type  1   force =     0.00111783    0.00014176   -0.00000003
     atom  139 type  1   force =     0.00147144    0.00147772   -0.00000000
     atom  140 type  1   force =     0.00096936    0.00000016    0.00000005
     atom  141 type  1   force =    -0.00126870   -0.00000002   -0.00000002
     atom  142 type  1   force =     0.00033168    0.00005488   -0.00000002
     atom  143 type  1   force =    -0.00029224   -0.00149504   -0.00000001
     atom  144 type  1   force =     0.00044832    0.00080222   -0.00000001
     atom  145 type  1   force =     0.00063841   -0.00096074    0.00000001
     atom  146 type  1   force =     0.00073670   -0.00021237    0.00000002
     atom  147 type  1   force =    -0.00001533   -0.00053769   -0.00000001
     atom  148 type  1   force =     0.00048272   -0.00047654   -0.00000003
     atom  149 type  1   force =    -0.00004016   -0.00033839    0.00000003
     atom  150 type  1   force =    -0.00002811   -0.00037443   -0.00000004
     atom  151 type  1   force =     0.00017753   -0.00105299   -0.00000000
     atom  152 type  1   force =    -0.00040765   -0.00003228   -0.00000001
     atom  153 type  1   force =    -0.00021512   -0.00082419    0.00000000
     atom  154 type  1   force =     0.00040466    0.00001253   -0.00000001
     atom  155 type  1   force =    -0.00104053    0.00104708    0.00000001
     atom  156 type  1   force =     0.00067814   -0.00002075   -0.00000000
     atom  157 type  1   force =    -0.00148538    0.00287606    0.00000001
     atom  158 type  1   force =     0.00033195   -0.00005472   -0.00000002
     atom  159 type  1   force =    -0.00029241    0.00149510    0.00000003
     atom  160 type  1   force =     0.00024172   -0.00000001    0.00000003
     atom  161 type  1   force =     0.00082383   -0.00000012    0.00000002

     Total force =     0.017630     Total SCF correction =     0.000006
     Energy error            =      7.4E-04 Ry
     Gradient error          =      3.9E-03 Ry/Bohr

     number of scf cycles    =  15
     number of bfgs steps    =  14

     energy             old  =   -1939.0633776090 Ry
     energy             new  =   -1939.0641132173 Ry

     CASE: energy            _new < energy            _old

     new trust radius        =       0.0261872189 bohr
     new conv_thr            =            3.9E-11 Ry


ATOMIC_POSITIONS (crystal)
C                0.0368341040        0.0368340918       -0.0000000042
C                0.0738648776        0.0738648660       -0.0000000032
C                0.0366642674        0.1481263260       -0.0000000024
C                0.0737596898        0.1851096098       -0.0000000030
C                0.0366351739        0.2593487698        0.0000000023
C                0.0737111256        0.2963856134       -0.0000000015
C                0.0367567772        0.3704547766       -0.0000000020
C                0.0738051165        0.4075171132       -0.0000000027
C                0.0370331880        0.4815939598       -0.0000000019
C                0.0740817724        0.5185071445       -0.0000000066
C                0.0373331325        0.5925850573       -0.0000000028
C                0.0746179184        0.6293592525        0.0000000007
C                0.0376898842        0.7033888141       -0.0000000008
C                0.0749701193        0.7401642895        0.0000000057
C                0.0376557489        0.8143341763        0.0000000011
C                0.0748443341        0.8510490724        0.0000000010
C                0.0373089174        0.9254506931       -0.0000000017
C                0.0741896699        0.9625237104       -0.0000000020
C                0.1481263374        0.0366642540       -0.0000000023
C                0.1851096092        0.0737596858       -0.0000000052
C                0.1479779976        0.1479779860       -0.0000000053
C                0.1850538343        0.1850538343       -0.0000000037
C                0.1479398571        0.2592093021       -0.0000000015
C                0.1848522643        0.2962203450        0.0000000037
C                0.1477820147        0.3703399949        0.0000000052
C                0.1847606401        0.4072891263       -0.0000000006
C                0.1481822517        0.4813125171       -0.0000000072
C                0.1854907129        0.5180807225       -0.0000000017
C                0.1488922380        0.5921318454        0.0000000022
C                0.1863706317        0.6286457730        0.0000000045
C                0.1493435654        0.7026655997        0.0000000061
C                0.1871409097        0.7388616887        0.0000000034
C                0.1493962551        0.8133771072        0.0000000013
C                0.1859442110        0.8508357456        0.0000000030
C                0.1484960840        0.9252165557        0.0000000016
C                0.1853008465        0.9623827838        0.0000000023
C                0.2593487760        0.0366351609       -0.0000000034
C                0.2963856086        0.0737111264       -0.0000000030
C                0.2592093042        0.1479398471       -0.0000000032
C                0.2962203483        0.1848522637       -0.0000000005
C                0.2590498709        0.2590498741        0.0000000040
C                0.2959192191        0.2959192106        0.0000000091
C                0.2587440065        0.3700852213        0.0000000026
C                0.2954477000        0.4068969351       -0.0000000013
C                0.2595653905        0.4807634911        0.0000000025
C                0.2972095578        0.5173212752        0.0000000035
C                0.2610684552        0.5908771725        0.0000000017
C                0.3002674658        0.6255697604       -0.0000000054
C                0.2620258418        0.7007632359        0.0000000006
C                0.2974689975        0.7391275283        0.0000000049
C                0.2600937389        0.8134993087        0.0000000085
C                0.2966774368        0.8510715809        0.0000000090
C                0.2595547443        0.9251558550        0.0000000053
C                0.2964531296        0.9625309057       -0.0000000037
C                0.3704547727        0.0367567677       -0.0000000017
C                0.4075171126        0.0738051197        0.0000000011
C                0.3703399856        0.1477820102        0.0000000048
C                0.4072891288        0.1847606420        0.0000000070
C                0.3700852089        0.2587440117        0.0000000043
C                0.4068969419        0.2954476991       -0.0000000021
C                0.3694813656        0.3694813889       -0.0000000053
C                0.4056768068        0.4056768160       -0.0000000009
C                0.3719152868        0.4791614270        0.0000000040
C                0.4124223284        0.5110077307       -0.0000000069
C                0.3766051614        0.5861242645       -0.0000000102
C                0.4088300111        0.6281740554       -0.0000000116
C                0.3716688158        0.7017487280       -0.0000000086
C                0.4081261108        0.7400134201       -0.0000000067
C                0.3709060902        0.8140266219        0.0000000036
C                0.4076313958        0.8514666261       -0.0000000016
C                0.3704978848        0.9256474909       -0.0000000055
C                0.4075144749        0.9627095143       -0.0000000038
C                0.4815939514        0.0370331798       -0.0000000026
C                0.5185071416        0.0740817743       -0.0000000006
C                0.4813125135        0.1481822504        0.0000000050
C                0.5180807141        0.1854907189       -0.0000000001
C                0.4807634788        0.2595653943       -0.0000000014
C                0.5173212604        0.2972095701        0.0000000002
C                0.4791614148        0.3719153033       -0.0000000001
C                0.5110077116        0.4124223438       -0.0000000145
C                0.5220704698        0.5220704800        0.0000000144
C                0.4827447917        0.5928819617       -0.0000000046
C                0.5196974273        0.6303748538       -0.0000000045
C                0.4819779048        0.7041509741       -0.0000000058
C                0.5188600895        0.7411601574        0.0000000026
C                0.4816484990        0.8150087353       -0.0000000026
C                0.5187083402        0.8520700604       -0.0000000052
C                0.4816580936        0.9259592443       -0.0000000027
C                0.5186888835        0.9629605364       -0.0000000061
C                0.5925850560        0.0373331261       -0.0000000028
C                0.6293592448        0.0746179233       -0.0000000073
C                0.5921318476        0.1488922340       -0.0000000050
C                0.6286457624        0.1863706429       -0.0000000035
C                0.5908771687        0.2610684660       -0.0000000000
C                0.6255697518        0.3002674812        0.0000000031
C                0.5861242632        0.3766051678        0.0000000014
C                0.6281740482        0.4088300253        0.0000000111
C                0.5928819649        0.4827448018        0.0000000086
C                0.6303748465        0.5196974410        0.0000000057
C                0.5933399431        0.5933399423        0.0000000047
C                0.6303235325        0.6303235535        0.0000000067
C                0.5930337333        0.7041778553        0.0000000054
C                0.6299299466        0.7410934633       -0.0000000024
C                0.5927450840        0.8151743820       -0.0000000063
C                0.6297564449        0.8520920719       -0.0000000024
C                0.5927125291        0.9261329940       -0.0000000027
C                0.6296874296        0.9632667421       -0.0000000023
C                0.7033888163        0.0376898775       -0.0000000045
C                0.7401642888        0.0749701176       -0.0000000019
C                0.7026655988        0.1493435638       -0.0000000019
C                0.7388616862        0.1871409169       -0.0000000031
C                0.7007632344        0.2620258485        0.0000000041
C                0.7391275381        0.2974689952        0.0000000036
C                0.7017487355        0.3716688298        0.0000000043
C                0.7400134290        0.4081261039        0.0000000008
C                0.7041509767        0.4819779228        0.0000000019
C                0.7411601590        0.5188600975        0.0000000020
C                0.7041778629        0.5930337305        0.0000000053
C                0.7410934587        0.6299299634        0.0000000011
C                0.7039541467        0.7039541362       -0.0000000002
C                0.7409736631        0.7409736636        0.0000000070
C                0.7038838991        0.8150128442        0.0000000041
C                0.7408552659        0.8520677664        0.0000000019
C                0.7037387017        0.9263064945       -0.0000000013
C                0.7406162018        0.9634097990        0.0000000005
C                0.8143341792        0.0376557440        0.0000000003
C                0.8510490741        0.0748443311       -0.0000000001
C                0.8133771121        0.1493962494       -0.0000000049
C                0.8508357499        0.1859442108       -0.0000000011
C                0.8134993177        0.2600937383       -0.0000000020
C                0.8510715921        0.2966774239       -0.0000000050
C                0.8140266203        0.3709061062       -0.0000000018
C                0.8514666415        0.4076313859        0.0000000038
C                0.8150087298        0.4816485145        0.0000000047
C                0.8520700734        0.5187083405        0.0000000064
C                0.8151743800        0.5927450843        0.0000000037
C                0.8520920775        0.6297564506        0.0000000024
C                0.8150128465        0.7038838954        0.0000000090
C                0.8520677736        0.7408552628        0.0000000066
C                0.8149740562        0.8149740546        0.0000000056
C                0.8520186254        0.8520186188        0.0000000033
C                0.8147889126        0.9262474843        0.0000000040
C                0.8516981321        0.9632975161       -0.0000000019
C                0.9254507004        0.0373089115       -0.0000000015
C                0.9625237219        0.0741896591       -0.0000000031
C                0.9252165734        0.1484960668       -0.0000000013
C                0.9623827900        0.1853008465       -0.0000000008
C                0.9251558698        0.2595547372       -0.0000000017
C                0.9625309124        0.2964531267        0.0000000017
C                0.9256474910        0.3704978957        0.0000000075
C                0.9627095200        0.4075144733        0.0000000045
C                0.9259592420        0.4816581030        0.0000000052
C                0.9629605421        0.5186888855       -0.0000000007
C                0.9261329987        0.5927125313       -0.0000000031
C                0.9632667429        0.6296874309       -0.0000000013
C                0.9263065003        0.7037387021        0.0000000027
C                0.9634098046        0.7406161967        0.0000000022
C                0.9262474882        0.8147889108       -0.0000000012
C                0.9632975245        0.8516981258       -0.0000000061
C                0.9259411122        0.9259411055       -0.0000000100
C                0.9629355918        0.9629355842       -0.0000000058



     Writing config-only to output data dir /home/gregb26/links/scratch/qe_tmp/vacancy_relaxed/nspin1/vac_9x9_relax_nspin1.save/ :
     XML data file
     NEW-OLD atomic charge density approx. for the potential

     negative rho (up, down):  4.238E-06 0.000E+00

     total cpu time spent up to now is     2118.9 secs

     per-process dynamical memory:   351.9 Mb

     Self-consistent Calculation

     iteration #  1     ecut=   100.00 Ry     beta= 0.30
     Davidson diagonalization with overlap
     ethr =  1.00E-06,  avg # of iterations =  5.0

     negative rho (up, down):  2.795E-06 0.000E+00

     total cpu time spent up to now is     2132.8 secs

     total energy              =   -1939.05704429 Ry
     estimated scf accuracy    <       0.01657279 Ry

     iteration #  2     ecut=   100.00 Ry     beta= 0.30
     Davidson diagonalization with overlap
     ethr =  2.57E-06,  avg # of iterations =  6.0

     negative rho (up, down):  2.631E-06 0.000E+00

     total cpu time spent up to now is     2141.2 secs

     total energy              =   -1939.05939379 Ry
     estimated scf accuracy    <       0.39754367 Ry

     iteration #  3     ecut=   100.00 Ry     beta= 0.30
     Davidson diagonalization with overlap
     ethr =  2.57E-06,  avg # of iterations =  6.0

     negative rho (up, down):  2.398E-06 0.000E+00

     total cpu time spent up to now is     2149.4 secs

     total energy              =   -1939.06322020 Ry
     estimated scf accuracy    <       0.06034474 Ry

     iteration #  4     ecut=   100.00 Ry     beta= 0.30
     Davidson diagonalization with overlap
     ethr =  2.57E-06,  avg # of iterations =  4.0

     negative rho (up, down):  1.439E-06 0.000E+00

     total cpu time spent up to now is     2156.6 secs

     total energy              =   -1939.06430109 Ry
     estimated scf accuracy    <       0.00046255 Ry

     iteration #  5     ecut=   100.00 Ry     beta= 0.30
     Davidson diagonalization with overlap
     ethr =  7.18E-08,  avg # of iterations =  5.0

     negative rho (up, down):  5.206E-07 0.000E+00

     total cpu time spent up to now is     2164.4 secs

     total energy              =   -1939.06421354 Ry
     estimated scf accuracy    <       0.00433031 Ry

     iteration #  6     ecut=   100.00 Ry     beta= 0.30
     Davidson diagonalization with overlap
     ethr =  7.18E-08,  avg # of iterations =  2.0

     negative rho (up, down):  2.166E-07 0.000E+00

     total cpu time spent up to now is     2171.5 secs

     total energy              =   -1939.06430514 Ry
     estimated scf accuracy    <       0.00021181 Ry

     iteration #  7     ecut=   100.00 Ry     beta= 0.30
     Davidson diagonalization with overlap
     ethr =  3.29E-08,  avg # of iterations =  1.0

     negative rho (up, down):  6.934E-08 0.000E+00

     total cpu time spent up to now is     2177.7 secs

     total energy              =   -1939.06430612 Ry
     estimated scf accuracy    <       0.00007540 Ry

     iteration #  8     ecut=   100.00 Ry     beta= 0.30
     Davidson diagonalization with overlap
     ethr =  1.17E-08,  avg # of iterations =  2.0

     negative rho (up, down):  1.576E-08 0.000E+00

     total cpu time spent up to now is     2184.6 secs

     total energy              =   -1939.06430683 Ry
     estimated scf accuracy    <       0.00001631 Ry

     iteration #  9     ecut=   100.00 Ry     beta= 0.30
     Davidson diagonalization with overlap
     ethr =  2.53E-09,  avg # of iterations =  5.0

     total cpu time spent up to now is     2192.2 secs

     total energy              =   -1939.06430752 Ry
     estimated scf accuracy    <       0.00000021 Ry

     iteration # 10     ecut=   100.00 Ry     beta= 0.30
     Davidson diagonalization with overlap
     ethr =  3.30E-11,  avg # of iterations =  7.0

     total cpu time spent up to now is     2204.6 secs

     total energy              =   -1939.06430780 Ry
     estimated scf accuracy    <       0.00000068 Ry

     iteration # 11     ecut=   100.00 Ry     beta= 0.30
     Davidson diagonalization with overlap
     ethr =  3.30E-11,  avg # of iterations =  1.0

     total cpu time spent up to now is     2210.9 secs

     total energy              =   -1939.06430774 Ry
     estimated scf accuracy    <       0.00000220 Ry

     iteration # 12     ecut=   100.00 Ry     beta= 0.30
     Davidson diagonalization with overlap
     ethr =  3.30E-11,  avg # of iterations =  2.0

     total cpu time spent up to now is     2217.8 secs

     total energy              =   -1939.06430778 Ry
     estimated scf accuracy    <       0.00000003 Ry

     iteration # 13     ecut=   100.00 Ry     beta= 0.30
     Davidson diagonalization with overlap
     ethr =  4.23E-12,  avg # of iterations =  2.0

     total cpu time spent up to now is     2224.8 secs

     total energy              =   -1939.06430778 Ry
     estimated scf accuracy    <          1.2E-09 Ry

     iteration # 14     ecut=   100.00 Ry     beta= 0.30
     Davidson diagonalization with overlap
     ethr =  1.93E-13,  avg # of iterations =  5.0

     total cpu time spent up to now is     2233.7 secs

     total energy              =   -1939.06430778 Ry
     estimated scf accuracy    <          3.4E-10 Ry

     iteration # 15     ecut=   100.00 Ry     beta= 0.30
     Davidson diagonalization with overlap
     ethr =  1.00E-13,  avg # of iterations =  2.0

     total cpu time spent up to now is     2240.9 secs

     total energy              =   -1939.06430778 Ry
     estimated scf accuracy    <          1.1E-10 Ry

     iteration # 16     ecut=   100.00 Ry     beta= 0.30
     Davidson diagonalization with overlap
     ethr =  1.00E-13,  avg # of iterations =  1.0

     total cpu time spent up to now is     2247.2 secs

     End of self-consistent calculation

          k = 0.0000 0.0000 0.0000 (385710 PWs)   bands (ev):

   -23.7913 -23.5487 -23.5242 -23.5069 -23.5009 -23.4802 -23.4081 -22.9571
   -22.9381 -22.9377 -22.9313 -22.9013 -22.8368 -22.6648 -22.6550 -22.6412
   -22.6307 -22.6143 -22.4738 -21.8111 -21.8051 -21.7997 -21.7958 -21.7957
   -21.7886 -21.7856 -21.7791 -21.7704 -21.7687 -21.7171 -21.5319 -21.2424
   -21.2247 -21.2187 -21.2046 -21.1826 -21.0111 -20.4005 -20.3978 -20.3861
   -20.3769 -20.3565 -20.3067 -20.1344 -20.1286 -20.1263 -20.1223 -20.1188
   -20.1130 -20.1075 -20.0978 -20.0864 -20.0854 -20.0330 -19.7087 -19.3387
   -19.3295 -19.3147 -19.2883 -19.2861 -19.1011 -18.5685 -18.5604 -18.5587
   -18.5581 -18.5459 -18.5456 -18.5246 -18.5245 -18.5103 -18.4901 -18.4880
   -18.4349 -18.3854 -18.3823 -18.3697 -18.3549 -18.3321 -17.7336 -17.3490
   -17.3489 -17.3461 -17.3012 -17.2641 -17.1833 -16.9016 -16.8585 -16.8557
   -16.7785 -16.6736 -16.6731 -16.6641 -16.6021 -16.5873 -16.4301 -16.0999
   -16.0992 -16.0899 -16.0895 -16.0834 -16.0808 -16.0777 -16.0707 -16.0490
   -15.9393 -15.9376 -15.5475 -15.2358 -15.2302 -15.2192 -15.2164 -15.2111
   -15.2107 -15.2072 -15.1922 -15.1884 -15.0802 -15.0676 -14.8091 -14.7764
   -14.4644 -13.9815 -13.9734 -13.9728 -13.9493 -13.9477 -13.9381 -13.9362
   -13.9307 -13.9131 -13.8472 -13.8135 -13.5583 -13.4638 -13.4507 -13.4484
   -13.4409 -13.4353 -13.4312 -13.4264 -13.4219 -13.4140 -13.2185 -13.1910
   -12.9188 -12.5175 -12.5035 -12.4653 -12.4642 -12.4551 -12.4509 -12.4499
   -12.4472 -12.4462 -12.4441 -12.4381 -12.4254 -12.4233 -12.4210 -12.4090
   -12.1680 -12.1553 -11.8759 -11.7165 -11.6249 -11.6227 -11.6123 -11.5674
   -11.5535 -11.5401 -11.5391 -11.5347 -11.5198 -11.5142 -11.4542 -11.4224
   -11.3513 -11.3345 -11.3273 -11.3186 -11.3125 -11.3110 -11.3074 -11.2764
   -11.2641 -11.1795 -11.1389 -11.1236 -11.0183 -11.0007 -10.9824 -10.9088
   -10.8677 -10.8655 -10.8582 -10.8568 -10.8527 -10.8269 -10.7524 -10.6678
   -10.6548 -10.6282 -10.6259 -10.5826 -10.5700 -10.5385 -10.5294 -10.5223
   -10.5133 -10.5020 -10.4907 -10.4577 -10.4492 -10.4489 -10.4361 -10.4334
   -10.4288 -10.4149 -10.4071 -10.3815 -10.3421 -10.2311 -10.2243 -10.2120
   -10.1110 -10.0929 -10.0705 -10.0481 -10.0362 -10.0170 -10.0058  -9.9948
    -9.9765  -9.5384  -9.5306  -9.5282  -9.5222  -9.5221  -9.5195  -9.5187
    -9.5145  -9.5028  -9.5014  -9.4651  -9.4647  -9.4507  -9.2662  -9.1282
    -9.0904  -9.0791  -9.0746  -9.0599  -9.0557  -9.0554  -9.0462  -9.0381
    -8.9918  -8.9084  -8.8925  -8.8879  -8.8698  -8.8682  -8.8204  -8.6985
    -8.6056  -8.6054  -8.4546  -8.4441  -8.4438  -8.1027  -8.0911  -7.9589
    -7.9449  -7.9440  -7.9363  -7.9358  -7.9212  -7.9140  -7.9121  -7.8991
    -7.8722  -7.8704  -7.7142  -7.7050  -7.7030  -7.6984  -7.6947  -7.6912
    -7.6883  -7.6863  -7.6654  -7.6641  -7.6566  -7.4004  -7.3994  -7.3596
    -7.0699  -7.0629  -7.0527  -7.0345  -7.0135  -6.8074  -6.3679  -6.3673
    -6.3577  -6.3429  -6.3375  -6.2548  -6.0928  -6.0867  -6.0783  -6.0741
    -6.0674  -6.0669  -6.0568  -6.0502  -6.0383  -6.0326  -6.0226  -5.0293
    -4.2759  -4.2442  -4.2291  -4.2196  -3.9681  -3.1256  -2.6730  -2.6633
    -2.6551  -2.6526  -2.6424  -2.6387  -2.5885  -2.5865  -2.5687  -2.5560
    -2.5543  -2.5523  -2.5458  -2.5335  -2.5235  -2.4386  -2.4371  -2.2110
    -2.0600  -2.0492  -2.0332  -1.9965  -1.9682  -1.5674  -0.9832  -0.9739

     the Fermi energy is    -4.2237 ev

!    total energy              =   -1939.06430778 Ry
     estimated scf accuracy    <          2.1E-11 Ry
     smearing contrib. (-TS)   =      -0.01243744 Ry
     internal energy E=F+TS    =   -1939.05187034 Ry

     The total energy is F=E-TS. E is the sum of the following terms:
     one-electron contribution =  -21951.08950107 Ry
     hartree contribution      =   11035.66689618 Ry
     xc contribution           =    -689.85899311 Ry
     ewald contribution        =    9666.22972766 Ry

     convergence has been achieved in  16 iterations

     Forces acting on atoms (cartesian axes, Ry/au):

     atom    1 type  1   force =     0.00049142   -0.00000000    0.00000000
     atom    2 type  1   force =     0.00126918    0.00000003   -0.00000001
     atom    3 type  1   force =    -0.00006111   -0.00048970   -0.00000000
     atom    4 type  1   force =    -0.00039679   -0.00032353    0.00000000
     atom    5 type  1   force =    -0.00026758   -0.00044866   -0.00000004
     atom    6 type  1   force =    -0.00152664   -0.00112880    0.00000001
     atom    7 type  1   force =    -0.00093483   -0.00088450    0.00000001
     atom    8 type  1   force =    -0.00079742   -0.00080087    0.00000002
     atom    9 type  1   force =    -0.00034691   -0.00124877   -0.00000003
     atom   10 type  1   force =     0.00046127   -0.00043854    0.00000002
     atom   11 type  1   force =    -0.00008092   -0.00035572   -0.00000001
     atom   12 type  1   force =     0.00035903    0.00053048   -0.00000001
     atom   13 type  1   force =    -0.00044729    0.00073213    0.00000000
     atom   14 type  1   force =    -0.00081882   -0.00006513   -0.00000001
     atom   15 type  1   force =     0.00051766   -0.00024930   -0.00000002
     atom   16 type  1   force =    -0.00037219   -0.00080356   -0.00000000
     atom   17 type  1   force =     0.00090384   -0.00020874   -0.00000002
     atom   18 type  1   force =     0.00058953   -0.00004147   -0.00000000
     atom   19 type  1   force =    -0.00006115    0.00048999    0.00000000
     atom   20 type  1   force =    -0.00039668    0.00032307    0.00000002
     atom   21 type  1   force =    -0.00083125    0.00000024    0.00000000
     atom   22 type  1   force =    -0.00141585   -0.00000016    0.00000002
     atom   23 type  1   force =    -0.00105691   -0.00039178    0.00000000
     atom   24 type  1   force =    -0.00144485   -0.00069196   -0.00000001
     atom   25 type  1   force =    -0.00051531   -0.00020864   -0.00000004
     atom   26 type  1   force =    -0.00036576    0.00052654    0.00000001
     atom   27 type  1   force =    -0.00011244   -0.00091275    0.00000002
     atom   28 type  1   force =     0.00140042    0.00067189    0.00000000
     atom   29 type  1   force =     0.00046521   -0.00066658   -0.00000001
     atom   30 type  1   force =    -0.00068540   -0.00014202    0.00000000
     atom   31 type  1   force =     0.00056596   -0.00056198   -0.00000001
     atom   32 type  1   force =    -0.00196232   -0.00018587   -0.00000001
     atom   33 type  1   force =     0.00013050   -0.00071811    0.00000001
     atom   34 type  1   force =    -0.00040352    0.00023127    0.00000002
     atom   35 type  1   force =    -0.00016607   -0.00011599    0.00000000
     atom   36 type  1   force =     0.00059576   -0.00012162   -0.00000000
     atom   37 type  1   force =    -0.00026751    0.00044909   -0.00000003
     atom   38 type  1   force =    -0.00152685    0.00112841   -0.00000001
     atom   39 type  1   force =    -0.00105654    0.00039213   -0.00000000
     atom   40 type  1   force =    -0.00144529    0.00069215    0.00000002
     atom   41 type  1   force =    -0.00012430   -0.00000014    0.00000001
     atom   42 type  1   force =    -0.00088961    0.00000045   -0.00000004
     atom   43 type  1   force =    -0.00113859   -0.00074526   -0.00000001
     atom   44 type  1   force =     0.00071074    0.00031193   -0.00000001
     atom   45 type  1   force =    -0.00075798   -0.00112308   -0.00000002
     atom   46 type  1   force =    -0.00057796   -0.00049903    0.00000005
     atom   47 type  1   force =     0.00102940   -0.00084371   -0.00000001
     atom   48 type  1   force =    -0.00007693    0.00005058    0.00000001
     atom   49 type  1   force =     0.00110741   -0.00018283    0.00000003
     atom   50 type  1   force =    -0.00090785    0.00105109   -0.00000005
     atom   51 type  1   force =     0.00009345   -0.00027676   -0.00000001
     atom   52 type  1   force =     0.00018233    0.00063811   -0.00000000
     atom   53 type  1   force =    -0.00063612   -0.00045935   -0.00000002
     atom   54 type  1   force =    -0.00027768    0.00036573    0.00000003
     atom   55 type  1   force =    -0.00093431    0.00088465   -0.00000002
     atom   56 type  1   force =    -0.00079816    0.00080078   -0.00000001
     atom   57 type  1   force =    -0.00051448    0.00020853   -0.00000002
     atom   58 type  1   force =    -0.00036633   -0.00052634   -0.00000001
     atom   59 type  1   force =    -0.00113804    0.00074462    0.00000001
     atom   60 type  1   force =     0.00071033   -0.00031095   -0.00000002
     atom   61 type  1   force =    -0.00213980   -0.00000063    0.00000002
     atom   62 type  1   force =     0.00060649    0.00000020    0.00000002
     atom   63 type  1   force =    -0.00202151    0.00056325   -0.00000002
     atom   64 type  1   force =    -0.00066515    0.00096790   -0.00000000
     atom   65 type  1   force =     0.00068158    0.00156623   -0.00000001
     atom   66 type  1   force =     0.00090489    0.00047338    0.00000001
     atom   67 type  1   force =     0.00079035    0.00022971    0.00000005
     atom   68 type  1   force =     0.00110317    0.00081679    0.00000001
     atom   69 type  1   force =    -0.00040550   -0.00037436    0.00000001
     atom   70 type  1   force =     0.00062522   -0.00027759    0.00000002
     atom   71 type  1   force =     0.00000244   -0.00019562    0.00000004
     atom   72 type  1   force =    -0.00073747    0.00045302   -0.00000002
     atom   73 type  1   force =    -0.00034621    0.00124876   -0.00000000
     atom   74 type  1   force =     0.00046083    0.00043834    0.00000001
     atom   75 type  1   force =    -0.00011221    0.00091280   -0.00000000
     atom   76 type  1   force =     0.00140039   -0.00067223   -0.00000002
     atom   77 type  1   force =    -0.00075756    0.00112287    0.00000002
     atom   78 type  1   force =    -0.00057775    0.00049875   -0.00000001
     atom   79 type  1   force =    -0.00202180   -0.00056342   -0.00000008
     atom   80 type  1   force =    -0.00066475   -0.00096821    0.00000003
     atom   81 type  1   force =     0.00007478   -0.00000028    0.00000006
     atom   82 type  1   force =     0.00157400    0.00053188   -0.00000002
     atom   83 type  1   force =     0.00049548    0.00023483    0.00000003
     atom   84 type  1   force =    -0.00089885   -0.00005826    0.00000001
     atom   85 type  1   force =     0.00135750   -0.00064175   -0.00000004
     atom   86 type  1   force =    -0.00067028   -0.00086530   -0.00000003
     atom   87 type  1   force =     0.00040444   -0.00054941    0.00000001
     atom   88 type  1   force =    -0.00017069    0.00040680   -0.00000001
     atom   89 type  1   force =    -0.00013771    0.00034532    0.00000002
     atom   90 type  1   force =    -0.00008071    0.00035601   -0.00000000
     atom   91 type  1   force =     0.00035898   -0.00053097    0.00000005
     atom   92 type  1   force =     0.00046523    0.00066713    0.00000000
     atom   93 type  1   force =    -0.00068530    0.00014159    0.00000000
     atom   94 type  1   force =     0.00102913    0.00084402   -0.00000001
     atom   95 type  1   force =    -0.00007697   -0.00005082    0.00000001
     atom   96 type  1   force =     0.00068158   -0.00156589    0.00000003
     atom   97 type  1   force =     0.00090505   -0.00047382   -0.00000002
     atom   98 type  1   force =     0.00157360   -0.00053153    0.00000006
     atom   99 type  1   force =     0.00049565   -0.00023539   -0.00000001
     atom  100 type  1   force =    -0.00129275    0.00000043   -0.00000003
     atom  101 type  1   force =     0.00187971   -0.00000075    0.00000004
     atom  102 type  1   force =    -0.00101191   -0.00070939   -0.00000005
     atom  103 type  1   force =     0.00178805   -0.00066849    0.00000001
     atom  104 type  1   force =     0.00035529   -0.00026172    0.00000001
     atom  105 type  1   force =     0.00056453   -0.00009654   -0.00000000
     atom  106 type  1   force =    -0.00003297    0.00039104   -0.00000001
     atom  107 type  1   force =     0.00029637    0.00008574    0.00000000
     atom  108 type  1   force =    -0.00044726   -0.00073186    0.00000000
     atom  109 type  1   force =    -0.00081883    0.00006508   -0.00000002
     atom  110 type  1   force =     0.00056608    0.00056225   -0.00000004
     atom  111 type  1   force =    -0.00196249    0.00018564    0.00000002
     atom  112 type  1   force =     0.00110750    0.00018283    0.00000000
     atom  113 type  1   force =    -0.00090776   -0.00105062   -0.00000003
     atom  114 type  1   force =     0.00078953   -0.00022989    0.00000001
     atom  115 type  1   force =     0.00110387   -0.00081591   -0.00000002
     atom  116 type  1   force =    -0.00089964    0.00005796    0.00000005
     atom  117 type  1   force =     0.00135760    0.00064176    0.00000002
     atom  118 type  1   force =    -0.00101187    0.00071040   -0.00000004
     atom  119 type  1   force =     0.00178744    0.00066769    0.00000003
     atom  120 type  1   force =     0.00110490    0.00000060    0.00000004
     atom  121 type  1   force =     0.00156988   -0.00000009   -0.00000000
     atom  122 type  1   force =     0.00245160   -0.00020618    0.00000000
     atom  123 type  1   force =     0.00051290    0.00013233    0.00000002
     atom  124 type  1   force =    -0.00033929   -0.00116495   -0.00000001
     atom  125 type  1   force =    -0.00003026   -0.00036971    0.00000001
     atom  126 type  1   force =     0.00051766    0.00024930    0.00000000
     atom  127 type  1   force =    -0.00037217    0.00080340   -0.00000002
     atom  128 type  1   force =     0.00013065    0.00071841    0.00000003
     atom  129 type  1   force =    -0.00040362   -0.00023168   -0.00000001
     atom  130 type  1   force =     0.00009326    0.00027668   -0.00000001
     atom  131 type  1   force =     0.00018293   -0.00063754    0.00000001
     atom  132 type  1   force =    -0.00040602    0.00037330   -0.00000001
     atom  133 type  1   force =     0.00062551    0.00027872    0.00000001
     atom  134 type  1   force =    -0.00067035    0.00086440    0.00000001
     atom  135 type  1   force =     0.00040402    0.00055002   -0.00000001
     atom  136 type  1   force =     0.00035587    0.00026170   -0.00000001
     atom  137 type  1   force =     0.00056399    0.00009645    0.00000001
     atom  138 type  1   force =     0.00245192    0.00020634   -0.00000002
     atom  139 type  1   force =     0.00051278   -0.00013215    0.00000001
     atom  140 type  1   force =     0.00057906   -0.00000008   -0.00000001
     atom  141 type  1   force =     0.00092605    0.00000010    0.00000000
     atom  142 type  1   force =    -0.00035503   -0.00137194   -0.00000002
     atom  143 type  1   force =     0.00009388   -0.00009395    0.00000001
     atom  144 type  1   force =     0.00090373    0.00020878   -0.00000002
     atom  145 type  1   force =     0.00058951    0.00004138    0.00000001
     atom  146 type  1   force =    -0.00016595    0.00011658    0.00000002
     atom  147 type  1   force =     0.00059558    0.00012111   -0.00000002
     atom  148 type  1   force =    -0.00063626    0.00045961    0.00000001
     atom  149 type  1   force =    -0.00027743   -0.00036568   -0.00000001
     atom  150 type  1   force =     0.00000222    0.00019490   -0.00000003
     atom  151 type  1   force =    -0.00073717   -0.00045271   -0.00000002
     atom  152 type  1   force =    -0.00017059   -0.00040744    0.00000000
     atom  153 type  1   force =    -0.00013765   -0.00034523    0.00000001
     atom  154 type  1   force =    -0.00003302   -0.00039104    0.00000001
     atom  155 type  1   force =     0.00029658   -0.00008590    0.00000000
     atom  156 type  1   force =    -0.00033944    0.00116495    0.00000000
     atom  157 type  1   force =    -0.00003006    0.00036983   -0.00000002
     atom  158 type  1   force =    -0.00035507    0.00137179   -0.00000000
     atom  159 type  1   force =     0.00009380    0.00009409    0.00000001
     atom  160 type  1   force =     0.00064163    0.00000000    0.00000003
     atom  161 type  1   force =     0.00054754    0.00000006    0.00000002

     Total force =     0.013264     Total SCF correction =     0.000008
     Energy error            =      1.9E-04 Ry
     Gradient error          =      2.5E-03 Ry/Bohr

     number of scf cycles    =  16
     number of bfgs steps    =  15

     energy             old  =   -1939.0641132173 Ry
     energy             new  =   -1939.0643077786 Ry

     CASE: energy            _new < energy            _old

     new trust radius        =       0.0077810383 bohr
     new conv_thr            =            1.9E-11 Ry


ATOMIC_POSITIONS (crystal)
C                0.0368471282        0.0368471156       -0.0000000036
C                0.0738764500        0.0738764456       -0.0000000041
C                0.0366804378        0.1481138985       -0.0000000022
C                0.0737521244        0.1850830480       -0.0000000032
C                0.0366469581        0.2593055416        0.0000000006
C                0.0737092579        0.2963181382       -0.0000000019
C                0.0367653898        0.3703902769       -0.0000000008
C                0.0738018606        0.4074560463       -0.0000000022
C                0.0370598975        0.4815464755       -0.0000000031
C                0.0740985545        0.5184743619       -0.0000000059
C                0.0373283673        0.5925736014       -0.0000000033
C                0.0745961717        0.6293669611        0.0000000000
C                0.0376488781        0.7034102382       -0.0000000010
C                0.0749521783        0.7401619030        0.0000000055
C                0.0376624198        0.8143438666        0.0000000005
C                0.0748720254        0.8510285006       -0.0000000002
C                0.0373362495        0.9254541055       -0.0000000026
C                0.0741966337        0.9625427857       -0.0000000022
C                0.1481139089        0.0366804265       -0.0000000022
C                0.1850830516        0.0737521192       -0.0000000048
C                0.1479528136        0.1479528050       -0.0000000051
C                0.1850148460        0.1850148415       -0.0000000031
C                0.1479204041        0.2591453598       -0.0000000011
C                0.1848287294        0.2961564400        0.0000000034
C                0.1477571361        0.3702963468        0.0000000032
C                0.1847299509        0.4072596937       -0.0000000004
C                0.1481955775        0.4812844216       -0.0000000061
C                0.1855139826        0.5180798803       -0.0000000017
C                0.1488972757        0.5921270399        0.0000000020
C                0.1864045128        0.6286004815        0.0000000053
C                0.1493550084        0.7026449767        0.0000000050
C                0.1871776408        0.7387848572        0.0000000040
C                0.1494388797        0.8133279372        0.0000000020
C                0.1859475682        0.8508316901        0.0000000039
C                0.1484961624        0.9252212781        0.0000000020
C                0.1853080578        0.9623871305        0.0000000021
C                0.2593055455        0.0366469482       -0.0000000047
C                0.2963181335        0.0737092553       -0.0000000042
C                0.2591453602        0.1479204011       -0.0000000027
C                0.2961564361        0.1848287303       -0.0000000002
C                0.2590176207        0.2590176179        0.0000000051
C                0.2958845236        0.2958845279        0.0000000079
C                0.2587115331        0.3700447294        0.0000000019
C                0.2954238186        0.4068770444       -0.0000000018
C                0.2595800295        0.4807243398        0.0000000020
C                0.2972391512        0.5172705898        0.0000000049
C                0.2611184375        0.5908281514        0.0000000005
C                0.3003690745        0.6254770934       -0.0000000057
C                0.2620899904        0.7006965631        0.0000000010
C                0.2974696785        0.7391012563        0.0000000032
C                0.2601026850        0.8134824636        0.0000000079
C                0.2966749279        0.8510717116        0.0000000088
C                0.2595519156        0.9251471550        0.0000000045
C                0.2964313793        0.9625358022       -0.0000000028
C                0.3703902807        0.0367653833       -0.0000000027
C                0.4074560412        0.0738018579        0.0000000009
C                0.3702963476        0.1477571354        0.0000000042
C                0.4072596890        0.1847299503        0.0000000072
C                0.3700447305        0.2587115368        0.0000000052
C                0.4068770349        0.2954238220       -0.0000000030
C                0.3694347108        0.3694347253       -0.0000000045
C                0.4056382878        0.4056382953       -0.0000000004
C                0.3719051918        0.4790898581        0.0000000030
C                0.4125833857        0.5108048534       -0.0000000078
C                0.3767213351        0.5860090723       -0.0000000110
C                0.4088773395        0.6281616594       -0.0000000116
C                0.3716863997        0.7017454795       -0.0000000082
C                0.4081393117        0.7400261699       -0.0000000059
C                0.3709284855        0.8140135478        0.0000000037
C                0.4076446410        0.8514742528       -0.0000000011
C                0.3704921446        0.9256586272       -0.0000000039
C                0.4074761705        0.9627248311       -0.0000000041
C                0.4815464725        0.0370598934       -0.0000000024
C                0.5184743582        0.0740985533       -0.0000000002
C                0.4812844210        0.1481955770        0.0000000044
C                0.5180798714        0.1855139849       -0.0000000012
C                0.4807243349        0.2595800329       -0.0000000004
C                0.5172705823        0.2972391590       -0.0000000008
C                0.4790898450        0.3719052095       -0.0000000036
C                0.5108048404        0.4125833983       -0.0000000138
C                0.5221293272        0.5221293296        0.0000000169
C                0.4827870064        0.5929306257       -0.0000000051
C                0.5197308325        0.6304064374       -0.0000000035
C                0.4819944177        0.7041665462       -0.0000000060
C                0.5189034137        0.7411673263        0.0000000023
C                0.4816778943        0.8149991707       -0.0000000044
C                0.5187253714        0.8520886042       -0.0000000044
C                0.4816421244        0.9259793553       -0.0000000032
C                0.5186703665        0.9629773158       -0.0000000053
C                0.5925735976        0.0373283650       -0.0000000030
C                0.6293669580        0.0745961739       -0.0000000056
C                0.5921270403        0.1488972752       -0.0000000048
C                0.6286004743        0.1864045193       -0.0000000033
C                0.5908281429        0.2611184477       -0.0000000006
C                0.6254770913        0.3003690783        0.0000000033
C                0.5860090667        0.3767213511        0.0000000022
C                0.6281616635        0.4088773377        0.0000000113
C                0.5929306189        0.4827870255        0.0000000110
C                0.6304064323        0.5197308395        0.0000000055
C                0.5933596203        0.5933596252        0.0000000044
C                0.6303600627        0.6303600701        0.0000000084
C                0.5930780863        0.7041907386        0.0000000039
C                0.6299891231        0.7411343142       -0.0000000015
C                0.5927757277        0.8152092720       -0.0000000062
C                0.6297872076        0.8521275305       -0.0000000024
C                0.5927096675        0.9261538533       -0.0000000032
C                0.6296963389        0.9632574393       -0.0000000027
C                0.7034102370        0.0376488756       -0.0000000043
C                0.7401619037        0.0749521772       -0.0000000021
C                0.7026449736        0.1493550116       -0.0000000030
C                0.7387848619        0.1871776405       -0.0000000018
C                0.7006965617        0.2620899984        0.0000000044
C                0.7391012609        0.2974696800        0.0000000023
C                0.7017454786        0.3716864129        0.0000000041
C                0.7400261807        0.4081393101        0.0000000009
C                0.7041665459        0.4819944295        0.0000000037
C                0.7411673286        0.5189034219        0.0000000043
C                0.7041907368        0.5930780934        0.0000000044
C                0.7411343156        0.6299891244        0.0000000017
C                0.7040095068        0.7040095119        0.0000000012
C                0.7410343531        0.7410343524        0.0000000060
C                0.7039404541        0.8150593983        0.0000000044
C                0.7408911150        0.8520829214        0.0000000033
C                0.7037695228        0.9262903956       -0.0000000019
C                0.7406479533        0.9633689071        0.0000000010
C                0.8143438686        0.0376624131        0.0000000004
C                0.8510285046        0.0748720218       -0.0000000011
C                0.8133279374        0.1494388792       -0.0000000039
C                0.8508316981        0.1859475641       -0.0000000015
C                0.8134824711        0.2601026804       -0.0000000023
C                0.8510717222        0.2966749261       -0.0000000042
C                0.8140135489        0.3709284923       -0.0000000020
C                0.8514742573        0.4076446436        0.0000000036
C                0.8149991750        0.4816779001        0.0000000052
C                0.8520886032        0.5187253772        0.0000000063
C                0.8152092742        0.5927757339        0.0000000032
C                0.8521275314        0.6297872068        0.0000000033
C                0.8150594017        0.7039404563        0.0000000079
C                0.8520829247        0.7408911129        0.0000000073
C                0.8149969190        0.8149969176        0.0000000060
C                0.8520308565        0.8520308541        0.0000000030
C                0.8148187555        0.9262230498        0.0000000030
C                0.8517203937        0.9632822863       -0.0000000018
C                0.9254541114        0.0373362441       -0.0000000027
C                0.9625427988        0.0741966224       -0.0000000026
C                0.9252212866        0.1484961551       -0.0000000002
C                0.9623871419        0.1853080511       -0.0000000016
C                0.9251471650        0.2595519107       -0.0000000021
C                0.9625358068        0.2964313787        0.0000000022
C                0.9256586365        0.3704921442        0.0000000060
C                0.9627248341        0.4074761767        0.0000000040
C                0.9259793652        0.4816421243        0.0000000051
C                0.9629773177        0.5186703693       -0.0000000006
C                0.9261538583        0.5927096696       -0.0000000032
C                0.9632574439        0.6296963400       -0.0000000009
C                0.9262903984        0.7037695211        0.0000000031
C                0.9633689136        0.7406479515        0.0000000022
C                0.9262230569        0.8148187534       -0.0000000017
C                0.9632822889        0.8517203884       -0.0000000051
C                0.9259536689        0.9259536623       -0.0000000084
C                0.9629486348        0.9629486275       -0.0000000051



     Writing config-only to output data dir /home/gregb26/links/scratch/qe_tmp/vacancy_relaxed/nspin1/vac_9x9_relax_nspin1.save/ :
     XML data file
     NEW-OLD atomic charge density approx. for the potential

     negative rho (up, down):  1.563E-06 0.000E+00

     total cpu time spent up to now is     2250.8 secs

     per-process dynamical memory:   351.9 Mb

     Self-consistent Calculation

     iteration #  1     ecut=   100.00 Ry     beta= 0.30
     Davidson diagonalization with overlap
     ethr =  1.00E-06,  avg # of iterations =  4.0

     negative rho (up, down):  1.023E-06 0.000E+00

     total cpu time spent up to now is     2261.9 secs

     total energy              =   -1939.06386429 Ry
     estimated scf accuracy    <       0.00121910 Ry

     iteration #  2     ecut=   100.00 Ry     beta= 0.30
     Davidson diagonalization with overlap
     ethr =  1.89E-07,  avg # of iterations =  5.0

     negative rho (up, down):  9.958E-07 0.000E+00

     total cpu time spent up to now is     2270.2 secs

     total energy              =   -1939.06148224 Ry
     estimated scf accuracy    <       0.18884966 Ry

     iteration #  3     ecut=   100.00 Ry     beta= 0.30
     Davidson diagonalization with overlap
     ethr =  1.89E-07,  avg # of iterations =  5.0

     negative rho (up, down):  6.523E-07 0.000E+00

     total cpu time spent up to now is     2277.6 secs

     total energy              =   -1939.06442028 Ry
     estimated scf accuracy    <       0.00021159 Ry

     iteration #  4     ecut=   100.00 Ry     beta= 0.30
     Davidson diagonalization with overlap
     ethr =  3.29E-08,  avg # of iterations =  2.0

     negative rho (up, down):  1.791E-07 0.000E+00

     total cpu time spent up to now is     2284.3 secs

     total energy              =   -1939.06442793 Ry
     estimated scf accuracy    <       0.00008164 Ry

     iteration #  5     ecut=   100.00 Ry     beta= 0.30
     Davidson diagonalization with overlap
     ethr =  1.27E-08,  avg # of iterations =  2.0

     negative rho (up, down):  1.177E-07 0.000E+00

     total cpu time spent up to now is     2291.5 secs

     total energy              =   -1939.06443079 Ry
     estimated scf accuracy    <       0.00000514 Ry

     iteration #  6     ecut=   100.00 Ry     beta= 0.30
     Davidson diagonalization with overlap
     ethr =  7.98E-10,  avg # of iterations =  5.0

     negative rho (up, down):  6.804E-08 0.000E+00

     total cpu time spent up to now is     2301.4 secs

     total energy              =   -1939.06443231 Ry
     estimated scf accuracy    <       0.00000287 Ry

     iteration #  7     ecut=   100.00 Ry     beta= 0.30
     Davidson diagonalization with overlap
     ethr =  4.46E-10,  avg # of iterations =  1.0

     negative rho (up, down):  1.610E-08 0.000E+00

     total cpu time spent up to now is     2307.6 secs

     total energy              =   -1939.06443234 Ry
     estimated scf accuracy    <       0.00000191 Ry

     iteration #  8     ecut=   100.00 Ry     beta= 0.30
     Davidson diagonalization with overlap
     ethr =  2.97E-10,  avg # of iterations =  2.0

     total cpu time spent up to now is     2314.8 secs

     total energy              =   -1939.06443233 Ry
     estimated scf accuracy    <       0.00000133 Ry

     iteration #  9     ecut=   100.00 Ry     beta= 0.30
     Davidson diagonalization with overlap
     ethr =  2.06E-10,  avg # of iterations =  1.0

     total cpu time spent up to now is     2321.2 secs

     total energy              =   -1939.06443236 Ry
     estimated scf accuracy    <       0.00000012 Ry

     iteration # 10     ecut=   100.00 Ry     beta= 0.30
     Davidson diagonalization with overlap
     ethr =  1.88E-11,  avg # of iterations =  5.0

     total cpu time spent up to now is     2328.6 secs

     total energy              =   -1939.06443237 Ry
     estimated scf accuracy    <       0.00000004 Ry

     iteration # 11     ecut=   100.00 Ry     beta= 0.30
     Davidson diagonalization with overlap
     ethr =  6.13E-12,  avg # of iterations =  2.0

     total cpu time spent up to now is     2336.0 secs

     total energy              =   -1939.06443237 Ry
     estimated scf accuracy    <          7.9E-10 Ry

     iteration # 12     ecut=   100.00 Ry     beta= 0.30
     Davidson diagonalization with overlap
     ethr =  1.23E-13,  avg # of iterations =  6.0

     total cpu time spent up to now is     2350.4 secs

     total energy              =   -1939.06443237 Ry
     estimated scf accuracy    <          2.8E-10 Ry

     iteration # 13     ecut=   100.00 Ry     beta= 0.30
     Davidson diagonalization with overlap
     ethr =  1.00E-13,  avg # of iterations =  1.0

     total cpu time spent up to now is     2357.0 secs

     total energy              =   -1939.06443237 Ry
     estimated scf accuracy    <          7.9E-11 Ry

     iteration # 14     ecut=   100.00 Ry     beta= 0.30
     Davidson diagonalization with overlap
     ethr =  1.00E-13,  avg # of iterations =  1.0

     total cpu time spent up to now is     2363.7 secs

     total energy              =   -1939.06443237 Ry
     estimated scf accuracy    <          3.3E-11 Ry

     iteration # 15     ecut=   100.00 Ry     beta= 0.30
     Davidson diagonalization with overlap
     ethr =  1.00E-13,  avg # of iterations =  1.0

     total cpu time spent up to now is     2369.9 secs

     End of self-consistent calculation

          k = 0.0000 0.0000 0.0000 (385710 PWs)   bands (ev):

   -23.7917 -23.5482 -23.5238 -23.5103 -23.5008 -23.4781 -23.4081 -22.9583
   -22.9371 -22.9370 -22.9303 -22.9008 -22.8393 -22.6652 -22.6555 -22.6418
   -22.6306 -22.6124 -22.4717 -21.8125 -21.8046 -21.7980 -21.7971 -21.7947
   -21.7876 -21.7871 -21.7784 -21.7702 -21.7702 -21.7146 -21.5320 -21.2429
   -21.2244 -21.2193 -21.2038 -21.1814 -21.0090 -20.4007 -20.3973 -20.3861
   -20.3774 -20.3565 -20.3073 -20.1349 -20.1293 -20.1254 -20.1219 -20.1181
   -20.1124 -20.1069 -20.0993 -20.0865 -20.0836 -20.0306 -19.7089 -19.3388
   -19.3297 -19.3146 -19.2872 -19.2852 -19.0993 -18.5684 -18.5612 -18.5595
   -18.5571 -18.5463 -18.5459 -18.5252 -18.5244 -18.5101 -18.4903 -18.4864
   -18.4361 -18.3843 -18.3813 -18.3689 -18.3529 -18.3316 -17.7319 -17.3486
   -17.3481 -17.3455 -17.3022 -17.2643 -17.1835 -16.9021 -16.8587 -16.8547
   -16.7792 -16.6730 -16.6729 -16.6637 -16.6016 -16.5863 -16.4298 -16.0990
   -16.0980 -16.0906 -16.0900 -16.0842 -16.0816 -16.0767 -16.0702 -16.0483
   -15.9387 -15.9365 -15.5489 -15.2362 -15.2301 -15.2191 -15.2155 -15.2108
   -15.2095 -15.2069 -15.1907 -15.1870 -15.0808 -15.0682 -14.8094 -14.7756
   -14.4655 -13.9807 -13.9730 -13.9724 -13.9487 -13.9475 -13.9376 -13.9363
   -13.9306 -13.9125 -13.8470 -13.8123 -13.5580 -13.4638 -13.4512 -13.4477
   -13.4415 -13.4361 -13.4331 -13.4256 -13.4221 -13.4128 -13.2184 -13.1901
   -12.9200 -12.5163 -12.5033 -12.4647 -12.4643 -12.4548 -12.4513 -12.4509
   -12.4469 -12.4468 -12.4439 -12.4382 -12.4239 -12.4226 -12.4199 -12.4066
   -12.1671 -12.1543 -11.8763 -11.7164 -11.6253 -11.6223 -11.6120 -11.5671
   -11.5533 -11.5429 -11.5395 -11.5346 -11.5200 -11.5125 -11.4549 -11.4221
   -11.3520 -11.3347 -11.3265 -11.3192 -11.3134 -11.3113 -11.3066 -11.2752
   -11.2633 -11.1799 -11.1372 -11.1215 -11.0190 -11.0009 -10.9815 -10.9080
   -10.8687 -10.8641 -10.8573 -10.8562 -10.8520 -10.8265 -10.7544 -10.6674
   -10.6541 -10.6289 -10.6264 -10.5812 -10.5701 -10.5373 -10.5296 -10.5227
   -10.5138 -10.5020 -10.4892 -10.4579 -10.4486 -10.4484 -10.4364 -10.4333
   -10.4282 -10.4141 -10.4055 -10.3815 -10.3403 -10.2329 -10.2255 -10.2120
   -10.1117 -10.0922 -10.0692 -10.0477 -10.0356 -10.0155 -10.0054  -9.9944
    -9.9752  -9.5396  -9.5302  -9.5277  -9.5222  -9.5218  -9.5198  -9.5189
    -9.5141  -9.5028  -9.5025  -9.4640  -9.4623  -9.4500  -9.2661  -9.1294
    -9.0906  -9.0789  -9.0734  -9.0600  -9.0560  -9.0555  -9.0441  -9.0377
    -8.9901  -8.9089  -8.8929  -8.8877  -8.8692  -8.8673  -8.8233  -8.6970
    -8.6051  -8.6051  -8.4559  -8.4444  -8.4431  -8.1029  -8.0920  -7.9611
    -7.9448  -7.9444  -7.9362  -7.9358  -7.9225  -7.9136  -7.9119  -7.8996
    -7.8725  -7.8700  -7.7145  -7.7049  -7.7024  -7.6982  -7.6943  -7.6911
    -7.6896  -7.6864  -7.6643  -7.6641  -7.6542  -7.4009  -7.3997  -7.3600
    -7.0704  -7.0632  -7.0529  -7.0335  -7.0125  -6.8068  -6.3675  -6.3664
    -6.3580  -6.3414  -6.3380  -6.2554  -6.0932  -6.0869  -6.0789  -6.0749
    -6.0679  -6.0670  -6.0565  -6.0502  -6.0361  -6.0316  -6.0211  -5.0289
    -4.2765  -4.2442  -4.2281  -4.2205  -3.9686  -3.0862  -2.6740  -2.6635
    -2.6554  -2.6524  -2.6420  -2.6389  -2.5888  -2.5864  -2.5686  -2.5568
    -2.5549  -2.5525  -2.5456  -2.5332  -2.5229  -2.4382  -2.4365  -2.2121
    -2.0603  -2.0493  -2.0333  -1.9965  -1.9675  -1.5681  -0.9829  -0.9753

     the Fermi energy is    -4.2238 ev

!    total energy              =   -1939.06443237 Ry
     estimated scf accuracy    <          1.6E-11 Ry
     smearing contrib. (-TS)   =      -0.01242479 Ry
     internal energy E=F+TS    =   -1939.05200758 Ry

     The total energy is F=E-TS. E is the sum of the following terms:
     one-electron contribution =  -21951.06111740 Ry
     hartree contribution      =   11035.65565558 Ry
     xc contribution           =    -689.85628839 Ry
     ewald contribution        =    9666.20974263 Ry

     convergence has been achieved in  15 iterations

     Forces acting on atoms (cartesian axes, Ry/au):

     atom    1 type  1   force =     0.00035736    0.00000006    0.00000000
     atom    2 type  1   force =     0.00050184   -0.00000016    0.00000002
     atom    3 type  1   force =    -0.00058396    0.00033263   -0.00000001
     atom    4 type  1   force =    -0.00009753   -0.00044579   -0.00000000
     atom    5 type  1   force =    -0.00088625    0.00037698   -0.00000001
     atom    6 type  1   force =    -0.00081677   -0.00060155    0.00000002
     atom    7 type  1   force =    -0.00087384   -0.00058642    0.00000001
     atom    8 type  1   force =    -0.00031013   -0.00040013    0.00000002
     atom    9 type  1   force =    -0.00048020   -0.00081394   -0.00000001
     atom   10 type  1   force =     0.00042012   -0.00018737    0.00000000
     atom   11 type  1   force =     0.00013284   -0.00035509    0.00000000
     atom   12 type  1   force =     0.00050822    0.00020942   -0.00000001
     atom   13 type  1   force =    -0.00031362    0.00010456    0.00000004
     atom   14 type  1   force =    -0.00014542   -0.00034527   -0.00000003
     atom   15 type  1   force =    -0.00017775   -0.00027272   -0.00000000
     atom   16 type  1   force =    -0.00000213   -0.00068902    0.00000000
     atom   17 type  1   force =     0.00041486   -0.00003439   -0.00000001
     atom   18 type  1   force =     0.00027598   -0.00025571    0.00000001
     atom   19 type  1   force =    -0.00058402   -0.00033242   -0.00000001
     atom   20 type  1   force =    -0.00009760    0.00044565    0.00000000
     atom   21 type  1   force =    -0.00090464    0.00000010   -0.00000000
     atom   22 type  1   force =    -0.00114665    0.00000007   -0.00000001
     atom   23 type  1   force =    -0.00039357   -0.00016764   -0.00000000
     atom   24 type  1   force =    -0.00081174   -0.00012293    0.00000000
     atom   25 type  1   force =    -0.00040099   -0.00069166   -0.00000002
     atom   26 type  1   force =    -0.00024980    0.00020980    0.00000000
     atom   27 type  1   force =     0.00032272   -0.00061540    0.00000001
     atom   28 type  1   force =    -0.00020004    0.00055867    0.00000001
     atom   29 type  1   force =     0.00027109   -0.00062626   -0.00000001
     atom   30 type  1   force =    -0.00010761    0.00045101   -0.00000002
     atom   31 type  1   force =    -0.00040135   -0.00080908    0.00000000
     atom   32 type  1   force =    -0.00060551    0.00032622    0.00000000
     atom   33 type  1   force =    -0.00008782   -0.00033305    0.00000001
     atom   34 type  1   force =    -0.00054252   -0.00018395    0.00000001
     atom   35 type  1   force =     0.00016852   -0.00044350   -0.00000000
     atom   36 type  1   force =    -0.00008114    0.00012631   -0.00000000
     atom   37 type  1   force =    -0.00088614   -0.00037680   -0.00000001
     atom   38 type  1   force =    -0.00081661    0.00060129    0.00000000
     atom   39 type  1   force =    -0.00039357    0.00016762   -0.00000001
     atom   40 type  1   force =    -0.00081166    0.00012273    0.00000002
     atom   41 type  1   force =    -0.00060032    0.00000011   -0.00000000
     atom   42 type  1   force =    -0.00063738   -0.00000010   -0.00000002
     atom   43 type  1   force =    -0.00033302   -0.00050887   -0.00000000
     atom   44 type  1   force =    -0.00069976   -0.00003039    0.00000001
     atom   45 type  1   force =    -0.00036334   -0.00039767   -0.00000001
     atom   46 type  1   force =    -0.00081312   -0.00009398   -0.00000001
     atom   47 type  1   force =     0.00078830   -0.00072879    0.00000001
     atom   48 type  1   force =    -0.00011494    0.00033381    0.00000002
     atom   49 type  1   force =     0.00028680   -0.00006658   -0.00000001
     atom   50 type  1   force =     0.00003395    0.00055157   -0.00000002
     atom   51 type  1   force =     0.00020297    0.00003766   -0.00000001
     atom   52 type  1   force =    -0.00000757   -0.00015808   -0.00000002
     atom   53 type  1   force =    -0.00036533   -0.00032817    0.00000000
     atom   54 type  1   force =     0.00001123    0.00005112    0.00000001
     atom   55 type  1   force =    -0.00087407    0.00058673   -0.00000000
     atom   56 type  1   force =    -0.00030993    0.00040004   -0.00000001
     atom   57 type  1   force =    -0.00040122    0.00069177   -0.00000000
     atom   58 type  1   force =    -0.00024955   -0.00020986   -0.00000000
     atom   59 type  1   force =    -0.00033339    0.00050895   -0.00000001
     atom   60 type  1   force =    -0.00069937    0.00003045    0.00000002
     atom   61 type  1   force =    -0.00089976   -0.00000025    0.00000002
     atom   62 type  1   force =    -0.00057522    0.00000016   -0.00000001
     atom   63 type  1   force =    -0.00036958    0.00065035   -0.00000001
     atom   64 type  1   force =    -0.00074060    0.00107547    0.00000001
     atom   65 type  1   force =     0.00067891    0.00140348    0.00000000
     atom   66 type  1   force =     0.00014808    0.00029809    0.00000000
     atom   67 type  1   force =     0.00039504    0.00020155    0.00000002
     atom   68 type  1   force =     0.00065624    0.00020499    0.00000002
     atom   69 type  1   force =     0.00006720    0.00070320   -0.00000002
     atom   70 type  1   force =     0.00021964   -0.00070018   -0.00000001
     atom   71 type  1   force =    -0.00072508    0.00000051    0.00000001
     atom   72 type  1   force =    -0.00017418    0.00005270    0.00000000
     atom   73 type  1   force =    -0.00048013    0.00081402    0.00000001
     atom   74 type  1   force =     0.00042010    0.00018732    0.00000001
     atom   75 type  1   force =     0.00032252    0.00061552   -0.00000002
     atom   76 type  1   force =    -0.00019977   -0.00055887    0.00000001
     atom   77 type  1   force =    -0.00036336    0.00039779   -0.00000001
     atom   78 type  1   force =    -0.00081307    0.00009410   -0.00000001
     atom   79 type  1   force =    -0.00036977   -0.00065069   -0.00000000
     atom   80 type  1   force =    -0.00074031   -0.00107554    0.00000004
     atom   81 type  1   force =    -0.00007112    0.00000008    0.00000001
     atom   82 type  1   force =     0.00113454    0.00019321    0.00000000
     atom   83 type  1   force =     0.00041153    0.00033574   -0.00000000
     atom   84 type  1   force =     0.00001273   -0.00000622    0.00000003
     atom   85 type  1   force =     0.00068976   -0.00047682   -0.00000004
     atom   86 type  1   force =    -0.00000456   -0.00015178    0.00000003
     atom   87 type  1   force =     0.00017790   -0.00060133   -0.00000000
     atom   88 type  1   force =    -0.00025370    0.00036483   -0.00000002
     atom   89 type  1   force =     0.00006205    0.00048210    0.00000001
     atom   90 type  1   force =     0.00013292    0.00035505   -0.00000000
     atom   91 type  1   force =     0.00050811   -0.00020956    0.00000001
     atom   92 type  1   force =     0.00027102    0.00062652    0.00000001
     atom   93 type  1   force =    -0.00010756   -0.00045112    0.00000000
     atom   94 type  1   force =     0.00078827    0.00072867    0.00000000
     atom   95 type  1   force =    -0.00011479   -0.00033359   -0.00000001
     atom   96 type  1   force =     0.00067857   -0.00140370   -0.00000002
     atom   97 type  1   force =     0.00014844   -0.00029747   -0.00000004
     atom   98 type  1   force =     0.00113411   -0.00019376    0.00000001
     atom   99 type  1   force =     0.00041180   -0.00033585   -0.00000000
     atom  100 type  1   force =     0.00015149    0.00000006    0.00000000
     atom  101 type  1   force =     0.00071585   -0.00000010   -0.00000002
     atom  102 type  1   force =     0.00021747   -0.00030983    0.00000000
     atom  103 type  1   force =     0.00046426   -0.00057037    0.00000000
     atom  104 type  1   force =     0.00038903   -0.00019880    0.00000003
     atom  105 type  1   force =     0.00026708   -0.00033388   -0.00000001
     atom  106 type  1   force =    -0.00020877    0.00043701   -0.00000001
     atom  107 type  1   force =     0.00091831    0.00032833   -0.00000001
     atom  108 type  1   force =    -0.00031356   -0.00010457    0.00000002
     atom  109 type  1   force =    -0.00014551    0.00034534   -0.00000000
     atom  110 type  1   force =    -0.00040130    0.00080902    0.00000000
     atom  111 type  1   force =    -0.00060561   -0.00032599    0.00000000
     atom  112 type  1   force =     0.00028672    0.00006640   -0.00000001
     atom  113 type  1   force =     0.00003403   -0.00055138   -0.00000001
     atom  114 type  1   force =     0.00039480   -0.00020204    0.00000000
     atom  115 type  1   force =     0.00065634   -0.00020437    0.00000001
     atom  116 type  1   force =     0.00001253    0.00000596    0.00000000
     atom  117 type  1   force =     0.00068962    0.00047684    0.00000000
     atom  118 type  1   force =     0.00021742    0.00030985    0.00000001
     atom  119 type  1   force =     0.00046433    0.00057055    0.00000000
     atom  120 type  1   force =     0.00100517   -0.00000012    0.00000001
     atom  121 type  1   force =     0.00065882    0.00000001   -0.00000001
     atom  122 type  1   force =     0.00093941    0.00026522   -0.00000001
     atom  123 type  1   force =     0.00085408    0.00000305    0.00000000
     atom  124 type  1   force =    -0.00039035   -0.00016729    0.00000002
     atom  125 type  1   force =     0.00047491    0.00021689   -0.00000002
     atom  126 type  1   force =    -0.00017752    0.00027281   -0.00000001
     atom  127 type  1   force =    -0.00000220    0.00068905   -0.00000001
     atom  128 type  1   force =    -0.00008773    0.00033288    0.00000002
     atom  129 type  1   force =    -0.00054262    0.00018397   -0.00000001
     atom  130 type  1   force =     0.00020314   -0.00003758    0.00000000
     atom  131 type  1   force =    -0.00000771    0.00015821    0.00000001
     atom  132 type  1   force =     0.00006719   -0.00070361    0.00000001
     atom  133 type  1   force =     0.00021975    0.00070019   -0.00000001
     atom  134 type  1   force =    -0.00000468    0.00015175    0.00000000
     atom  135 type  1   force =     0.00017812    0.00060108   -0.00000001
     atom  136 type  1   force =     0.00038877    0.00019876    0.00000001
     atom  137 type  1   force =     0.00026742    0.00033389   -0.00000001
     atom  138 type  1   force =     0.00093919   -0.00026524   -0.00000002
     atom  139 type  1   force =     0.00085415   -0.00000301   -0.00000001
     atom  140 type  1   force =     0.00042268   -0.00000002   -0.00000000
     atom  141 type  1   force =     0.00066488   -0.00000005   -0.00000001
     atom  142 type  1   force =     0.00026740   -0.00061768   -0.00000001
     atom  143 type  1   force =     0.00038441    0.00059923    0.00000001
     atom  144 type  1   force =     0.00041484    0.00003437    0.00000000
     atom  145 type  1   force =     0.00027594    0.00025587    0.00000001
     atom  146 type  1   force =     0.00016860    0.00044345   -0.00000002
     atom  147 type  1   force =    -0.00008126   -0.00012626   -0.00000000
     atom  148 type  1   force =    -0.00036534    0.00032824    0.00000000
     atom  149 type  1   force =     0.00001137   -0.00005128    0.00000000
     atom  150 type  1   force =    -0.00072520   -0.00000033   -0.00000002
     atom  151 type  1   force =    -0.00017427   -0.00005299    0.00000000
     atom  152 type  1   force =    -0.00025389   -0.00036446   -0.00000001
     atom  153 type  1   force =     0.00006219   -0.00048220   -0.00000001
     atom  154 type  1   force =    -0.00020892   -0.00043694    0.00000003
     atom  155 type  1   force =     0.00091824   -0.00032827   -0.00000000
     atom  156 type  1   force =    -0.00039021    0.00016730    0.00000000
     atom  157 type  1   force =     0.00047479   -0.00021678   -0.00000002
     atom  158 type  1   force =     0.00026717    0.00061775    0.00000001
     atom  159 type  1   force =     0.00038465   -0.00059930    0.00000000
     atom  160 type  1   force =     0.00048745    0.00000005    0.00000004
     atom  161 type  1   force =     0.00080177    0.00000005   -0.00000000

     Total force =     0.008379     Total SCF correction =     0.000008
     Energy error            =      1.2E-04 Ry
     Gradient error          =      1.4E-03 Ry/Bohr

     number of scf cycles    =  17
     number of bfgs steps    =  16

     energy             old  =   -1939.0643077786 Ry
     energy             new  =   -1939.0644323719 Ry

     CASE: energy            _new < energy            _old

     new trust radius        =       0.0047506271 bohr
     new conv_thr            =            1.2E-11 Ry


ATOMIC_POSITIONS (crystal)
C                0.0368715634        0.0368715552       -0.0000000029
C                0.0738955378        0.0738955301       -0.0000000037
C                0.0366749009        0.1481095046       -0.0000000022
C                0.0737618010        0.1850453445       -0.0000000033
C                0.0366298961        0.2592596021       -0.0000000014
C                0.0737176722        0.2962280967       -0.0000000015
C                0.0367806818        0.3702926910        0.0000000011
C                0.0738134082        0.4073799766       -0.0000000009
C                0.0371012795        0.4814710978       -0.0000000044
C                0.0741305610        0.5184425596       -0.0000000052
C                0.0373344806        0.5925593981       -0.0000000036
C                0.0745721186        0.6293917717       -0.0000000010
C                0.0375940606        0.7034303856        0.0000000012
C                0.0749314771        0.7401587423        0.0000000037
C                0.0376603461        0.8143425266       -0.0000000003
C                0.0749074646        0.8510063115       -0.0000000012
C                0.0373649737        0.9254671901       -0.0000000036
C                0.0742148419        0.9625643600       -0.0000000020
C                0.1481095093        0.0366748948       -0.0000000025
C                0.1850453487        0.0737617943       -0.0000000044
C                0.1479158447        0.1479158406       -0.0000000049
C                0.1849630482        0.1849630493       -0.0000000033
C                0.1479072693        0.2590746882       -0.0000000006
C                0.1848029478        0.2960893972        0.0000000031
C                0.1477596079        0.3702245586        0.0000000002
C                0.1847072895        0.4072325661       -0.0000000004
C                0.1482368884        0.4812608917       -0.0000000043
C                0.1855179678        0.5180880381       -0.0000000012
C                0.1489109098        0.5921244884        0.0000000018
C                0.1864129258        0.6285892213        0.0000000050
C                0.1493561750        0.7026011558        0.0000000041
C                0.1871701582        0.7387490714        0.0000000049
C                0.1494631651        0.8132890018        0.0000000032
C                0.1859367621        0.8508262221        0.0000000051
C                0.1485103094        0.9252289871        0.0000000023
C                0.1853017251        0.9624008473        0.0000000017
C                0.2592596043        0.0366298924       -0.0000000057
C                0.2962281018        0.0737176670       -0.0000000048
C                0.2590746897        0.1479072658       -0.0000000023
C                0.2960894002        0.1848029459        0.0000000014
C                0.2589797514        0.2589797539        0.0000000059
C                0.2958507203        0.2958507186        0.0000000056
C                0.2587010928        0.3700033166        0.0000000013
C                0.2954016820        0.4068451473       -0.0000000017
C                0.2595926631        0.4806922442        0.0000000008
C                0.2972362827        0.5172368049        0.0000000046
C                0.2611694983        0.5908017058       -0.0000000002
C                0.3003842106        0.6254712796       -0.0000000048
C                0.2620993172        0.7006888459        0.0000000006
C                0.2974413335        0.7391223783        0.0000000006
C                0.2600895904        0.8135018866        0.0000000065
C                0.2966755191        0.8510716305        0.0000000074
C                0.2595483341        0.9251390162        0.0000000037
C                0.2964127428        0.9625458354       -0.0000000016
C                0.3702926842        0.0367806795       -0.0000000035
C                0.4073799793        0.0738134070        0.0000000004
C                0.3702245540        0.1477596049        0.0000000036
C                0.4072325689        0.1847072910        0.0000000070
C                0.3700033082        0.2587010947        0.0000000056
C                0.4068451433        0.2954016893       -0.0000000025
C                0.3694001801        0.3694001841       -0.0000000025
C                0.4056072303        0.4056072410       -0.0000000009
C                0.3718740503        0.4790719387        0.0000000019
C                0.4125239875        0.5108126251       -0.0000000077
C                0.3767159869        0.5860546021       -0.0000000111
C                0.4088813755        0.6282036169       -0.0000000110
C                0.3716705924        0.7017991448       -0.0000000073
C                0.4081487217        0.7400579437       -0.0000000040
C                0.3709144514        0.8140523366        0.0000000026
C                0.4076802447        0.8514601615       -0.0000000011
C                0.3704670651        0.9256596331       -0.0000000021
C                0.4074367380        0.9627424623       -0.0000000039
C                0.4814710939        0.0371012786       -0.0000000013
C                0.5184425572        0.0741305615        0.0000000005
C                0.4812608847        0.1482368854        0.0000000024
C                0.5180880373        0.1855179701       -0.0000000012
C                0.4806922371        0.2595926705       -0.0000000003
C                0.5172367968        0.2972362922       -0.0000000023
C                0.4790719319        0.3718740578       -0.0000000065
C                0.5108126226        0.4125240008       -0.0000000108
C                0.5221476771        0.5221476842        0.0000000188
C                0.4828075352        0.5929728704       -0.0000000045
C                0.5197403094        0.6304287082       -0.0000000027
C                0.4820003585        0.7041814854       -0.0000000049
C                0.5189564319        0.7411453977        0.0000000003
C                0.4817096821        0.8149824989       -0.0000000043
C                0.5187567707        0.8520819313       -0.0000000038
C                0.4816102949        0.9259980932       -0.0000000047
C                0.5186322891        0.9630130751       -0.0000000039
C                0.5925593975        0.0373344771       -0.0000000035
C                0.6293917702        0.0745721179       -0.0000000039
C                0.5921244839        0.1489109130       -0.0000000038
C                0.6285892169        0.1864129291       -0.0000000025
C                0.5908017029        0.2611694995       -0.0000000007
C                0.6254712780        0.3003842148        0.0000000030
C                0.5860545972        0.3767159950        0.0000000016
C                0.6282036135        0.4088813881        0.0000000089
C                0.5929728735        0.4828075323        0.0000000125
C                0.6304287052        0.5197403178        0.0000000053
C                0.5933717984        0.5933718003        0.0000000047
C                0.6303765319        0.6303765388        0.0000000079
C                0.5931333677        0.7041939902        0.0000000027
C                0.6300551574        0.7411460698       -0.0000000004
C                0.5928181759        0.8152318549       -0.0000000045
C                0.6298305281        0.8521484728       -0.0000000025
C                0.5926873445        0.9261783609       -0.0000000039
C                0.6297110589        0.9632700822       -0.0000000037
C                0.7034303862        0.0375940596       -0.0000000032
C                0.7401587397        0.0749314785       -0.0000000021
C                0.7026011568        0.1493561771       -0.0000000033
C                0.7387490718        0.1871701602       -0.0000000005
C                0.7006888487        0.2620993172        0.0000000037
C                0.7391223776        0.2974413404        0.0000000009
C                0.7017991499        0.3716705910        0.0000000037
C                0.7400579433        0.4081487323        0.0000000018
C                0.7041814898        0.4820003591        0.0000000048
C                0.7411453964        0.5189564369        0.0000000068
C                0.7041939909        0.5931333699        0.0000000044
C                0.7411460659        0.6300551660        0.0000000022
C                0.7040749121        0.7040749079        0.0000000026
C                0.7410987222        0.7410987240        0.0000000041
C                0.7039876923        0.8151186655        0.0000000038
C                0.7409444031        0.8521063214        0.0000000048
C                0.7037871604        0.9262676469       -0.0000000014
C                0.7406848226        0.9633324969        0.0000000005
C                0.8143425292        0.0376603461       -0.0000000003
C                0.8510063134        0.0749074624       -0.0000000023
C                0.8132890079        0.1494631608       -0.0000000017
C                0.8508262265        0.1859367589       -0.0000000024
C                0.8135018927        0.2600895904       -0.0000000022
C                0.8510716355        0.2966755197       -0.0000000025
C                0.8140523443        0.3709144522       -0.0000000014
C                0.8514601698        0.4076802446        0.0000000027
C                0.8149824995        0.4817096867        0.0000000054
C                0.8520819404        0.5187567727        0.0000000055
C                0.8152318534        0.5928181767        0.0000000032
C                0.8521484786        0.6298305331        0.0000000037
C                0.8151186659        0.7039876906        0.0000000059
C                0.8521063232        0.7409444035        0.0000000071
C                0.8150227828        0.8150227828        0.0000000065
C                0.8520475614        0.8520475573        0.0000000021
C                0.8148656677        0.9261924221        0.0000000017
C                0.8517313920        0.9632895377       -0.0000000015
C                0.9254671956        0.0373649683       -0.0000000034
C                0.9625643664        0.0742148373       -0.0000000017
C                0.9252289957        0.1485103041       -0.0000000003
C                0.9624008540        0.1853017190       -0.0000000023
C                0.9251390220        0.2595483319       -0.0000000026
C                0.9625458452        0.2964127390        0.0000000027
C                0.9256596342        0.3704670683        0.0000000036
C                0.9627424728        0.4074367333        0.0000000037
C                0.9259980882        0.4816103029        0.0000000042
C                0.9630130800        0.5186322900       -0.0000000009
C                0.9261783599        0.5926873465       -0.0000000018
C                0.9632700833        0.6297110612       -0.0000000007
C                0.9262676497        0.7037871608        0.0000000035
C                0.9633324972        0.7406848232        0.0000000011
C                0.9261924229        0.8148656660       -0.0000000015
C                0.9632895431        0.8517313896       -0.0000000039
C                0.9259730517        0.9259730495       -0.0000000048
C                0.9629783177        0.9629783133       -0.0000000045



     Writing config-only to output data dir /home/gregb26/links/scratch/qe_tmp/vacancy_relaxed/nspin1/vac_9x9_relax_nspin1.save/ :
     XML data file
     NEW-OLD atomic charge density approx. for the potential

     negative rho (up, down):  1.350E-06 0.000E+00

     total cpu time spent up to now is     2373.0 secs

     per-process dynamical memory:   351.9 Mb

     Self-consistent Calculation

     iteration #  1     ecut=   100.00 Ry     beta= 0.30
     Davidson diagonalization with overlap
     ethr =  1.00E-06,  avg # of iterations =  3.0

     Threshold (ethr) on eigenvalues was too large:
     Diagonalizing with lowered threshold

     Davidson diagonalization with overlap
     ethr =  4.37E-09,  avg # of iterations =  6.0

     negative rho (up, down):  8.819E-07 0.000E+00

     total cpu time spent up to now is     2399.7 secs

     total energy              =   -1939.06451595 Ry
     estimated scf accuracy    <       0.00005892 Ry

     iteration #  2     ecut=   100.00 Ry     beta= 0.30
     Davidson diagonalization with overlap
     ethr =  9.15E-09,  avg # of iterations =  2.0

     negative rho (up, down):  8.435E-07 0.000E+00

     total cpu time spent up to now is     2406.6 secs

     total energy              =   -1939.06450224 Ry
     estimated scf accuracy    <       0.00037134 Ry

     iteration #  3     ecut=   100.00 Ry     beta= 0.30
     Davidson diagonalization with overlap
     ethr =  9.15E-09,  avg # of iterations =  2.0

     negative rho (up, down):  4.637E-07 0.000E+00

     total cpu time spent up to now is     2413.7 secs

     total energy              =   -1939.06450781 Ry
     estimated scf accuracy    <       0.00064895 Ry

     iteration #  4     ecut=   100.00 Ry     beta= 0.30
     Davidson diagonalization with overlap
     ethr =  9.15E-09,  avg # of iterations =  2.0

     negative rho (up, down):  1.430E-07 0.000E+00

     total cpu time spent up to now is     2420.7 secs

     total energy              =   -1939.06451674 Ry
     estimated scf accuracy    <       0.00000529 Ry

     iteration #  5     ecut=   100.00 Ry     beta= 0.30
     Davidson diagonalization with overlap
     ethr =  8.21E-10,  avg # of iterations =  2.0

     negative rho (up, down):  5.618E-08 0.000E+00

     total cpu time spent up to now is     2428.1 secs

     total energy              =   -1939.06451717 Ry
     estimated scf accuracy    <       0.00000116 Ry

     iteration #  6     ecut=   100.00 Ry     beta= 0.30
     Davidson diagonalization with overlap
     ethr =  1.80E-10,  avg # of iterations =  4.0

     negative rho (up, down):  1.563E-08 0.000E+00

     total cpu time spent up to now is     2436.0 secs

     total energy              =   -1939.06451728 Ry
     estimated scf accuracy    <       0.00000019 Ry

     iteration #  7     ecut=   100.00 Ry     beta= 0.30
     Davidson diagonalization with overlap
     ethr =  2.91E-11,  avg # of iterations =  4.0

     total cpu time spent up to now is     2444.9 secs

     total energy              =   -1939.06451732 Ry
     estimated scf accuracy    <       0.00000006 Ry

     iteration #  8     ecut=   100.00 Ry     beta= 0.30
     Davidson diagonalization with overlap
     ethr =  8.94E-12,  avg # of iterations =  5.0

     total cpu time spent up to now is     2452.7 secs

     total energy              =   -1939.06451732 Ry
     estimated scf accuracy    <       0.00000002 Ry

     iteration #  9     ecut=   100.00 Ry     beta= 0.30
     Davidson diagonalization with overlap
     ethr =  2.68E-12,  avg # of iterations =  5.0

     total cpu time spent up to now is     2460.7 secs

     total energy              =   -1939.06451732 Ry
     estimated scf accuracy    <          2.3E-09 Ry

     iteration # 10     ecut=   100.00 Ry     beta= 0.30
     Davidson diagonalization with overlap
     ethr =  3.56E-13,  avg # of iterations =  5.0

     total cpu time spent up to now is     2471.7 secs

     total energy              =   -1939.06451733 Ry
     estimated scf accuracy    <          2.8E-10 Ry

     iteration # 11     ecut=   100.00 Ry     beta= 0.30
     Davidson diagonalization with overlap
     ethr =  1.00E-13,  avg # of iterations =  2.0

     total cpu time spent up to now is     2480.2 secs

     total energy              =   -1939.06451733 Ry
     estimated scf accuracy    <          7.8E-11 Ry

     iteration # 12     ecut=   100.00 Ry     beta= 0.30
     Davidson diagonalization with overlap
     ethr =  1.00E-13,  avg # of iterations =  1.0

     total cpu time spent up to now is     2487.5 secs

     total energy              =   -1939.06451733 Ry
     estimated scf accuracy    <          4.2E-11 Ry

     iteration # 13     ecut=   100.00 Ry     beta= 0.30
     Davidson diagonalization with overlap
     ethr =  1.00E-13,  avg # of iterations =  1.0

     total cpu time spent up to now is     2494.7 secs

     total energy              =   -1939.06451733 Ry
     estimated scf accuracy    <          4.3E-11 Ry

     iteration # 14     ecut=   100.00 Ry     beta= 0.30
     Davidson diagonalization with overlap
     ethr =  1.00E-13,  avg # of iterations =  1.0

     total cpu time spent up to now is     2502.1 secs

     total energy              =   -1939.06451733 Ry
     estimated scf accuracy    <          1.0E-10 Ry

     iteration # 15     ecut=   100.00 Ry     beta= 0.30
     Davidson diagonalization with overlap
     ethr =  1.00E-13,  avg # of iterations =  1.0

     total cpu time spent up to now is     2509.7 secs

     End of self-consistent calculation

          k = 0.0000 0.0000 0.0000 (385710 PWs)   bands (ev):

   -23.7920 -23.5480 -23.5224 -23.5137 -23.5005 -23.4778 -23.4090 -22.9593
   -22.9365 -22.9360 -22.9295 -22.9011 -22.8414 -22.6651 -22.6563 -22.6434
   -22.6316 -22.6115 -22.4696 -21.8134 -21.8043 -21.7985 -21.7966 -21.7942
   -21.7884 -21.7866 -21.7781 -21.7719 -21.7701 -21.7148 -21.5331 -21.2426
   -21.2252 -21.2193 -21.2042 -21.1805 -21.0071 -20.4002 -20.3968 -20.3870
   -20.3773 -20.3567 -20.3091 -20.1365 -20.1303 -20.1243 -20.1218 -20.1175
   -20.1121 -20.1062 -20.1013 -20.0868 -20.0832 -20.0295 -19.7085 -19.3390
   -19.3296 -19.3149 -19.2870 -19.2852 -19.0973 -18.5683 -18.5615 -18.5598
   -18.5569 -18.5471 -18.5462 -18.5264 -18.5249 -18.5106 -18.4907 -18.4864
   -18.4374 -18.3840 -18.3805 -18.3689 -18.3521 -18.3315 -17.7309 -17.3480
   -17.3479 -17.3445 -17.3031 -17.2652 -17.1829 -16.9027 -16.8594 -16.8548
   -16.7806 -16.6734 -16.6727 -16.6638 -16.6011 -16.5854 -16.4284 -16.0980
   -16.0974 -16.0914 -16.0905 -16.0848 -16.0828 -16.0768 -16.0702 -16.0490
   -15.9383 -15.9358 -15.5491 -15.2380 -15.2303 -15.2179 -15.2149 -15.2112
   -15.2095 -15.2065 -15.1906 -15.1863 -15.0823 -15.0693 -14.8088 -14.7744
   -14.4659 -13.9803 -13.9732 -13.9723 -13.9483 -13.9477 -13.9375 -13.9359
   -13.9295 -13.9114 -13.8480 -13.8137 -13.5587 -13.4642 -13.4516 -13.4466
   -13.4419 -13.4375 -13.4346 -13.4253 -13.4224 -13.4125 -13.2188 -13.1903
   -12.9203 -12.5155 -12.5034 -12.4644 -12.4639 -12.4544 -12.4523 -12.4523
   -12.4473 -12.4467 -12.4439 -12.4388 -12.4240 -12.4221 -12.4202 -12.4059
   -12.1657 -12.1532 -11.8765 -11.7148 -11.6257 -11.6227 -11.6121 -11.5670
   -11.5521 -11.5456 -11.5399 -11.5342 -11.5209 -11.5122 -11.4539 -11.4227
   -11.3533 -11.3343 -11.3276 -11.3207 -11.3147 -11.3114 -11.3059 -11.2767
   -11.2637 -11.1782 -11.1360 -11.1200 -11.0210 -11.0014 -10.9822 -10.9069
   -10.8695 -10.8614 -10.8564 -10.8557 -10.8513 -10.8268 -10.7561 -10.6682
   -10.6540 -10.6301 -10.6273 -10.5808 -10.5705 -10.5381 -10.5295 -10.5234
   -10.5150 -10.5028 -10.4885 -10.4577 -10.4482 -10.4481 -10.4368 -10.4330
   -10.4282 -10.4143 -10.4057 -10.3826 -10.3385 -10.2352 -10.2264 -10.2128
   -10.1109 -10.0915 -10.0686 -10.0481 -10.0353 -10.0153 -10.0050  -9.9935
    -9.9759  -9.5401  -9.5297  -9.5272  -9.5232  -9.5218  -9.5197  -9.5187
    -9.5138  -9.5042  -9.5025  -9.4650  -9.4624  -9.4493  -9.2666  -9.1281
    -9.0910  -9.0792  -9.0737  -9.0602  -9.0549  -9.0547  -9.0436  -9.0376
    -8.9900  -8.9084  -8.8927  -8.8884  -8.8698  -8.8667  -8.8201  -8.6957
    -8.6068  -8.6062  -8.4588  -8.4439  -8.4426  -8.1023  -8.0897  -7.9575
    -7.9443  -7.9437  -7.9367  -7.9357  -7.9241  -7.9139  -7.9101  -7.8982
    -7.8736  -7.8703  -7.7153  -7.7050  -7.7018  -7.6980  -7.6944  -7.6909
    -7.6905  -7.6862  -7.6651  -7.6641  -7.6533  -7.4012  -7.4002  -7.3599
    -7.0704  -7.0631  -7.0534  -7.0336  -7.0125  -6.8058  -6.3667  -6.3660
    -6.3589  -6.3408  -6.3386  -6.2555  -6.0931  -6.0867  -6.0789  -6.0755
    -6.0684  -6.0671  -6.0571  -6.0504  -6.0362  -6.0312  -6.0209  -5.0273
    -4.2768  -4.2442  -4.2279  -4.2207  -3.9682  -3.0842  -2.6736  -2.6630
    -2.6554  -2.6530  -2.6422  -2.6397  -2.5885  -2.5869  -2.5686  -2.5568
    -2.5545  -2.5523  -2.5453  -2.5333  -2.5229  -2.4381  -2.4360  -2.2130
    -2.0601  -2.0494  -2.0326  -1.9965  -1.9672  -1.5682  -0.9827  -0.9753

     the Fermi energy is    -4.2239 ev

!    total energy              =   -1939.06451733 Ry
     estimated scf accuracy    <          1.0E-12 Ry
     smearing contrib. (-TS)   =      -0.01241804 Ry
     internal energy E=F+TS    =   -1939.05209928 Ry

     The total energy is F=E-TS. E is the sum of the following terms:
     one-electron contribution =  -21951.15731109 Ry
     hartree contribution      =   11035.70450344 Ry
     xc contribution           =    -689.85874193 Ry
     ewald contribution        =    9666.25945030 Ry

     convergence has been achieved in  15 iterations

     Forces acting on atoms (cartesian axes, Ry/au):

     atom    1 type  1   force =    -0.00029208    0.00000005    0.00000000
     atom    2 type  1   force =    -0.00065225    0.00000005    0.00000001
     atom    3 type  1   force =    -0.00020219    0.00006683   -0.00000001
     atom    4 type  1   force =    -0.00092062    0.00075209    0.00000000
     atom    5 type  1   force =    -0.00023014   -0.00015594    0.00000001
     atom    6 type  1   force =    -0.00048117    0.00029589    0.00000001
     atom    7 type  1   force =     0.00018013    0.00014104   -0.00000000
     atom    8 type  1   force =    -0.00042466   -0.00040965   -0.00000000
     atom    9 type  1   force =     0.00031854   -0.00015051    0.00000001
     atom   10 type  1   force =    -0.00016781   -0.00014112   -0.00000000
     atom   11 type  1   force =     0.00057455   -0.00043015    0.00000000
     atom   12 type  1   force =     0.00026776   -0.00085748    0.00000001
     atom   13 type  1   force =     0.00063218   -0.00047592    0.00000000
     atom   14 type  1   force =    -0.00013260   -0.00064464   -0.00000001
     atom   15 type  1   force =     0.00033042   -0.00069724   -0.00000000
     atom   16 type  1   force =    -0.00023192    0.00033963    0.00000001
     atom   17 type  1   force =     0.00005196   -0.00043690    0.00000000
     atom   18 type  1   force =     0.00011787   -0.00032500   -0.00000000
     atom   19 type  1   force =    -0.00020219   -0.00006688   -0.00000000
     atom   20 type  1   force =    -0.00092052   -0.00075204   -0.00000000
     atom   21 type  1   force =    -0.00014575   -0.00000000    0.00000000
     atom   22 type  1   force =    -0.00006350   -0.00000012    0.00000000
     atom   23 type  1   force =    -0.00038243    0.00002539   -0.00000000
     atom   24 type  1   force =    -0.00015052   -0.00009863   -0.00000000
     atom   25 type  1   force =     0.00009600   -0.00005912    0.00000001
     atom   26 type  1   force =    -0.00002034   -0.00062944   -0.00000001
     atom   27 type  1   force =    -0.00077277    0.00021892    0.00000001
     atom   28 type  1   force =    -0.00046418   -0.00028931    0.00000000
     atom   29 type  1   force =    -0.00025526    0.00023315   -0.00000001
     atom   30 type  1   force =     0.00009472   -0.00073517   -0.00000002
     atom   31 type  1   force =     0.00016942    0.00036283    0.00000001
     atom   32 type  1   force =     0.00014494   -0.00003347   -0.00000001
     atom   33 type  1   force =    -0.00014809    0.00021792   -0.00000000
     atom   34 type  1   force =     0.00019979   -0.00031079   -0.00000000
     atom   35 type  1   force =    -0.00054037   -0.00040955   -0.00000000
     atom   36 type  1   force =    -0.00030523   -0.00067667   -0.00000000
     atom   37 type  1   force =    -0.00023024    0.00015580    0.00000001
     atom   38 type  1   force =    -0.00048133   -0.00029565   -0.00000000
     atom   39 type  1   force =    -0.00038235   -0.00002533   -0.00000000
     atom   40 type  1   force =    -0.00015071    0.00009880    0.00000002
     atom   41 type  1   force =    -0.00051341   -0.00000009   -0.00000001
     atom   42 type  1   force =    -0.00058913    0.00000017   -0.00000000
     atom   43 type  1   force =    -0.00062783    0.00018395   -0.00000000
     atom   44 type  1   force =    -0.00063626    0.00000062    0.00000001
     atom   45 type  1   force =    -0.00076682    0.00036664    0.00000000
     atom   46 type  1   force =    -0.00020694    0.00032256   -0.00000003
     atom   47 type  1   force =    -0.00059466    0.00038516    0.00000002
     atom   48 type  1   force =     0.00029406    0.00038456    0.00000000
     atom   49 type  1   force =    -0.00030305    0.00047340   -0.00000000
     atom   50 type  1   force =     0.00063513    0.00004619   -0.00000001
     atom   51 type  1   force =    -0.00028011   -0.00013680   -0.00000000
     atom   52 type  1   force =     0.00011821    0.00036229   -0.00000002
     atom   53 type  1   force =    -0.00006804    0.00007303   -0.00000000
     atom   54 type  1   force =    -0.00091725   -0.00054680    0.00000000
     atom   55 type  1   force =     0.00018047   -0.00014144    0.00000000
     atom   56 type  1   force =    -0.00042506    0.00040980   -0.00000001
     atom   57 type  1   force =     0.00009644    0.00005900    0.00000000
     atom   58 type  1   force =    -0.00002081    0.00062964   -0.00000001
     atom   59 type  1   force =    -0.00062744   -0.00018418   -0.00000001
     atom   60 type  1   force =    -0.00063654   -0.00000062    0.00000003
     atom   61 type  1   force =    -0.00011621    0.00000006    0.00000000
     atom   62 type  1   force =    -0.00005874   -0.00000014   -0.00000002
     atom   63 type  1   force =    -0.00003535    0.00000041   -0.00000001
     atom   64 type  1   force =     0.00025768    0.00124193   -0.00000001
     atom   65 type  1   force =    -0.00021753    0.00034177    0.00000001
     atom   66 type  1   force =     0.00010311    0.00017501    0.00000001
     atom   67 type  1   force =    -0.00005716   -0.00039278    0.00000001
     atom   68 type  1   force =     0.00029124    0.00062475    0.00000000
     atom   69 type  1   force =     0.00007719   -0.00058227   -0.00000001
     atom   70 type  1   force =    -0.00006721    0.00046409   -0.00000000
     atom   71 type  1   force =    -0.00002661   -0.00059484   -0.00000000
     atom   72 type  1   force =    -0.00061924   -0.00002607   -0.00000000
     atom   73 type  1   force =     0.00031866    0.00015033    0.00000001
     atom   74 type  1   force =    -0.00016795    0.00014103   -0.00000001
     atom   75 type  1   force =    -0.00077224   -0.00021900    0.00000000
     atom   76 type  1   force =    -0.00046441    0.00028947    0.00000001
     atom   77 type  1   force =    -0.00076682   -0.00036680   -0.00000002
     atom   78 type  1   force =    -0.00020692   -0.00032270   -0.00000000
     atom   79 type  1   force =    -0.00003517   -0.00000032    0.00000002
     atom   80 type  1   force =     0.00025737   -0.00124192    0.00000001
     atom   81 type  1   force =     0.00034809   -0.00000026    0.00000001
     atom   82 type  1   force =    -0.00013975   -0.00021097    0.00000002
     atom   83 type  1   force =     0.00067030    0.00009320   -0.00000000
     atom   84 type  1   force =     0.00069819   -0.00024306    0.00000002
     atom   85 type  1   force =     0.00073014    0.00031060   -0.00000002
     atom   86 type  1   force =     0.00041619   -0.00037133    0.00000002
     atom   87 type  1   force =     0.00035347    0.00013129   -0.00000002
     atom   88 type  1   force =     0.00005228   -0.00016704    0.00000000
     atom   89 type  1   force =    -0.00021801    0.00020004   -0.00000000
     atom   90 type  1   force =     0.00057465    0.00043028    0.00000001
     atom   91 type  1   force =     0.00026777    0.00085749   -0.00000000
     atom   92 type  1   force =    -0.00025528   -0.00023327    0.00000001
     atom   93 type  1   force =     0.00009480    0.00073505   -0.00000000
     atom   94 type  1   force =    -0.00059455   -0.00038500   -0.00000000
     atom   95 type  1   force =     0.00029402   -0.00038459   -0.00000001
     atom   96 type  1   force =    -0.00021744   -0.00034184   -0.00000001
     atom   97 type  1   force =     0.00010287   -0.00017550   -0.00000001
     atom   98 type  1   force =    -0.00013953    0.00021149   -0.00000001
     atom   99 type  1   force =     0.00067013   -0.00009350    0.00000002
     atom  100 type  1   force =     0.00059400    0.00000011   -0.00000000
     atom  101 type  1   force =     0.00077808   -0.00000018   -0.00000003
     atom  102 type  1   force =     0.00028923    0.00003687    0.00000000
     atom  103 type  1   force =     0.00036615    0.00008572    0.00000001
     atom  104 type  1   force =    -0.00011489   -0.00040235    0.00000001
     atom  105 type  1   force =     0.00005215    0.00038291    0.00000000
     atom  106 type  1   force =     0.00060867    0.00027292    0.00000000
     atom  107 type  1   force =    -0.00031154    0.00053264   -0.00000000
     atom  108 type  1   force =     0.00063214    0.00047602    0.00000001
     atom  109 type  1   force =    -0.00013247    0.00064451   -0.00000000
     atom  110 type  1   force =     0.00016929   -0.00036272    0.00000001
     atom  111 type  1   force =     0.00014498    0.00003335    0.00000000
     atom  112 type  1   force =    -0.00030301   -0.00047323   -0.00000001
     atom  113 type  1   force =     0.00063506   -0.00004651    0.00000000
     atom  114 type  1   force =    -0.00005700    0.00039319    0.00000000
     atom  115 type  1   force =     0.00029104   -0.00062518    0.00000001
     atom  116 type  1   force =     0.00069817    0.00024342    0.00000000
     atom  117 type  1   force =     0.00073025   -0.00031075   -0.00000002
     atom  118 type  1   force =     0.00028918   -0.00003662    0.00000002
     atom  119 type  1   force =     0.00036596   -0.00008613    0.00000001
     atom  120 type  1   force =    -0.00006832    0.00000029   -0.00000001
     atom  121 type  1   force =     0.00002456   -0.00000008    0.00000001
     atom  122 type  1   force =    -0.00007026   -0.00009094   -0.00000001
     atom  123 type  1   force =    -0.00003154    0.00023052   -0.00000001
     atom  124 type  1   force =     0.00108859    0.00065657    0.00000002
     atom  125 type  1   force =     0.00023672    0.00028159   -0.00000001
     atom  126 type  1   force =     0.00033023    0.00069725   -0.00000001
     atom  127 type  1   force =    -0.00023186   -0.00033973    0.00000000
     atom  128 type  1   force =    -0.00014811   -0.00021775   -0.00000000
     atom  129 type  1   force =     0.00019990    0.00031079    0.00000001
     atom  130 type  1   force =    -0.00028024    0.00013689   -0.00000000
     atom  131 type  1   force =     0.00011822   -0.00036231   -0.00000000
     atom  132 type  1   force =     0.00007712    0.00058243    0.00000002
     atom  133 type  1   force =    -0.00006728   -0.00046383   -0.00000000
     atom  134 type  1   force =     0.00041624    0.00037121    0.00000000
     atom  135 type  1   force =     0.00035307   -0.00013092   -0.00000001
     atom  136 type  1   force =    -0.00011451    0.00040238    0.00000000
     atom  137 type  1   force =     0.00005161   -0.00038287   -0.00000001
     atom  138 type  1   force =    -0.00007002    0.00009106   -0.00000000
     atom  139 type  1   force =    -0.00003163   -0.00023051   -0.00000001
     atom  140 type  1   force =     0.00077322   -0.00000003   -0.00000000
     atom  141 type  1   force =     0.00039112    0.00000009    0.00000000
     atom  142 type  1   force =     0.00066310    0.00095666   -0.00000001
     atom  143 type  1   force =     0.00048529    0.00004815    0.00000000
     atom  144 type  1   force =     0.00005200    0.00043697    0.00000000
     atom  145 type  1   force =     0.00011782    0.00032496   -0.00000000
     atom  146 type  1   force =    -0.00054048    0.00040964   -0.00000002
     atom  147 type  1   force =    -0.00030513    0.00067676    0.00000000
     atom  148 type  1   force =    -0.00006801   -0.00007310    0.00000002
     atom  149 type  1   force =    -0.00091740    0.00054709   -0.00000002
     atom  150 type  1   force =    -0.00002650    0.00059445    0.00000000
     atom  151 type  1   force =    -0.00061926    0.00002661   -0.00000000
     atom  152 type  1   force =     0.00005245    0.00016642   -0.00000001
     atom  153 type  1   force =    -0.00021815   -0.00019985   -0.00000000
     atom  154 type  1   force =     0.00060890   -0.00027306    0.00000002
     atom  155 type  1   force =    -0.00031156   -0.00053272   -0.00000001
     atom  156 type  1   force =     0.00108851   -0.00065651   -0.00000000
     atom  157 type  1   force =     0.00023676   -0.00028167   -0.00000000
     atom  158 type  1   force =     0.00066324   -0.00095670    0.00000001
     atom  159 type  1   force =     0.00048511   -0.00004801    0.00000001
     atom  160 type  1   force =     0.00060481   -0.00000003    0.00000001
     atom  161 type  1   force =    -0.00006381    0.00000002   -0.00000000

     Total force =     0.007285     Total SCF correction =     0.000001
     Energy error            =      8.5E-05 Ry
     Gradient error          =      1.2E-03 Ry/Bohr

     number of scf cycles    =  18
     number of bfgs steps    =  17

     energy             old  =   -1939.0644323719 Ry
     energy             new  =   -1939.0645173254 Ry

     CASE: energy            _new < energy            _old

     new trust radius        =       0.0050440516 bohr
     new conv_thr            =            8.5E-12 Ry


ATOMIC_POSITIONS (crystal)
C                0.0368776953        0.0368776917       -0.0000000025
C                0.0738954552        0.0738954474       -0.0000000033
C                0.0366693038        0.1481076435       -0.0000000024
C                0.0737370322        0.1850382955       -0.0000000033
C                0.0366254617        0.2592381587       -0.0000000020
C                0.0737097870        0.2961960282       -0.0000000011
C                0.0367879509        0.3702642632        0.0000000016
C                0.0738233723        0.4073386371       -0.0000000004
C                0.0371275925        0.4814434959       -0.0000000044
C                0.0741447058        0.5184291937       -0.0000000051
C                0.0373562029        0.5925514120       -0.0000000036
C                0.0745889686        0.6293861009       -0.0000000010
C                0.0375914109        0.7034367090        0.0000000021
C                0.0749355435        0.7401399501        0.0000000025
C                0.0376792548        0.8143313458       -0.0000000007
C                0.0749038722        0.8510052161       -0.0000000014
C                0.0373868219        0.9254640346       -0.0000000037
C                0.0742298205        0.9625678414       -0.0000000019
C                0.1481076461        0.0366692994       -0.0000000027
C                0.1850383011        0.0737370263       -0.0000000043
C                0.1479027363        0.1479027354       -0.0000000047
C                0.1849452272        0.1849452235       -0.0000000032
C                0.1479007430        0.2590486365       -0.0000000003
C                0.1847961863        0.2960634869        0.0000000028
C                0.1477705609        0.3702013153       -0.0000000008
C                0.1847171927        0.4072146115       -0.0000000006
C                0.1482404693        0.4812471753       -0.0000000033
C                0.1855185799        0.5180878943       -0.0000000010
C                0.1489068426        0.5921278925        0.0000000015
C                0.1864283138        0.6285761031        0.0000000041
C                0.1493461145        0.7026023222        0.0000000041
C                0.1871547241        0.7387475194        0.0000000047
C                0.1494579783        0.8132871203        0.0000000036
C                0.1859361776        0.8508242887        0.0000000054
C                0.1485170271        0.9252162661        0.0000000023
C                0.1853101824        0.9623894276        0.0000000015
C                0.2592381614        0.0366254569       -0.0000000056
C                0.2961960293        0.0737097835       -0.0000000050
C                0.2590486374        0.1479007431       -0.0000000022
C                0.2960634856        0.1847961843        0.0000000025
C                0.2589653325        0.2589653323        0.0000000057
C                0.2958355849        0.2958355904        0.0000000046
C                0.2586918762        0.3699856596        0.0000000010
C                0.2953918854        0.4068342501       -0.0000000012
C                0.2595795897        0.4806793952        0.0000000004
C                0.2972174478        0.5172419943        0.0000000037
C                0.2611618371        0.5908050158        0.0000000003
C                0.3003509820        0.6255152435       -0.0000000041
C                0.2620678818        0.7007194215        0.0000000002
C                0.2974272698        0.7391524800       -0.0000000007
C                0.2600789109        0.8135108419        0.0000000057
C                0.2966650843        0.8510871722        0.0000000062
C                0.2595444916        0.9251373406        0.0000000033
C                0.2964068022        0.9625261327       -0.0000000010
C                0.3702642675        0.0367879459       -0.0000000037
C                0.4073386331        0.0738233687        0.0000000000
C                0.3702013182        0.1477705615        0.0000000033
C                0.4072146045        0.1847171929        0.0000000063
C                0.3699856601        0.2586918760        0.0000000052
C                0.4068342428        0.2953918924       -0.0000000013
C                0.3693916180        0.3693916182       -0.0000000015
C                0.4056097317        0.4056097378       -0.0000000015
C                0.3718574960        0.4790785518        0.0000000011
C                0.4123981752        0.5109264626       -0.0000000078
C                0.3766589444        0.5861341332       -0.0000000108
C                0.4088648285        0.6282418074       -0.0000000106
C                0.3716621180        0.7018257936       -0.0000000065
C                0.4081360448        0.7400945829       -0.0000000030
C                0.3709190438        0.8140575912        0.0000000016
C                0.4076820617        0.8514653178       -0.0000000013
C                0.3704729526        0.9256431243       -0.0000000014
C                0.4074156406        0.9627393729       -0.0000000039
C                0.4814434983        0.0371275913       -0.0000000007
C                0.5184291923        0.0741447009        0.0000000003
C                0.4812471754        0.1482404722        0.0000000018
C                0.5180878907        0.1855185817       -0.0000000008
C                0.4806793915        0.2595795938       -0.0000000008
C                0.5172419906        0.2972174553       -0.0000000030
C                0.4790785485        0.3718575035       -0.0000000067
C                0.5109264590        0.4123981859       -0.0000000092
C                0.5221428124        0.5221428070        0.0000000197
C                0.4828044261        0.5929748798       -0.0000000037
C                0.5197405302        0.6304394134       -0.0000000026
C                0.4820098740        0.7041844531       -0.0000000038
C                0.5189778815        0.7411467906       -0.0000000014
C                0.4817334444        0.8149660985       -0.0000000034
C                0.5187704579        0.8520811929       -0.0000000041
C                0.4816021162        0.9259988522       -0.0000000052
C                0.5186099830        0.9630268464       -0.0000000033
C                0.5925514103        0.0373562048       -0.0000000034
C                0.6293861008        0.0745889661       -0.0000000034
C                0.5921278871        0.1489068453       -0.0000000033
C                0.6285761048        0.1864283140       -0.0000000022
C                0.5908050123        0.2611618408       -0.0000000006
C                0.6255152414        0.3003509862        0.0000000027
C                0.5861341319        0.3766589468        0.0000000006
C                0.6282418092        0.4088648333        0.0000000074
C                0.5929748757        0.4828044310        0.0000000128
C                0.6304394193        0.5197405273        0.0000000057
C                0.5933738778        0.5933738869        0.0000000047
C                0.6303866183        0.6303866124        0.0000000067
C                0.5931493219        0.7041900814        0.0000000022
C                0.6300784240        0.7411495825        0.0000000003
C                0.5928392792        0.8152213951       -0.0000000035
C                0.6298353644        0.8521612954       -0.0000000024
C                0.5926791205        0.9262004899       -0.0000000041
C                0.6296980757        0.9632825339       -0.0000000040
C                0.7034367068        0.0375914129       -0.0000000024
C                0.7401399515        0.0749355441       -0.0000000022
C                0.7026023199        0.1493461179       -0.0000000031
C                0.7387475216        0.1871547240        0.0000000001
C                0.7007194228        0.2620678831        0.0000000029
C                0.7391524831        0.2974272709        0.0000000004
C                0.7018257949        0.3716621208        0.0000000035
C                0.7400945837        0.4081360498        0.0000000023
C                0.7041844498        0.4820098775        0.0000000052
C                0.7411467934        0.5189778831        0.0000000067
C                0.7041900739        0.5931493300        0.0000000049
C                0.7411495850        0.6300784204        0.0000000030
C                0.7040924937        0.7040925023        0.0000000029
C                0.7411182115        0.7411182097        0.0000000035
C                0.7040041526        0.8151347957        0.0000000031
C                0.7409544981        0.8521177364        0.0000000051
C                0.7037924987        0.9262858231       -0.0000000007
C                0.7406942751        0.9633274572        0.0000000001
C                0.8143313457        0.0376792553       -0.0000000010
C                0.8510052206        0.0749038684       -0.0000000028
C                0.8132871243        0.1494579775       -0.0000000008
C                0.8508242934        0.1859361754       -0.0000000023
C                0.8135108438        0.2600789130       -0.0000000023
C                0.8510871744        0.2966650868       -0.0000000019
C                0.8140575986        0.3709190420       -0.0000000006
C                0.8514653180        0.4076820689        0.0000000024
C                0.8149661035        0.4817334442        0.0000000056
C                0.8520811897        0.5187704627        0.0000000049
C                0.8152213975        0.5928392840        0.0000000034
C                0.8521612938        0.6298353646        0.0000000034
C                0.8151347950        0.7040041562        0.0000000049
C                0.8521177357        0.7409544990        0.0000000068
C                0.8150410063        0.8150410049        0.0000000065
C                0.8520579144        0.8520579144        0.0000000019
C                0.8148696235        0.9262096558        0.0000000007
C                0.8517401880        0.9632989879       -0.0000000013
C                0.9254640387        0.0373868190       -0.0000000035
C                0.9625678459        0.0742298161       -0.0000000015
C                0.9252162702        0.1485170245       -0.0000000010
C                0.9623894320        0.1853101797       -0.0000000023
C                0.9251373471        0.2595444889       -0.0000000021
C                0.9625261354        0.2964068027        0.0000000021
C                0.9256431345        0.3704729478        0.0000000026
C                0.9627393721        0.4074156458        0.0000000036
C                0.9259988606        0.4816021130        0.0000000035
C                0.9630268459        0.5186099863       -0.0000000010
C                0.9262004934        0.5926791220       -0.0000000005
C                0.9632825357        0.6296980758       -0.0000000008
C                0.9262858233        0.7037925006        0.0000000033
C                0.9633274573        0.7406942753        0.0000000005
C                0.9262096569        0.8148696225       -0.0000000010
C                0.9632989885        0.8517401881       -0.0000000032
C                0.9259887681        0.9259887658       -0.0000000031
C                0.9629878577        0.9629878553       -0.0000000043



     Writing config-only to output data dir /home/gregb26/links/scratch/qe_tmp/vacancy_relaxed/nspin1/vac_9x9_relax_nspin1.save/ :
     XML data file
     NEW-OLD atomic charge density approx. for the potential

     negative rho (up, down):  6.616E-07 0.000E+00

     total cpu time spent up to now is     2513.2 secs

     per-process dynamical memory:   351.9 Mb

     Self-consistent Calculation

     iteration #  1     ecut=   100.00 Ry     beta= 0.30
     Davidson diagonalization with overlap
     ethr =  1.00E-06,  avg # of iterations =  3.0

     Threshold (ethr) on eigenvalues was too large:
     Diagonalizing with lowered threshold

     Davidson diagonalization with overlap
     ethr =  6.53E-08,  avg # of iterations =  2.0

     negative rho (up, down):  4.283E-07 0.000E+00

     total cpu time spent up to now is     2531.9 secs

     total energy              =   -1939.06435660 Ry
     estimated scf accuracy    <       0.00044923 Ry

     iteration #  2     ecut=   100.00 Ry     beta= 0.30
     Davidson diagonalization with overlap
     ethr =  6.98E-08,  avg # of iterations =  5.0

     negative rho (up, down):  4.205E-07 0.000E+00

     total cpu time spent up to now is     2540.8 secs

     total energy              =   -1939.06240700 Ry
     estimated scf accuracy    <       0.16145689 Ry

     iteration #  3     ecut=   100.00 Ry     beta= 0.30
     Davidson diagonalization with overlap
     ethr =  6.98E-08,  avg # of iterations =  5.0

     negative rho (up, down):  2.316E-07 0.000E+00

     total cpu time spent up to now is     2548.9 secs

     total energy              =   -1939.06455305 Ry
     estimated scf accuracy    <       0.00000861 Ry

     iteration #  4     ecut=   100.00 Ry     beta= 0.30
     Davidson diagonalization with overlap
     ethr =  1.34E-09,  avg # of iterations =  5.0

     negative rho (up, down):  8.712E-08 0.000E+00

     total cpu time spent up to now is     2560.2 secs

     total energy              =   -1939.06455505 Ry
     estimated scf accuracy    <       0.00000632 Ry

     iteration #  5     ecut=   100.00 Ry     beta= 0.30
     Davidson diagonalization with overlap
     ethr =  9.81E-10,  avg # of iterations =  2.0

     negative rho (up, down):  4.039E-08 0.000E+00

     total cpu time spent up to now is     2568.4 secs

     total energy              =   -1939.06455536 Ry
     estimated scf accuracy    <       0.00000084 Ry

     iteration #  6     ecut=   100.00 Ry     beta= 0.30
     Davidson diagonalization with overlap
     ethr =  1.30E-10,  avg # of iterations =  5.0

     negative rho (up, down):  1.295E-08 0.000E+00

     total cpu time spent up to now is     2577.1 secs

     total energy              =   -1939.06455544 Ry
     estimated scf accuracy    <       0.00000024 Ry

     iteration #  7     ecut=   100.00 Ry     beta= 0.30
     Davidson diagonalization with overlap
     ethr =  3.80E-11,  avg # of iterations =  2.0

     total cpu time spent up to now is     2585.2 secs

     total energy              =   -1939.06455546 Ry
     estimated scf accuracy    <       0.00000005 Ry

     iteration #  8     ecut=   100.00 Ry     beta= 0.30
     Davidson diagonalization with overlap
     ethr =  8.23E-12,  avg # of iterations =  5.0

     total cpu time spent up to now is     2594.7 secs

     total energy              =   -1939.06455546 Ry
     estimated scf accuracy    <       0.00000001 Ry

     iteration #  9     ecut=   100.00 Ry     beta= 0.30
     Davidson diagonalization with overlap
     ethr =  1.57E-12,  avg # of iterations =  4.0

     total cpu time spent up to now is     2604.4 secs

     total energy              =   -1939.06455547 Ry
     estimated scf accuracy    <          2.0E-09 Ry

     iteration # 10     ecut=   100.00 Ry     beta= 0.30
     Davidson diagonalization with overlap
     ethr =  3.06E-13,  avg # of iterations =  4.0

     total cpu time spent up to now is     2614.9 secs

     total energy              =   -1939.06455547 Ry
     estimated scf accuracy    <          2.6E-10 Ry

     iteration # 11     ecut=   100.00 Ry     beta= 0.30
     Davidson diagonalization with overlap
     ethr =  1.00E-13,  avg # of iterations =  2.0

     total cpu time spent up to now is     2622.9 secs

     total energy              =   -1939.06455547 Ry
     estimated scf accuracy    <          7.6E-11 Ry

     iteration # 12     ecut=   100.00 Ry     beta= 0.30
     Davidson diagonalization with overlap
     ethr =  1.00E-13,  avg # of iterations =  1.0

     total cpu time spent up to now is     2630.2 secs

     total energy              =   -1939.06455547 Ry
     estimated scf accuracy    <          1.2E-10 Ry

     iteration # 13     ecut=   100.00 Ry     beta= 0.30
     Davidson diagonalization with overlap
     ethr =  1.00E-13,  avg # of iterations =  1.0

     total cpu time spent up to now is     2637.4 secs

     total energy              =   -1939.06455547 Ry
     estimated scf accuracy    <          3.5E-11 Ry

     iteration # 14     ecut=   100.00 Ry     beta= 0.30
     Davidson diagonalization with overlap
     ethr =  1.00E-13,  avg # of iterations =  1.0

     total cpu time spent up to now is     2644.5 secs

     End of self-consistent calculation

          k = 0.0000 0.0000 0.0000 (385710 PWs)   bands (ev):

   -23.7920 -23.5481 -23.5217 -23.5140 -23.5006 -23.4787 -23.4092 -22.9592
   -22.9366 -22.9361 -22.9296 -22.9015 -22.8414 -22.6648 -22.6568 -22.6442
   -22.6323 -22.6119 -22.4695 -21.8132 -21.8043 -21.7984 -21.7969 -21.7945
   -21.7885 -21.7865 -21.7785 -21.7722 -21.7703 -21.7161 -21.5335 -21.2428
   -21.2250 -21.2194 -21.2046 -21.1815 -21.0066 -20.4007 -20.3973 -20.3867
   -20.3776 -20.3573 -20.3083 -20.1368 -20.1308 -20.1237 -20.1224 -20.1177
   -20.1125 -20.1065 -20.1017 -20.0869 -20.0837 -20.0297 -19.7081 -19.3389
   -19.3298 -19.3147 -19.2873 -19.2859 -19.0971 -18.5678 -18.5616 -18.5594
   -18.5566 -18.5467 -18.5458 -18.5271 -18.5258 -18.5120 -18.4917 -18.4867
   -18.4374 -18.3840 -18.3806 -18.3694 -18.3524 -18.3321 -17.7316 -17.3481
   -17.3479 -17.3448 -17.3030 -17.2652 -17.1824 -16.9029 -16.8597 -16.8551
   -16.7804 -16.6736 -16.6730 -16.6643 -16.6010 -16.5856 -16.4282 -16.0976
   -16.0972 -16.0915 -16.0908 -16.0845 -16.0830 -16.0779 -16.0710 -16.0500
   -15.9382 -15.9363 -15.5492 -15.2381 -15.2304 -15.2180 -15.2149 -15.2113
   -15.2096 -15.2066 -15.1911 -15.1868 -15.0823 -15.0695 -14.8087 -14.7746
   -14.4651 -13.9805 -13.9736 -13.9721 -13.9481 -13.9475 -13.9376 -13.9367
   -13.9309 -13.9126 -13.8477 -13.8136 -13.5592 -13.4646 -13.4510 -13.4465
   -13.4420 -13.4380 -13.4349 -13.4258 -13.4227 -13.4127 -13.2189 -13.1911
   -12.9192 -12.5155 -12.5037 -12.4642 -12.4636 -12.4544 -12.4526 -12.4525
   -12.4474 -12.4467 -12.4438 -12.4391 -12.4246 -12.4229 -12.4213 -12.4063
   -12.1661 -12.1533 -11.8765 -11.7144 -11.6255 -11.6225 -11.6127 -11.5671
   -11.5515 -11.5458 -11.5404 -11.5342 -11.5213 -11.5130 -11.4532 -11.4230
   -11.3539 -11.3337 -11.3280 -11.3210 -11.3152 -11.3123 -11.3062 -11.2779
   -11.2643 -11.1781 -11.1365 -11.1211 -11.0204 -11.0018 -10.9824 -10.9063
   -10.8695 -10.8618 -10.8564 -10.8558 -10.8514 -10.8271 -10.7561 -10.6684
   -10.6542 -10.6306 -10.6277 -10.5816 -10.5707 -10.5385 -10.5293 -10.5237
   -10.5155 -10.5033 -10.4888 -10.4578 -10.4484 -10.4477 -10.4367 -10.4332
   -10.4286 -10.4144 -10.4062 -10.3835 -10.3384 -10.2352 -10.2255 -10.2126
   -10.1113 -10.0924 -10.0697 -10.0483 -10.0361 -10.0166 -10.0051  -9.9943
    -9.9758  -9.5398  -9.5298  -9.5272  -9.5233  -9.5218  -9.5198  -9.5187
    -9.5140  -9.5044  -9.5026  -9.4644  -9.4635  -9.4500  -9.2668  -9.1278
    -9.0913  -9.0799  -9.0742  -9.0607  -9.0554  -9.0548  -9.0428  -9.0374
    -8.9912  -8.9086  -8.8929  -8.8882  -8.8699  -8.8676  -8.8168  -8.6952
    -8.6075  -8.6067  -8.4582  -8.4439  -8.4427  -8.1026  -8.0879  -7.9524
    -7.9446  -7.9442  -7.9366  -7.9359  -7.9239  -7.9142  -7.9107  -7.8971
    -7.8729  -7.8702  -7.7152  -7.7052  -7.7021  -7.6978  -7.6947  -7.6907
    -7.6903  -7.6865  -7.6659  -7.6647  -7.6536  -7.4007  -7.4005  -7.3595
    -7.0702  -7.0628  -7.0529  -7.0346  -7.0133  -6.8057  -6.3669  -6.3662
    -6.3592  -6.3410  -6.3388  -6.2559  -6.0924  -6.0864  -6.0787  -6.0750
    -6.0682  -6.0664  -6.0571  -6.0512  -6.0374  -6.0321  -6.0215  -5.0267
    -4.2768  -4.2442  -4.2281  -4.2204  -3.9680  -3.1036  -2.6736  -2.6633
    -2.6551  -2.6521  -2.6414  -2.6390  -2.5877  -2.5860  -2.5683  -2.5569
    -2.5547  -2.5522  -2.5462  -2.5333  -2.5232  -2.4385  -2.4370  -2.2127
    -2.0602  -2.0492  -2.0327  -1.9960  -1.9675  -1.5678  -0.9823  -0.9755

     the Fermi energy is    -4.2239 ev

!    total energy              =   -1939.06455547 Ry
     estimated scf accuracy    <          1.5E-12 Ry
     smearing contrib. (-TS)   =      -0.01241494 Ry
     internal energy E=F+TS    =   -1939.05214053 Ry

     The total energy is F=E-TS. E is the sum of the following terms:
     one-electron contribution =  -21951.25040476 Ry
     hartree contribution      =   11035.74976275 Ry
     xc contribution           =    -689.86217884 Ry
     ewald contribution        =    9666.31068032 Ry

     convergence has been achieved in  14 iterations

     Forces acting on atoms (cartesian axes, Ry/au):

     atom    1 type  1   force =    -0.00049532   -0.00000003   -0.00000000
     atom    2 type  1   force =    -0.00064126    0.00000012    0.00000001
     atom    3 type  1   force =    -0.00072485    0.00031268   -0.00000001
     atom    4 type  1   force =    -0.00030804    0.00011612   -0.00000000
     atom    5 type  1   force =    -0.00051258    0.00057137    0.00000001
     atom    6 type  1   force =     0.00009556    0.00032670    0.00000001
     atom    7 type  1   force =    -0.00026069    0.00038411   -0.00000000
     atom    8 type  1   force =     0.00033259   -0.00008554   -0.00000001
     atom    9 type  1   force =    -0.00021487    0.00021803    0.00000001
     atom   10 type  1   force =    -0.00030421   -0.00008900    0.00000000
     atom   11 type  1   force =     0.00012805   -0.00028950    0.00000000
     atom   12 type  1   force =     0.00004541   -0.00023451    0.00000001
     atom   13 type  1   force =     0.00025623   -0.00083498   -0.00000002
     atom   14 type  1   force =     0.00037129   -0.00014831   -0.00000000
     atom   15 type  1   force =    -0.00008599   -0.00017820   -0.00000000
     atom   16 type  1   force =     0.00019230    0.00007395    0.00000001
     atom   17 type  1   force =    -0.00022191    0.00012553    0.00000000
     atom   18 type  1   force =    -0.00026597   -0.00025668    0.00000000
     atom   19 type  1   force =    -0.00072477   -0.00031279    0.00000000
     atom   20 type  1   force =    -0.00030806   -0.00011592   -0.00000001
     atom   21 type  1   force =    -0.00052420   -0.00000013    0.00000000
     atom   22 type  1   force =     0.00002748    0.00000009    0.00000001
     atom   23 type  1   force =    -0.00038444    0.00032531    0.00000000
     atom   24 type  1   force =     0.00007319    0.00010720   -0.00000001
     atom   25 type  1   force =    -0.00024961   -0.00002984    0.00000001
     atom   26 type  1   force =    -0.00038849   -0.00020892   -0.00000001
     atom   27 type  1   force =    -0.00040746    0.00007402    0.00000000
     atom   28 type  1   force =    -0.00105795   -0.00016303    0.00000000
     atom   29 type  1   force =     0.00002090   -0.00036792   -0.00000000
     atom   30 type  1   force =    -0.00011345    0.00017708   -0.00000001
     atom   31 type  1   force =     0.00001233   -0.00036858    0.00000000
     atom   32 type  1   force =     0.00050446    0.00035546   -0.00000001
     atom   33 type  1   force =    -0.00002368    0.00024049   -0.00000000
     atom   34 type  1   force =    -0.00021226   -0.00023207   -0.00000001
     atom   35 type  1   force =    -0.00006959   -0.00021034   -0.00000000
     atom   36 type  1   force =    -0.00054980   -0.00018548   -0.00000000
     atom   37 type  1   force =    -0.00051253   -0.00057136    0.00000001
     atom   38 type  1   force =     0.00009564   -0.00032669    0.00000000
     atom   39 type  1   force =    -0.00038458   -0.00032546   -0.00000000
     atom   40 type  1   force =     0.00007341   -0.00010722    0.00000000
     atom   41 type  1   force =    -0.00053469    0.00000001   -0.00000001
     atom   42 type  1   force =    -0.00052230   -0.00000016    0.00000000
     atom   43 type  1   force =    -0.00021454   -0.00004332   -0.00000000
     atom   44 type  1   force =    -0.00065202   -0.00013052    0.00000001
     atom   45 type  1   force =    -0.00013784    0.00036077    0.00000000
     atom   46 type  1   force =    -0.00043433    0.00008712   -0.00000002
     atom   47 type  1   force =    -0.00023020    0.00024210    0.00000001
     atom   48 type  1   force =    -0.00008181    0.00048620    0.00000000
     atom   49 type  1   force =     0.00004614    0.00019376   -0.00000000
     atom   50 type  1   force =     0.00005657   -0.00032701    0.00000000
     atom   51 type  1   force =     0.00024196   -0.00012850   -0.00000001
     atom   52 type  1   force =    -0.00011511   -0.00028309   -0.00000001
     atom   53 type  1   force =    -0.00010641    0.00000938   -0.00000000
     atom   54 type  1   force =    -0.00014822   -0.00030136   -0.00000000
     atom   55 type  1   force =    -0.00026085   -0.00038387    0.00000000
     atom   56 type  1   force =     0.00033299    0.00008544   -0.00000000
     atom   57 type  1   force =    -0.00025004    0.00002989    0.00000001
     atom   58 type  1   force =    -0.00038807    0.00020872   -0.00000001
     atom   59 type  1   force =    -0.00021466    0.00004357   -0.00000001
     atom   60 type  1   force =    -0.00065202    0.00013019    0.00000002
     atom   61 type  1   force =     0.00045244    0.00000018   -0.00000000
     atom   62 type  1   force =    -0.00043997   -0.00000009   -0.00000001
     atom   63 type  1   force =     0.00019980    0.00018726   -0.00000000
     atom   64 type  1   force =     0.00051006    0.00106581   -0.00000001
     atom   65 type  1   force =    -0.00054894   -0.00000027    0.00000001
     atom   66 type  1   force =     0.00016563   -0.00018732    0.00000001
     atom   67 type  1   force =     0.00012894   -0.00012101    0.00000000
     atom   68 type  1   force =    -0.00004811   -0.00057630   -0.00000000
     atom   69 type  1   force =     0.00016666    0.00026983   -0.00000000
     atom   70 type  1   force =    -0.00006143   -0.00037834    0.00000000
     atom   71 type  1   force =    -0.00016842    0.00010145   -0.00000000
     atom   72 type  1   force =     0.00006264   -0.00021098   -0.00000000
     atom   73 type  1   force =    -0.00021517   -0.00021789    0.00000000
     atom   74 type  1   force =    -0.00030385    0.00008918   -0.00000001
     atom   75 type  1   force =    -0.00040781   -0.00007403    0.00000001
     atom   76 type  1   force =    -0.00105785    0.00016308    0.00000000
     atom   77 type  1   force =    -0.00013780   -0.00036071   -0.00000001
     atom   78 type  1   force =    -0.00043444   -0.00008717    0.00000000
     atom   79 type  1   force =     0.00019982   -0.00018719    0.00000002
     atom   80 type  1   force =     0.00050999   -0.00106585   -0.00000000
     atom   81 type  1   force =     0.00030980    0.00000025    0.00000001
     atom   82 type  1   force =    -0.00022748    0.00003224    0.00000002
     atom   83 type  1   force =     0.00033484   -0.00017415   -0.00000000
     atom   84 type  1   force =     0.00077388    0.00033008    0.00000000
     atom   85 type  1   force =     0.00014084    0.00013550   -0.00000000
     atom   86 type  1   force =     0.00067352    0.00052410    0.00000001
     atom   87 type  1   force =     0.00008735    0.00003782   -0.00000001
     atom   88 type  1   force =     0.00003712   -0.00000156    0.00000001
     atom   89 type  1   force =     0.00022650    0.00022553   -0.00000001
     atom   90 type  1   force =     0.00012789    0.00028935    0.00000000
     atom   91 type  1   force =     0.00004550    0.00023472   -0.00000000
     atom   92 type  1   force =     0.00002101    0.00036773    0.00000001
     atom   93 type  1   force =    -0.00011359   -0.00017687   -0.00000000
     atom   94 type  1   force =    -0.00023013   -0.00024217   -0.00000000
     atom   95 type  1   force =    -0.00008184   -0.00048627   -0.00000001
     atom   96 type  1   force =    -0.00054878    0.00000031   -0.00000001
     atom   97 type  1   force =     0.00016542    0.00018728   -0.00000000
     atom   98 type  1   force =    -0.00022728   -0.00003259   -0.00000002
     atom   99 type  1   force =     0.00033480    0.00017467    0.00000002
     atom  100 type  1   force =     0.00096841   -0.00000036   -0.00000000
     atom  101 type  1   force =     0.00007913    0.00000038   -0.00000002
     atom  102 type  1   force =     0.00086159    0.00021128   -0.00000000
     atom  103 type  1   force =    -0.00009220    0.00008628    0.00000000
     atom  104 type  1   force =     0.00030206    0.00020201    0.00000001
     atom  105 type  1   force =     0.00012941    0.00025040    0.00000000
     atom  106 type  1   force =     0.00000119    0.00017839    0.00000000
     atom  107 type  1   force =     0.00047856    0.00046925    0.00000001
     atom  108 type  1   force =     0.00025627    0.00083485    0.00000000
     atom  109 type  1   force =     0.00037122    0.00014842   -0.00000000
     atom  110 type  1   force =     0.00001238    0.00036841    0.00000001
     atom  111 type  1   force =     0.00050447   -0.00035541   -0.00000000
     atom  112 type  1   force =     0.00004615   -0.00019374   -0.00000001
     atom  113 type  1   force =     0.00005652    0.00032706    0.00000001
     atom  114 type  1   force =     0.00012899    0.00012101   -0.00000000
     atom  115 type  1   force =    -0.00004818    0.00057609    0.00000001
     atom  116 type  1   force =     0.00077414   -0.00033028   -0.00000000
     atom  117 type  1   force =     0.00014075   -0.00013537   -0.00000001
     atom  118 type  1   force =     0.00086164   -0.00021187    0.00000001
     atom  119 type  1   force =    -0.00009200   -0.00008585    0.00000001
     atom  120 type  1   force =    -0.00005243   -0.00000032   -0.00000001
     atom  121 type  1   force =    -0.00027468    0.00000011    0.00000001
     atom  122 type  1   force =    -0.00040494    0.00018581   -0.00000001
     atom  123 type  1   force =     0.00041351    0.00034132   -0.00000001
     atom  124 type  1   force =     0.00024886    0.00060906    0.00000001
     atom  125 type  1   force =     0.00071782    0.00072505   -0.00000001
     atom  126 type  1   force =    -0.00008599    0.00017813   -0.00000001
     atom  127 type  1   force =     0.00019235   -0.00007385    0.00000001
     atom  128 type  1   force =    -0.00002375   -0.00024051   -0.00000001
     atom  129 type  1   force =    -0.00021223    0.00023216    0.00000001
     atom  130 type  1   force =     0.00024194    0.00012842    0.00000000
     atom  131 type  1   force =    -0.00011513    0.00028290   -0.00000000
     atom  132 type  1   force =     0.00016669   -0.00026949    0.00000001
     atom  133 type  1   force =    -0.00006151    0.00037788    0.00000000
     atom  134 type  1   force =     0.00067351   -0.00052382   -0.00000000
     atom  135 type  1   force =     0.00008758   -0.00003816   -0.00000000
     atom  136 type  1   force =     0.00030174   -0.00020202    0.00000001
     atom  137 type  1   force =     0.00012975   -0.00025042   -0.00000001
     atom  138 type  1   force =    -0.00040508   -0.00018593    0.00000000
     atom  139 type  1   force =     0.00041357   -0.00034137   -0.00000001
     atom  140 type  1   force =     0.00014201    0.00000006   -0.00000001
     atom  141 type  1   force =     0.00078462   -0.00000003    0.00000000
     atom  142 type  1   force =     0.00052230    0.00048175   -0.00000000
     atom  143 type  1   force =     0.00061268    0.00035076    0.00000000
     atom  144 type  1   force =    -0.00022195   -0.00012553    0.00000000
     atom  145 type  1   force =    -0.00026592    0.00025675   -0.00000001
     atom  146 type  1   force =    -0.00006960    0.00021032   -0.00000001
     atom  147 type  1   force =    -0.00054977    0.00018547    0.00000000
     atom  148 type  1   force =    -0.00010648   -0.00000924    0.00000001
     atom  149 type  1   force =    -0.00014821    0.00030116   -0.00000002
     atom  150 type  1   force =    -0.00016849   -0.00010098    0.00000001
     atom  151 type  1   force =     0.00006263    0.00021054   -0.00000001
     atom  152 type  1   force =     0.00003698    0.00000207   -0.00000001
     atom  153 type  1   force =     0.00022654   -0.00022572   -0.00000000
     atom  154 type  1   force =     0.00000102   -0.00017826    0.00000001
     atom  155 type  1   force =     0.00047858   -0.00046915    0.00000000
     atom  156 type  1   force =     0.00024878   -0.00060909   -0.00000001
     atom  157 type  1   force =     0.00071781   -0.00072501    0.00000001
     atom  158 type  1   force =     0.00052231   -0.00048168    0.00000001
     atom  159 type  1   force =     0.00061264   -0.00035080    0.00000001
     atom  160 type  1   force =     0.00008392    0.00000005   -0.00000000
     atom  161 type  1   force =     0.00034706   -0.00000002   -0.00000000

     Total force =     0.006117     Total SCF correction =     0.000001
     Energy error            =      3.8E-05 Ry
     Gradient error          =      1.1E-03 Ry/Bohr

     number of scf cycles    =  19
     number of bfgs steps    =  18

     energy             old  =   -1939.0645173254 Ry
     energy             new  =   -1939.0645554663 Ry

     CASE: energy            _new < energy            _old

     new trust radius        =       0.0050291482 bohr
     new conv_thr            =            3.8E-12 Ry


ATOMIC_POSITIONS (crystal)
C                0.0368744824        0.0368744808       -0.0000000021
C                0.0738856948        0.0738856962       -0.0000000027
C                0.0366419127        0.1480982324       -0.0000000030
C                0.0737028400        0.1850258557       -0.0000000032
C                0.0365938140        0.2592234972       -0.0000000022
C                0.0736926979        0.2961682371       -0.0000000003
C                0.0367775018        0.3702380307        0.0000000020
C                0.0738414611        0.4072967938       -0.0000000004
C                0.0371459020        0.4814129190       -0.0000000040
C                0.0741575230        0.5184054114       -0.0000000047
C                0.0373907040        0.5925334685       -0.0000000036
C                0.0746132172        0.6293753279       -0.0000000005
C                0.0376189691        0.7034211029        0.0000000021
C                0.0749518415        0.7401210507        0.0000000013
C                0.0377058655        0.8143136765       -0.0000000014
C                0.0749064742        0.8510039504       -0.0000000013
C                0.0374036039        0.9254615738       -0.0000000037
C                0.0742483375        0.9625584497       -0.0000000019
C                0.1480982368        0.0366419093       -0.0000000028
C                0.1850258585        0.0737028387       -0.0000000044
C                0.1478767758        0.1478767717       -0.0000000043
C                0.1849235815        0.1849235771       -0.0000000027
C                0.1478728499        0.2590211022       -0.0000000001
C                0.1847842906        0.2960340307        0.0000000022
C                0.1477740423        0.3701701378       -0.0000000013
C                0.1847187560        0.4071831798       -0.0000000010
C                0.1482357005        0.4812207494       -0.0000000022
C                0.1855045738        0.5180685821       -0.0000000006
C                0.1489210509        0.5921144840        0.0000000011
C                0.1864356154        0.6285611448        0.0000000027
C                0.1493563286        0.7025896116        0.0000000041
C                0.1871388857        0.7387541304        0.0000000040
C                0.1494520672        0.8132871366        0.0000000039
C                0.1859388632        0.8508085107        0.0000000056
C                0.1485295945        0.9251931304        0.0000000023
C                0.1853161068        0.9623621216        0.0000000011
C                0.2592234986        0.0365938124       -0.0000000052
C                0.2961682367        0.0736926951       -0.0000000052
C                0.2590211039        0.1478728492       -0.0000000023
C                0.2960340275        0.1847842921        0.0000000038
C                0.2589394650        0.2589394606        0.0000000051
C                0.2958063677        0.2958063742        0.0000000036
C                0.2586780033        0.3699528180        0.0000000005
C                0.2953718985        0.4068097246       -0.0000000003
C                0.2595565400        0.4806650655        0.0000000001
C                0.2971937168        0.5172321092        0.0000000022
C                0.2611521933        0.5908049936        0.0000000013
C                0.3003145959        0.6255574970       -0.0000000033
C                0.2620459388        0.7007490162       -0.0000000001
C                0.2974228309        0.7391662215       -0.0000000021
C                0.2600830392        0.8135148422        0.0000000047
C                0.2966610725        0.8510912779        0.0000000045
C                0.2595395925        0.9251276578        0.0000000026
C                0.2964051890        0.9624954669       -0.0000000003
C                0.3702380353        0.0367775017       -0.0000000040
C                0.4072967925        0.0738414564       -0.0000000005
C                0.3701701411        0.1477740417        0.0000000032
C                0.4071831752        0.1847187556        0.0000000050
C                0.3699528218        0.2586780055        0.0000000045
C                0.4068097178        0.2953718985        0.0000000006
C                0.3693824662        0.3693824681       -0.0000000004
C                0.4056022220        0.4056022194       -0.0000000024
C                0.3718323777        0.4790841466        0.0000000001
C                0.4122787174        0.5110468296       -0.0000000083
C                0.3766066097        0.5861890824       -0.0000000101
C                0.4088659214        0.6282711273       -0.0000000096
C                0.3716664555        0.7018463005       -0.0000000052
C                0.4081451259        0.7401124477       -0.0000000020
C                0.3709202062        0.8140691856        0.0000000006
C                0.4076989162        0.8514574124       -0.0000000011
C                0.3704732245        0.9256269951       -0.0000000007
C                0.4073995546        0.9627309127       -0.0000000041
C                0.4814129186        0.0371459019       -0.0000000001
C                0.5184054116        0.0741575235       -0.0000000003
C                0.4812207502        0.1482357029        0.0000000017
C                0.5180685776        0.1855045767       -0.0000000006
C                0.4806650663        0.2595565440       -0.0000000015
C                0.5172321118        0.2971937172       -0.0000000036
C                0.4790841441        0.3718323863       -0.0000000064
C                0.5110468275        0.4122787226       -0.0000000077
C                0.5221516603        0.5221516568        0.0000000215
C                0.4828035567        0.5929854364       -0.0000000021
C                0.5197569957        0.6304559460       -0.0000000023
C                0.4820225568        0.7042134185       -0.0000000026
C                0.5190061441        0.7411591153       -0.0000000035
C                0.4817535618        0.8149786279       -0.0000000027
C                0.5187879076        0.8520851109       -0.0000000046
C                0.4815927642        0.9260031387       -0.0000000052
C                0.5185845428        0.9630529440       -0.0000000031
C                0.5925334666        0.0373907051       -0.0000000032
C                0.6293753263        0.0746132194       -0.0000000025
C                0.5921144838        0.1489210515       -0.0000000023
C                0.6285611447        0.1864356153       -0.0000000020
C                0.5908049904        0.2611521994       -0.0000000008
C                0.6255574977        0.3003145953        0.0000000020
C                0.5861890840        0.3766066131       -0.0000000005
C                0.6282711350        0.4088659105        0.0000000058
C                0.5929854371        0.4828035631        0.0000000126
C                0.6304559452        0.5197569964        0.0000000067
C                0.5933945106        0.5933945072        0.0000000043
C                0.6304076140        0.6304076134        0.0000000050
C                0.5931761503        0.7042084863        0.0000000012
C                0.6301056125        0.7411598087        0.0000000013
C                0.5928608169        0.8152275620       -0.0000000021
C                0.6298368473        0.8521886676       -0.0000000023
C                0.5926642001        0.9262303358       -0.0000000042
C                0.6296800762        0.9633201103       -0.0000000040
C                0.7034211018        0.0376189716       -0.0000000016
C                0.7401210515        0.0749518431       -0.0000000025
C                0.7025896116        0.1493563306       -0.0000000027
C                0.7387541343        0.1871388833        0.0000000008
C                0.7007490159        0.2620459426        0.0000000018
C                0.7391662229        0.2974228302        0.0000000001
C                0.7018462976        0.3716664603        0.0000000032
C                0.7401124533        0.4081451238        0.0000000029
C                0.7042134187        0.4820225574        0.0000000058
C                0.7411591161        0.5190061459        0.0000000062
C                0.7042084864        0.5931761508        0.0000000056
C                0.7411598094        0.6301056091        0.0000000043
C                0.7041131111        0.7041131170        0.0000000031
C                0.7411381473        0.7411381486        0.0000000033
C                0.7040156456        0.8151564812        0.0000000022
C                0.7409616754        0.8521515516        0.0000000050
C                0.7037877791        0.9263222592        0.0000000002
C                0.7406949056        0.9633594550       -0.0000000006
C                0.8143136762        0.0377058641       -0.0000000021
C                0.8510039555        0.0749064723       -0.0000000029
C                0.8132871364        0.1494520700       -0.0000000002
C                0.8508085155        0.1859388631       -0.0000000019
C                0.8135148428        0.2600830387       -0.0000000023
C                0.8510912825        0.2966610751       -0.0000000014
C                0.8140691859        0.3709202065        0.0000000006
C                0.8514574137        0.4076989205        0.0000000023
C                0.8149786323        0.4817535609        0.0000000057
C                0.8520851069        0.5187879099        0.0000000043
C                0.8152275644        0.5928608207        0.0000000038
C                0.8521886652        0.6298368463        0.0000000030
C                0.8151564809        0.7040156492        0.0000000042
C                0.8521515501        0.7409616769        0.0000000062
C                0.8150636807        0.8150636812        0.0000000061
C                0.8520867985        0.8520868012        0.0000000019
C                0.8148738404        0.9262446931       -0.0000000004
C                0.8517507437        0.9633305452       -0.0000000008
C                0.9254615749        0.0374036030       -0.0000000037
C                0.9625584520        0.0742483355       -0.0000000016
C                0.9251931274        0.1485295973       -0.0000000020
C                0.9623621273        0.1853161042       -0.0000000024
C                0.9251276572        0.2595395935       -0.0000000011
C                0.9624954705        0.2964051880        0.0000000003
C                0.9256270005        0.3704732217        0.0000000019
C                0.9627309150        0.4073995572        0.0000000030
C                0.9260031442        0.4815927616        0.0000000027
C                0.9630529452        0.5185845436       -0.0000000010
C                0.9262303358        0.5926642020        0.0000000011
C                0.9633201118        0.6296800778       -0.0000000008
C                0.9263222559        0.7037877793        0.0000000028
C                0.9633594539        0.7406949079        0.0000000004
C                0.9262446933        0.8148738419       -0.0000000003
C                0.9633305403        0.8517507448       -0.0000000022
C                0.9260071677        0.9260071688       -0.0000000017
C                0.9630048421        0.9630048404       -0.0000000040



     Writing config-only to output data dir /home/gregb26/links/scratch/qe_tmp/vacancy_relaxed/nspin1/vac_9x9_relax_nspin1.save/ :
     XML data file
     NEW-OLD atomic charge density approx. for the potential

     negative rho (up, down):  8.778E-07 0.000E+00

     total cpu time spent up to now is     2648.4 secs

     per-process dynamical memory:   351.9 Mb

     Self-consistent Calculation

     iteration #  1     ecut=   100.00 Ry     beta= 0.30
     Davidson diagonalization with overlap
     ethr =  1.00E-06,  avg # of iterations =  3.0

     negative rho (up, down):  5.706E-07 0.000E+00

     total cpu time spent up to now is     2659.6 secs

     total energy              =   -1939.06427282 Ry
     estimated scf accuracy    <       0.00065992 Ry

     iteration #  2     ecut=   100.00 Ry     beta= 0.30
     Davidson diagonalization with overlap
     ethr =  1.02E-07,  avg # of iterations =  5.0

     negative rho (up, down):  5.602E-07 0.000E+00

     total cpu time spent up to now is     2669.0 secs

     total energy              =   -1939.06145773 Ry
     estimated scf accuracy    <       0.23443424 Ry

     iteration #  3     ecut=   100.00 Ry     beta= 0.30
     Davidson diagonalization with overlap
     ethr =  1.02E-07,  avg # of iterations =  5.0

     negative rho (up, down):  4.360E-07 0.000E+00

     total cpu time spent up to now is     2677.4 secs

     total energy              =   -1939.06459739 Ry
     estimated scf accuracy    <       0.00002306 Ry

     iteration #  4     ecut=   100.00 Ry     beta= 0.30
     Davidson diagonalization with overlap
     ethr =  3.58E-09,  avg # of iterations =  5.0

     negative rho (up, down):  2.514E-07 0.000E+00

     total cpu time spent up to now is     2687.8 secs

     total energy              =   -1939.06460072 Ry
     estimated scf accuracy    <       0.00001328 Ry

     iteration #  5     ecut=   100.00 Ry     beta= 0.30
     Davidson diagonalization with overlap
     ethr =  2.06E-09,  avg # of iterations =  2.0

     negative rho (up, down):  7.277E-08 0.000E+00

     total cpu time spent up to now is     2695.5 secs

     total energy              =   -1939.06460083 Ry
     estimated scf accuracy    <       0.00000398 Ry

     iteration #  6     ecut=   100.00 Ry     beta= 0.30
     Davidson diagonalization with overlap
     ethr =  6.18E-10,  avg # of iterations =  2.0

     negative rho (up, down):  2.152E-08 0.000E+00

     total cpu time spent up to now is     2703.3 secs

     total energy              =   -1939.06460107 Ry
     estimated scf accuracy    <       0.00000038 Ry

     iteration #  7     ecut=   100.00 Ry     beta= 0.30
     Davidson diagonalization with overlap
     ethr =  5.90E-11,  avg # of iterations =  5.0

     negative rho (up, down):  1.192E-08 0.000E+00

     total cpu time spent up to now is     2714.3 secs

     total energy              =   -1939.06460115 Ry
     estimated scf accuracy    <       0.00000026 Ry

     iteration #  8     ecut=   100.00 Ry     beta= 0.30
     Davidson diagonalization with overlap
     ethr =  4.05E-11,  avg # of iterations =  2.0

     total cpu time spent up to now is     2722.0 secs

     total energy              =   -1939.06460116 Ry
     estimated scf accuracy    <       0.00000009 Ry

     iteration #  9     ecut=   100.00 Ry     beta= 0.30
     Davidson diagonalization with overlap
     ethr =  1.40E-11,  avg # of iterations =  2.0

     total cpu time spent up to now is     2730.0 secs

     total energy              =   -1939.06460117 Ry
     estimated scf accuracy    <          8.5E-09 Ry

     iteration # 10     ecut=   100.00 Ry     beta= 0.30
     Davidson diagonalization with overlap
     ethr =  1.32E-12,  avg # of iterations =  5.0

     total cpu time spent up to now is     2740.8 secs

     total energy              =   -1939.06460117 Ry
     estimated scf accuracy    <          2.4E-09 Ry

     iteration # 11     ecut=   100.00 Ry     beta= 0.30
     Davidson diagonalization with overlap
     ethr =  3.68E-13,  avg # of iterations =  4.0

     total cpu time spent up to now is     2749.7 secs

     total energy              =   -1939.06460117 Ry
     estimated scf accuracy    <          2.5E-09 Ry

     iteration # 12     ecut=   100.00 Ry     beta= 0.30
     Davidson diagonalization with overlap
     ethr =  3.68E-13,  avg # of iterations =  1.0

     total cpu time spent up to now is     2757.0 secs

     total energy              =   -1939.06460117 Ry
     estimated scf accuracy    <          1.8E-10 Ry

     iteration # 13     ecut=   100.00 Ry     beta= 0.30
     Davidson diagonalization with overlap
     ethr =  1.00E-13,  avg # of iterations =  2.0

     total cpu time spent up to now is     2765.1 secs

     total energy              =   -1939.06460117 Ry
     estimated scf accuracy    <          8.0E-11 Ry

     iteration # 14     ecut=   100.00 Ry     beta= 0.30
     Davidson diagonalization with overlap
     ethr =  1.00E-13,  avg # of iterations =  1.0

     total cpu time spent up to now is     2772.5 secs

     total energy              =   -1939.06460117 Ry
     estimated scf accuracy    <          6.4E-12 Ry

     iteration # 15     ecut=   100.00 Ry     beta= 0.30
     Davidson diagonalization with overlap
     ethr =  1.00E-13,  avg # of iterations =  1.0

     total cpu time spent up to now is     2780.1 secs

     total energy              =   -1939.06460117 Ry
     estimated scf accuracy    <          8.7E-12 Ry

     iteration # 16     ecut=   100.00 Ry     beta= 0.30
     Davidson diagonalization with overlap
     ethr =  1.00E-13,  avg # of iterations =  1.0

     total cpu time spent up to now is     2787.2 secs

     total energy              =   -1939.06460117 Ry
     estimated scf accuracy    <          4.3E-12 Ry

     iteration # 17     ecut=   100.00 Ry     beta= 0.30
     Davidson diagonalization with overlap
     ethr =  1.00E-13,  avg # of iterations =  1.0

     total cpu time spent up to now is     2794.3 secs

     End of self-consistent calculation

          k = 0.0000 0.0000 0.0000 (385710 PWs)   bands (ev):

   -23.7921 -23.5483 -23.5216 -23.5136 -23.5011 -23.4799 -23.4088 -22.9589
   -22.9370 -22.9367 -22.9300 -22.9019 -22.8407 -22.6647 -22.6572 -22.6446
   -22.6328 -22.6124 -22.4696 -21.8128 -21.8043 -21.7980 -21.7974 -21.7948
   -21.7881 -21.7868 -21.7791 -21.7722 -21.7710 -21.7171 -21.5337 -21.2429
   -21.2250 -21.2194 -21.2050 -21.1823 -21.0065 -20.4010 -20.3977 -20.3868
   -20.3775 -20.3578 -20.3077 -20.1365 -20.1311 -20.1241 -20.1230 -20.1181
   -20.1128 -20.1070 -20.1016 -20.0867 -20.0845 -20.0303 -19.7077 -19.3388
   -19.3302 -19.3146 -19.2875 -19.2865 -19.0974 -18.5678 -18.5613 -18.5591
   -18.5568 -18.5468 -18.5456 -18.5278 -18.5263 -18.5129 -18.4920 -18.4874
   -18.4372 -18.3843 -18.3811 -18.3693 -18.3531 -18.3325 -17.7321 -17.3486
   -17.3483 -17.3454 -17.3023 -17.2652 -17.1820 -16.9029 -16.8598 -16.8554
   -16.7798 -16.6736 -16.6732 -16.6648 -16.6012 -16.5862 -16.4286 -16.0973
   -16.0970 -16.0912 -16.0905 -16.0846 -16.0831 -16.0786 -16.0719 -16.0512
   -15.9382 -15.9369 -15.5488 -15.2382 -15.2305 -15.2184 -15.2155 -15.2113
   -15.2103 -15.2066 -15.1917 -15.1878 -15.0822 -15.0690 -14.8085 -14.7748
   -14.4635 -13.9808 -13.9739 -13.9725 -13.9486 -13.9478 -13.9382 -13.9370
   -13.9315 -13.9133 -13.8473 -13.8134 -13.5596 -13.4651 -13.4511 -13.4465
   -13.4420 -13.4382 -13.4351 -13.4263 -13.4230 -13.4132 -13.2187 -13.1916
   -12.9179 -12.5154 -12.5037 -12.4641 -12.4640 -12.4547 -12.4529 -12.4528
   -12.4472 -12.4471 -12.4438 -12.4390 -12.4251 -12.4233 -12.4220 -12.4072
   -12.1663 -12.1533 -11.8766 -11.7137 -11.6251 -11.6226 -11.6132 -11.5673
   -11.5514 -11.5454 -11.5411 -11.5346 -11.5217 -11.5140 -11.4529 -11.4227
   -11.3546 -11.3333 -11.3286 -11.3212 -11.3150 -11.3131 -11.3058 -11.2790
   -11.2650 -11.1775 -11.1373 -11.1215 -11.0202 -11.0019 -10.9831 -10.9067
   -10.8692 -10.8619 -10.8569 -10.8561 -10.8516 -10.8274 -10.7554 -10.6688
   -10.6545 -10.6310 -10.6280 -10.5824 -10.5710 -10.5392 -10.5292 -10.5240
   -10.5158 -10.5036 -10.4892 -10.4581 -10.4485 -10.4478 -10.4362 -10.4332
   -10.4288 -10.4151 -10.4069 -10.3845 -10.3385 -10.2353 -10.2241 -10.2113
   -10.1115 -10.0928 -10.0703 -10.0487 -10.0369 -10.0176 -10.0058  -9.9952
    -9.9763  -9.5394  -9.5299  -9.5272  -9.5232  -9.5217  -9.5198  -9.5190
    -9.5143  -9.5044  -9.5030  -9.4644  -9.4644  -9.4507  -9.2670  -9.1265
    -9.0915  -9.0809  -9.0755  -9.0611  -9.0552  -9.0541  -9.0424  -9.0364
    -8.9926  -8.9087  -8.8929  -8.8881  -8.8701  -8.8682  -8.8129  -8.6951
    -8.6086  -8.6075  -8.4574  -8.4444  -8.4431  -8.1021  -8.0863  -7.9480
    -7.9448  -7.9443  -7.9366  -7.9359  -7.9237  -7.9146  -7.9114  -7.8945
    -7.8724  -7.8712  -7.7148  -7.7055  -7.7023  -7.6982  -7.6948  -7.6904
    -7.6897  -7.6868  -7.6667  -7.6652  -7.6544  -7.4005  -7.4004  -7.3592
    -7.0698  -7.0624  -7.0526  -7.0353  -7.0141  -6.8059  -6.3673  -6.3665
    -6.3591  -6.3414  -6.3391  -6.2561  -6.0918  -6.0857  -6.0784  -6.0749
    -6.0683  -6.0662  -6.0576  -6.0516  -6.0384  -6.0327  -6.0226  -5.0259
    -4.2765  -4.2443  -4.2285  -4.2200  -3.9676  -3.1242  -2.6737  -2.6630
    -2.6551  -2.6515  -2.6410  -2.6384  -2.5870  -2.5853  -2.5683  -2.5567
    -2.5544  -2.5518  -2.5463  -2.5341  -2.5236  -2.4389  -2.4379  -2.2125
    -2.0601  -2.0490  -2.0324  -1.9956  -1.9680  -1.5672  -0.9819  -0.9754

     the Fermi energy is    -4.2239 ev

!    total energy              =   -1939.06460117 Ry
     estimated scf accuracy    <          4.7E-13 Ry
     smearing contrib. (-TS)   =      -0.01241885 Ry
     internal energy E=F+TS    =   -1939.05218232 Ry

     The total energy is F=E-TS. E is the sum of the following terms:
     one-electron contribution =  -21951.35384140 Ry
     hartree contribution      =   11035.80036939 Ry
     xc contribution           =    -689.86578402 Ry
     ewald contribution        =    9666.36707371 Ry

     convergence has been achieved in  17 iterations

     Forces acting on atoms (cartesian axes, Ry/au):

     atom    1 type  1   force =    -0.00059725    0.00000003   -0.00000000
     atom    2 type  1   force =    -0.00068710   -0.00000014    0.00000000
     atom    3 type  1   force =    -0.00068459    0.00028249   -0.00000000
     atom    4 type  1   force =    -0.00004653   -0.00016783   -0.00000000
     atom    5 type  1   force =    -0.00031188    0.00051862    0.00000001
     atom    6 type  1   force =     0.00002931    0.00059976    0.00000000
     atom    7 type  1   force =     0.00012560    0.00023537   -0.00000001
     atom    8 type  1   force =     0.00008113    0.00062714   -0.00000001
     atom    9 type  1   force =    -0.00028495    0.00014252    0.00000001
     atom   10 type  1   force =    -0.00035934    0.00010401    0.00000000
     atom   11 type  1   force =    -0.00024457   -0.00020429    0.00000000
     atom   12 type  1   force =    -0.00012613   -0.00030122    0.00000001
     atom   13 type  1   force =     0.00017755   -0.00061149   -0.00000002
     atom   14 type  1   force =     0.00072763   -0.00010187    0.00000001
     atom   15 type  1   force =    -0.00004155    0.00022984    0.00000000
     atom   16 type  1   force =     0.00037122   -0.00003630    0.00000001
     atom   17 type  1   force =    -0.00033324    0.00029542    0.00000001
     atom   18 type  1   force =    -0.00047985    0.00001838    0.00000000
     atom   19 type  1   force =    -0.00068467   -0.00028237    0.00000000
     atom   20 type  1   force =    -0.00004663    0.00016779   -0.00000000
     atom   21 type  1   force =    -0.00033606    0.00000006    0.00000000
     atom   22 type  1   force =    -0.00046989    0.00000008    0.00000000
     atom   23 type  1   force =     0.00020234    0.00019364    0.00000000
     atom   24 type  1   force =    -0.00029773    0.00038032   -0.00000000
     atom   25 type  1   force =    -0.00040488   -0.00018736    0.00000001
     atom   26 type  1   force =    -0.00044851    0.00013734   -0.00000000
     atom   27 type  1   force =    -0.00019114   -0.00019560   -0.00000000
     atom   28 type  1   force =    -0.00074973   -0.00014366    0.00000000
     atom   29 type  1   force =    -0.00036067   -0.00039812   -0.00000000
     atom   30 type  1   force =     0.00005153    0.00038121    0.00000000
     atom   31 type  1   force =    -0.00013840   -0.00032544   -0.00000001
     atom   32 type  1   force =     0.00075194    0.00017612   -0.00000000
     atom   33 type  1   force =    -0.00000402    0.00014822   -0.00000001
     atom   34 type  1   force =     0.00001116   -0.00020318   -0.00000001
     atom   35 type  1   force =    -0.00008262   -0.00001726   -0.00000000
     atom   36 type  1   force =    -0.00044376    0.00022966   -0.00000000
     atom   37 type  1   force =    -0.00031189   -0.00051868    0.00000001
     atom   38 type  1   force =     0.00002950   -0.00059981    0.00000000
     atom   39 type  1   force =     0.00020224   -0.00019368    0.00000001
     atom   40 type  1   force =    -0.00029761   -0.00038059   -0.00000001
     atom   41 type  1   force =    -0.00046859    0.00000017   -0.00000001
     atom   42 type  1   force =    -0.00012689   -0.00000022    0.00000000
     atom   43 type  1   force =     0.00004645   -0.00009399    0.00000000
     atom   44 type  1   force =    -0.00009335   -0.00019621    0.00000000
     atom   45 type  1   force =    -0.00018844   -0.00000696    0.00000001
     atom   46 type  1   force =    -0.00012336    0.00017912   -0.00000001
     atom   47 type  1   force =     0.00000576    0.00004854   -0.00000000
     atom   48 type  1   force =    -0.00056955    0.00034181   -0.00000000
     atom   49 type  1   force =    -0.00002364    0.00007700   -0.00000000
     atom   50 type  1   force =     0.00018603   -0.00046619    0.00000001
     atom   51 type  1   force =    -0.00008560   -0.00013458   -0.00000001
     atom   52 type  1   force =    -0.00000455   -0.00062026   -0.00000001
     atom   53 type  1   force =    -0.00019627   -0.00016205    0.00000000
     atom   54 type  1   force =     0.00031347   -0.00005895   -0.00000001
     atom   55 type  1   force =     0.00012518   -0.00023531    0.00000000
     atom   56 type  1   force =     0.00008150   -0.00062710    0.00000000
     atom   57 type  1   force =    -0.00040518    0.00018747    0.00000000
     atom   58 type  1   force =    -0.00044819   -0.00013745   -0.00000001
     atom   59 type  1   force =     0.00004599    0.00009419   -0.00000000
     atom   60 type  1   force =    -0.00009290    0.00019606   -0.00000000
     atom   61 type  1   force =    -0.00002156   -0.00000002   -0.00000000
     atom   62 type  1   force =     0.00016917    0.00000012    0.00000000
     atom   63 type  1   force =     0.00062111    0.00004295   -0.00000001
     atom   64 type  1   force =    -0.00026560    0.00055623   -0.00000001
     atom   65 type  1   force =     0.00016795    0.00014783    0.00000001
     atom   66 type  1   force =    -0.00035729   -0.00012270    0.00000001
     atom   67 type  1   force =     0.00006276   -0.00012787   -0.00000001
     atom   68 type  1   force =    -0.00010461   -0.00057043   -0.00000000
     atom   69 type  1   force =     0.00006762    0.00014089    0.00000000
     atom   70 type  1   force =     0.00002106   -0.00019653    0.00000000
     atom   71 type  1   force =    -0.00023432    0.00019987   -0.00000001
     atom   72 type  1   force =     0.00044170   -0.00034918    0.00000000
     atom   73 type  1   force =    -0.00028499   -0.00014254   -0.00000001
     atom   74 type  1   force =    -0.00035935   -0.00010395   -0.00000000
     atom   75 type  1   force =    -0.00019136    0.00019567    0.00000000
     atom   76 type  1   force =    -0.00074953    0.00014357    0.00000000
     atom   77 type  1   force =    -0.00018864    0.00000703    0.00000000
     atom   78 type  1   force =    -0.00012333   -0.00017885    0.00000000
     atom   79 type  1   force =     0.00062099   -0.00004320    0.00000002
     atom   80 type  1   force =    -0.00026548   -0.00055623   -0.00000001
     atom   81 type  1   force =     0.00008133    0.00000002    0.00000001
     atom   82 type  1   force =     0.00016035   -0.00004353    0.00000001
     atom   83 type  1   force =     0.00014923    0.00005674    0.00000000
     atom   84 type  1   force =     0.00030617   -0.00012979   -0.00000001
     atom   85 type  1   force =     0.00012290    0.00034933    0.00000002
     atom   86 type  1   force =     0.00025259    0.00038214   -0.00000001
     atom   87 type  1   force =     0.00022326    0.00021415    0.00000001
     atom   88 type  1   force =     0.00022862    0.00006161    0.00000001
     atom   89 type  1   force =     0.00010695   -0.00012248   -0.00000001
     atom   90 type  1   force =    -0.00024457    0.00020420    0.00000000
     atom   91 type  1   force =    -0.00012615    0.00030117    0.00000000
     atom   92 type  1   force =    -0.00036069    0.00039821    0.00000000
     atom   93 type  1   force =     0.00005160   -0.00038111    0.00000000
     atom   94 type  1   force =     0.00000568   -0.00004882   -0.00000000
     atom   95 type  1   force =    -0.00056943   -0.00034170   -0.00000001
     atom   96 type  1   force =     0.00016776   -0.00014790   -0.00000000
     atom   97 type  1   force =    -0.00035699    0.00012332    0.00000000
     atom   98 type  1   force =     0.00016000    0.00004321   -0.00000001
     atom   99 type  1   force =     0.00014934   -0.00005686    0.00000001
     atom  100 type  1   force =     0.00061206    0.00000012   -0.00000000
     atom  101 type  1   force =     0.00003435    0.00000002   -0.00000001
     atom  102 type  1   force =     0.00051680    0.00020480   -0.00000001
     atom  103 type  1   force =     0.00005732    0.00031374   -0.00000000
     atom  104 type  1   force =     0.00038911    0.00050254   -0.00000000
     atom  105 type  1   force =     0.00015675   -0.00001535    0.00000000
     atom  106 type  1   force =     0.00003771    0.00021053    0.00000001
     atom  107 type  1   force =     0.00048875    0.00013308    0.00000001
     atom  108 type  1   force =     0.00017754    0.00061148   -0.00000001
     atom  109 type  1   force =     0.00072756    0.00010190    0.00000000
     atom  110 type  1   force =    -0.00013842    0.00032539    0.00000001
     atom  111 type  1   force =     0.00075199   -0.00017592   -0.00000001
     atom  112 type  1   force =    -0.00002377   -0.00007715   -0.00000000
     atom  113 type  1   force =     0.00018612    0.00046629    0.00000000
     atom  114 type  1   force =     0.00006278    0.00012746   -0.00000000
     atom  115 type  1   force =    -0.00010468    0.00057067    0.00000001
     atom  116 type  1   force =     0.00030626    0.00012971   -0.00000000
     atom  117 type  1   force =     0.00012279   -0.00034940   -0.00000000
     atom  118 type  1   force =     0.00051680   -0.00020485    0.00000000
     atom  119 type  1   force =     0.00005756   -0.00031350    0.00000000
     atom  120 type  1   force =    -0.00002767   -0.00000022   -0.00000000
     atom  121 type  1   force =    -0.00026309    0.00000000    0.00000000
     atom  122 type  1   force =    -0.00022099    0.00039166    0.00000000
     atom  123 type  1   force =     0.00033878    0.00003939   -0.00000001
     atom  124 type  1   force =     0.00006703    0.00054512   -0.00000000
     atom  125 type  1   force =     0.00050795    0.00064115    0.00000000
     atom  126 type  1   force =    -0.00004132   -0.00022976   -0.00000000
     atom  127 type  1   force =     0.00037110    0.00003649    0.00000001
     atom  128 type  1   force =    -0.00000403   -0.00014843   -0.00000001
     atom  129 type  1   force =     0.00001102    0.00020338    0.00000000
     atom  130 type  1   force =    -0.00008541    0.00013456    0.00000001
     atom  131 type  1   force =    -0.00000487    0.00062030    0.00000000
     atom  132 type  1   force =     0.00006782   -0.00014093    0.00000000
     atom  133 type  1   force =     0.00002092    0.00019630    0.00000000
     atom  134 type  1   force =     0.00025253   -0.00038193   -0.00000001
     atom  135 type  1   force =     0.00022354   -0.00021442    0.00000000
     atom  136 type  1   force =     0.00038875   -0.00050253    0.00000000
     atom  137 type  1   force =     0.00015711    0.00001537    0.00000000
     atom  138 type  1   force =    -0.00022119   -0.00039169    0.00000001
     atom  139 type  1   force =     0.00033879   -0.00003941   -0.00000001
     atom  140 type  1   force =     0.00016253    0.00000005   -0.00000001
     atom  141 type  1   force =     0.00017594   -0.00000005    0.00000000
     atom  142 type  1   force =     0.00056027    0.00017160    0.00000001
     atom  143 type  1   force =     0.00020281    0.00026506   -0.00000001
     atom  144 type  1   force =    -0.00033320   -0.00029548    0.00000000
     atom  145 type  1   force =    -0.00047983   -0.00001827   -0.00000001
     atom  146 type  1   force =    -0.00008249    0.00001695    0.00000000
     atom  147 type  1   force =    -0.00044388   -0.00022946    0.00000000
     atom  148 type  1   force =    -0.00019615    0.00016187   -0.00000000
     atom  149 type  1   force =     0.00031341    0.00005897   -0.00000001
     atom  150 type  1   force =    -0.00023430   -0.00019967    0.00000000
     atom  151 type  1   force =     0.00044152    0.00034905   -0.00000000
     atom  152 type  1   force =     0.00022854   -0.00006129   -0.00000000
     atom  153 type  1   force =     0.00010694    0.00012249    0.00000000
     atom  154 type  1   force =     0.00003766   -0.00021055   -0.00000001
     atom  155 type  1   force =     0.00048861   -0.00013301    0.00000001
     atom  156 type  1   force =     0.00006724   -0.00054514   -0.00000000
     atom  157 type  1   force =     0.00050782   -0.00064115    0.00000001
     atom  158 type  1   force =     0.00056014   -0.00017153    0.00000000
     atom  159 type  1   force =     0.00020304   -0.00026519    0.00000000
     atom  160 type  1   force =     0.00001439    0.00000000   -0.00000001
     atom  161 type  1   force =     0.00007877    0.00000001    0.00000000

     Total force =     0.005370     Total SCF correction =     0.000001
     Energy error            =      4.6E-05 Ry
     Gradient error          =      7.5E-04 Ry/Bohr

     number of scf cycles    =  20
     number of bfgs steps    =  19

     energy             old  =   -1939.0645554663 Ry
     energy             new  =   -1939.0646011720 Ry

     CASE: energy            _new < energy            _old

     new trust radius        =       0.0034107900 bohr
     new conv_thr            =            4.6E-12 Ry


ATOMIC_POSITIONS (crystal)
C                0.0368563533        0.0368563571       -0.0000000018
C                0.0738579319        0.0738579308       -0.0000000021
C                0.0365905038        0.1480795271       -0.0000000038
C                0.0736560184        0.1850031699       -0.0000000034
C                0.0365399557        0.2592109024       -0.0000000020
C                0.0736416664        0.2961522108        0.0000000006
C                0.0367625047        0.3702168184        0.0000000020
C                0.0738316264        0.4072650534       -0.0000000008
C                0.0371620204        0.4813735584       -0.0000000032
C                0.0741604129        0.5183703889       -0.0000000042
C                0.0374374825        0.5924987181       -0.0000000034
C                0.0746596530        0.6293396782        0.0000000003
C                0.0376805223        0.7033879188        0.0000000013
C                0.0750003074        0.7400997369        0.0000000004
C                0.0377409074        0.8142968148       -0.0000000022
C                0.0749248733        0.8510005644       -0.0000000008
C                0.0374144084        0.9254553768       -0.0000000035
C                0.0742609766        0.9625369829       -0.0000000016
C                0.1480795255        0.0365905046       -0.0000000027
C                0.1850031728        0.0736560162       -0.0000000045
C                0.1478378992        0.1478379005       -0.0000000039
C                0.1848818679        0.1848818631       -0.0000000020
C                0.1478359894        0.2589921767        0.0000000001
C                0.1847432161        0.2959962174        0.0000000012
C                0.1477688573        0.3701158234       -0.0000000013
C                0.1847009590        0.4071352080       -0.0000000015
C                0.1482271129        0.4811709220       -0.0000000012
C                0.1854847981        0.5180216788       -0.0000000001
C                0.1489415998        0.5920717687        0.0000000003
C                0.1864517475        0.6285379636        0.0000000013
C                0.1493831824        0.7025593887        0.0000000037
C                0.1871553369        0.7387536062        0.0000000031
C                0.1494543348        0.8132755240        0.0000000040
C                0.1859628533        0.8507755181        0.0000000055
C                0.1485436623        0.9251527831        0.0000000023
C                0.1853130367        0.9623220426        0.0000000007
C                0.2592109047        0.0365399521       -0.0000000044
C                0.2961522120        0.0736416665       -0.0000000053
C                0.2589921774        0.1478359892       -0.0000000021
C                0.2959962192        0.1847432130        0.0000000049
C                0.2588925065        0.2588925081        0.0000000040
C                0.2957617937        0.2957617940        0.0000000029
C                0.2586523147        0.3699026626        0.0000000002
C                0.2953443541        0.4067668666        0.0000000009
C                0.2595246760        0.4806277844        0.0000000001
C                0.2971697607        0.5172066099        0.0000000003
C                0.2611566397        0.5907849889        0.0000000024
C                0.3003036458        0.6255531938       -0.0000000026
C                0.2620486095        0.7007474013       -0.0000000004
C                0.2974538643        0.7391534290       -0.0000000032
C                0.2600995524        0.8134918364        0.0000000033
C                0.2966802756        0.8510718115        0.0000000024
C                0.2595377491        0.9250981788        0.0000000018
C                0.2964087308        0.9624563298        0.0000000002
C                0.3702168223        0.0367624996       -0.0000000040
C                0.4072650527        0.0738316270       -0.0000000010
C                0.3701158251        0.1477688578        0.0000000032
C                0.4071352062        0.1847009590        0.0000000033
C                0.3699026628        0.2586523142        0.0000000033
C                0.4067668674        0.2953443551        0.0000000025
C                0.3693519189        0.3693519159        0.0000000007
C                0.4055828966        0.4055828947       -0.0000000034
C                0.3718154262        0.4790768805       -0.0000000014
C                0.4122280454        0.5110733359       -0.0000000095
C                0.3766070707        0.5861907884       -0.0000000092
C                0.4088843258        0.6282668888       -0.0000000079
C                0.3716992424        0.7018358343       -0.0000000040
C                0.4081735535        0.7401163827       -0.0000000013
C                0.3709346692        0.8140682284       -0.0000000002
C                0.4077185905        0.8514506277       -0.0000000007
C                0.3704696089        0.9256047716       -0.0000000003
C                0.4073968742        0.9627149229       -0.0000000044
C                0.4813735632        0.0371620191        0.0000000001
C                0.5183703869        0.0741604142       -0.0000000009
C                0.4811709224        0.1482271170        0.0000000017
C                0.5180216783        0.1854848016       -0.0000000002
C                0.4806277863        0.2595246760       -0.0000000023
C                0.5172066116        0.2971697641       -0.0000000043
C                0.4790768864        0.3718154241       -0.0000000053
C                0.5110733386        0.4122280451       -0.0000000067
C                0.5221912698        0.5221912569        0.0000000245
C                0.4828355004        0.5930177794        0.0000000002
C                0.5197902967        0.6305016659       -0.0000000018
C                0.4820642208        0.7042470982       -0.0000000018
C                0.5190367602        0.7412080689       -0.0000000049
C                0.4817783710        0.8150076281       -0.0000000024
C                0.5188071070        0.8521145493       -0.0000000050
C                0.4815877056        0.9260187627       -0.0000000048
C                0.5185624182        0.9630767551       -0.0000000032
C                0.5924987175        0.0374374852       -0.0000000028
C                0.6293396798        0.0746596533       -0.0000000015
C                0.5920717673        0.1489416030       -0.0000000013
C                0.6285379650        0.1864517500       -0.0000000019
C                0.5907849914        0.2611566382       -0.0000000015
C                0.6255531968        0.3003036457        0.0000000006
C                0.5861907905        0.3766070686       -0.0000000015
C                0.6282668927        0.4088843216        0.0000000046
C                0.5930177785        0.4828354981        0.0000000120
C                0.6305016745        0.5197902880        0.0000000085
C                0.5934412233        0.5934412285        0.0000000037
C                0.6304521749        0.6304521656        0.0000000030
C                0.5932161089        0.7042534770       -0.0000000001
C                0.6301378369        0.7412011078        0.0000000022
C                0.5928810803        0.8152647284       -0.0000000008
C                0.6298453752        0.8522309999       -0.0000000018
C                0.5926445157        0.9262822309       -0.0000000042
C                0.6296625089        0.9633755785       -0.0000000034
C                0.7033879153        0.0376805273       -0.0000000011
C                0.7400997383        0.0750003080       -0.0000000029
C                0.7025593875        0.1493831833       -0.0000000018
C                0.7387536079        0.1871553383        0.0000000010
C                0.7007474006        0.2620486092        0.0000000006
C                0.7391534297        0.2974538647       -0.0000000003
C                0.7018358374        0.3716992377        0.0000000029
C                0.7401163837        0.4081735512        0.0000000040
C                0.7042470989        0.4820642200        0.0000000067
C                0.7412080727        0.5190367552        0.0000000056
C                0.7042534743        0.5932161113        0.0000000066
C                0.7412011110        0.6301378329        0.0000000060
C                0.7041435281        0.7041435315        0.0000000034
C                0.7411651152        0.7411651153        0.0000000032
C                0.7040218972        0.8151991883        0.0000000015
C                0.7409781636        0.8521989833        0.0000000043
C                0.7037715918        0.9263929559        0.0000000013
C                0.7406843914        0.9634269474       -0.0000000012
C                0.8142968144        0.0377409114       -0.0000000033
C                0.8510005628        0.0749248763       -0.0000000027
C                0.8132755248        0.1494543363        0.0000000001
C                0.8507755147        0.1859628578       -0.0000000013
C                0.8134918378        0.2600995534       -0.0000000020
C                0.8510718079        0.2966802776       -0.0000000011
C                0.8140682305        0.3709346693        0.0000000020
C                0.8514506252        0.4077185911        0.0000000024
C                0.8150076289        0.4817783700        0.0000000055
C                0.8521145472        0.5188071078        0.0000000038
C                0.8152647271        0.5928810813        0.0000000041
C                0.8522309969        0.6298453757        0.0000000028
C                0.8151991852        0.7040219015        0.0000000037
C                0.8521989795        0.7409781650        0.0000000053
C                0.8151008098        0.8151008135        0.0000000054
C                0.8521242452        0.8521242503        0.0000000019
C                0.8148847681        0.9263083975       -0.0000000014
C                0.8517606711        0.9633772559       -0.0000000006
C                0.9254553778        0.0374144089       -0.0000000038
C                0.9625369802        0.0742609796       -0.0000000022
C                0.9251527848        0.1485436643       -0.0000000032
C                0.9623220395        0.1853130387       -0.0000000025
C                0.9250981831        0.2595377480       -0.0000000000
C                0.9624563254        0.2964087331       -0.0000000022
C                0.9256047770        0.3704696058        0.0000000012
C                0.9627149178        0.4073968771        0.0000000022
C                0.9260187677        0.4815877024        0.0000000017
C                0.9630767512        0.5185624202       -0.0000000009
C                0.9262822322        0.5926445155        0.0000000025
C                0.9633755762        0.6296625094       -0.0000000005
C                0.9263929534        0.7037715945        0.0000000021
C                0.9634269434        0.7406843928        0.0000000006
C                0.9263083935        0.8148847711        0.0000000007
C                0.9633772520        0.8517606744       -0.0000000008
C                0.9260322441        0.9260322471       -0.0000000005
C                0.9630233744        0.9630233749       -0.0000000037



     Writing config-only to output data dir /home/gregb26/links/scratch/qe_tmp/vacancy_relaxed/nspin1/vac_9x9_relax_nspin1.save/ :
     XML data file
     NEW-OLD atomic charge density approx. for the potential

     negative rho (up, down):  1.390E-06 0.000E+00

     total cpu time spent up to now is     2797.9 secs

     per-process dynamical memory:   351.9 Mb

     Self-consistent Calculation

     iteration #  1     ecut=   100.00 Ry     beta= 0.30
     Davidson diagonalization with overlap
     ethr =  1.00E-06,  avg # of iterations =  4.0

     Threshold (ethr) on eigenvalues was too large:
     Diagonalizing with lowered threshold

     Davidson diagonalization with overlap
     ethr =  4.88E-09,  avg # of iterations =  6.0

     negative rho (up, down):  9.088E-07 0.000E+00

     total cpu time spent up to now is     2827.6 secs

     total energy              =   -1939.06463881 Ry
     estimated scf accuracy    <       0.00005916 Ry

     iteration #  2     ecut=   100.00 Ry     beta= 0.30
     Davidson diagonalization with overlap
     ethr =  9.19E-09,  avg # of iterations =  3.0

     negative rho (up, down):  8.905E-07 0.000E+00

     total cpu time spent up to now is     2835.7 secs

     total energy              =   -1939.06459178 Ry
     estimated scf accuracy    <       0.00329486 Ry

     iteration #  3     ecut=   100.00 Ry     beta= 0.30
     Davidson diagonalization with overlap
     ethr =  9.19E-09,  avg # of iterations =  3.0

     negative rho (up, down):  3.674E-07 0.000E+00

     total cpu time spent up to now is     2843.6 secs

     total energy              =   -1939.06464035 Ry
     estimated scf accuracy    <       0.00004401 Ry

     iteration #  4     ecut=   100.00 Ry     beta= 0.30
     Davidson diagonalization with overlap
     ethr =  6.83E-09,  avg # of iterations =  2.0

     negative rho (up, down):  1.030E-07 0.000E+00

     total cpu time spent up to now is     2851.2 secs

     total energy              =   -1939.06464088 Ry
     estimated scf accuracy    <       0.00000484 Ry

     iteration #  5     ecut=   100.00 Ry     beta= 0.30
     Davidson diagonalization with overlap
     ethr =  7.51E-10,  avg # of iterations =  2.0

     negative rho (up, down):  4.821E-08 0.000E+00

     total cpu time spent up to now is     2859.4 secs

     total energy              =   -1939.06464140 Ry
     estimated scf accuracy    <       0.00000069 Ry

     iteration #  6     ecut=   100.00 Ry     beta= 0.30
     Davidson diagonalization with overlap
     ethr =  1.07E-10,  avg # of iterations =  5.0

     negative rho (up, down):  1.153E-08 0.000E+00

     total cpu time spent up to now is     2868.6 secs

     total energy              =   -1939.06464147 Ry
     estimated scf accuracy    <       0.00000028 Ry

     iteration #  7     ecut=   100.00 Ry     beta= 0.30
     Davidson diagonalization with overlap
     ethr =  4.28E-11,  avg # of iterations =  2.0

     total cpu time spent up to now is     2876.9 secs

     total energy              =   -1939.06464150 Ry
     estimated scf accuracy    <       0.00000005 Ry

     iteration #  8     ecut=   100.00 Ry     beta= 0.30
     Davidson diagonalization with overlap
     ethr =  7.54E-12,  avg # of iterations =  5.0

     total cpu time spent up to now is     2886.5 secs

     total energy              =   -1939.06464150 Ry
     estimated scf accuracy    <          8.3E-09 Ry

     iteration #  9     ecut=   100.00 Ry     beta= 0.30
     Davidson diagonalization with overlap
     ethr =  1.29E-12,  avg # of iterations =  4.0

     total cpu time spent up to now is     2896.5 secs

     total energy              =   -1939.06464150 Ry
     estimated scf accuracy    <          1.4E-09 Ry

     iteration # 10     ecut=   100.00 Ry     beta= 0.30
     Davidson diagonalization with overlap
     ethr =  2.17E-13,  avg # of iterations =  5.0

     total cpu time spent up to now is     2908.5 secs

     total energy              =   -1939.06464150 Ry
     estimated scf accuracy    <          1.9E-10 Ry

     iteration # 11     ecut=   100.00 Ry     beta= 0.30
     Davidson diagonalization with overlap
     ethr =  1.00E-13,  avg # of iterations =  2.0

     total cpu time spent up to now is     2916.5 secs

     total energy              =   -1939.06464150 Ry
     estimated scf accuracy    <          7.6E-11 Ry

     iteration # 12     ecut=   100.00 Ry     beta= 0.30
     Davidson diagonalization with overlap
     ethr =  1.00E-13,  avg # of iterations =  1.0

     total cpu time spent up to now is     2923.3 secs

     total energy              =   -1939.06464150 Ry
     estimated scf accuracy    <          1.6E-10 Ry

     iteration # 13     ecut=   100.00 Ry     beta= 0.30
     Davidson diagonalization with overlap
     ethr =  1.00E-13,  avg # of iterations =  1.0

     total cpu time spent up to now is     2930.2 secs

     total energy              =   -1939.06464150 Ry
     estimated scf accuracy    <          2.0E-10 Ry

     iteration # 14     ecut=   100.00 Ry     beta= 0.30
     Davidson diagonalization with overlap
     ethr =  1.00E-13,  avg # of iterations =  1.0

     total cpu time spent up to now is     2937.4 secs

     End of self-consistent calculation

          k = 0.0000 0.0000 0.0000 (385710 PWs)   bands (ev):

   -23.7923 -23.5483 -23.5226 -23.5127 -23.5023 -23.4805 -23.4072 -22.9582
   -22.9378 -22.9377 -22.9307 -22.9019 -22.8396 -22.6648 -22.6573 -22.6443
   -22.6328 -22.6128 -22.4696 -21.8124 -21.8043 -21.7983 -21.7972 -21.7948
   -21.7878 -21.7875 -21.7804 -21.7721 -21.7713 -21.7170 -21.5333 -21.2427
   -21.2254 -21.2191 -21.2053 -21.1824 -21.0066 -20.4009 -20.3978 -20.3871
   -20.3773 -20.3577 -20.3080 -20.1362 -20.1311 -20.1246 -20.1239 -20.1183
   -20.1136 -20.1078 -20.1007 -20.0862 -20.0851 -20.0302 -19.7068 -19.3386
   -19.3302 -19.3145 -19.2878 -19.2868 -19.0980 -18.5675 -18.5617 -18.5591
   -18.5564 -18.5466 -18.5457 -18.5286 -18.5270 -18.5136 -18.4917 -18.4872
   -18.4366 -18.3850 -18.3818 -18.3686 -18.3542 -18.3314 -17.7316 -17.3490
   -17.3489 -17.3457 -17.3020 -17.2649 -17.1814 -16.9028 -16.8598 -16.8556
   -16.7795 -16.6739 -16.6735 -16.6650 -16.6012 -16.5865 -16.4290 -16.0972
   -16.0970 -16.0910 -16.0902 -16.0845 -16.0829 -16.0787 -16.0725 -16.0523
   -15.9378 -15.9373 -15.5477 -15.2378 -15.2305 -15.2190 -15.2160 -15.2116
   -15.2109 -15.2070 -15.1922 -15.1883 -15.0814 -15.0680 -14.8083 -14.7749
   -14.4621 -13.9810 -13.9742 -13.9727 -13.9490 -13.9478 -13.9388 -13.9376
   -13.9314 -13.9131 -13.8470 -13.8132 -13.5593 -13.4657 -13.4516 -13.4468
   -13.4421 -13.4381 -13.4354 -13.4269 -13.4236 -13.4132 -13.2176 -13.1905
   -12.9160 -12.5156 -12.5042 -12.4646 -12.4642 -12.4549 -12.4538 -12.4532
   -12.4475 -12.4471 -12.4440 -12.4390 -12.4251 -12.4230 -12.4224 -12.4075
   -12.1662 -12.1523 -11.8767 -11.7131 -11.6247 -11.6230 -11.6133 -11.5673
   -11.5522 -11.5448 -11.5414 -11.5356 -11.5222 -11.5145 -11.4530 -11.4214
   -11.3549 -11.3330 -11.3286 -11.3209 -11.3149 -11.3133 -11.3061 -11.2792
   -11.2650 -11.1767 -11.1383 -11.1214 -11.0197 -11.0021 -10.9830 -10.9076
   -10.8687 -10.8618 -10.8578 -10.8567 -10.8522 -10.8274 -10.7545 -10.6689
   -10.6547 -10.6315 -10.6282 -10.5825 -10.5711 -10.5391 -10.5292 -10.5240
   -10.5156 -10.5037 -10.4895 -10.4586 -10.4487 -10.4481 -10.4363 -10.4333
   -10.4289 -10.4152 -10.4073 -10.3846 -10.3385 -10.2359 -10.2235 -10.2103
   -10.1110 -10.0926 -10.0702 -10.0484 -10.0372 -10.0179 -10.0058  -9.9957
    -9.9772  -9.5393  -9.5296  -9.5277  -9.5233  -9.5212  -9.5196  -9.5196
    -9.5153  -9.5041  -9.5031  -9.4645  -9.4645  -9.4501  -9.2666  -9.1248
    -9.0927  -9.0828  -9.0762  -9.0602  -9.0552  -9.0541  -9.0421  -9.0357
    -8.9930  -8.9085  -8.8928  -8.8883  -8.8704  -8.8682  -8.8102  -8.6951
    -8.6090  -8.6070  -8.4573  -8.4443  -8.4437  -8.1034  -8.0844  -7.9448
    -7.9447  -7.9439  -7.9367  -7.9359  -7.9229  -7.9148  -7.9120  -7.8923
    -7.8727  -7.8713  -7.7145  -7.7058  -7.7030  -7.6984  -7.6955  -7.6901
    -7.6889  -7.6872  -7.6663  -7.6655  -7.6548  -7.4010  -7.3997  -7.3587
    -7.0696  -7.0622  -7.0524  -7.0357  -7.0145  -6.8061  -6.3678  -6.3671
    -6.3586  -6.3423  -6.3385  -6.2557  -6.0914  -6.0856  -6.0784  -6.0748
    -6.0680  -6.0659  -6.0576  -6.0521  -6.0386  -6.0331  -6.0226  -5.0247
    -4.2763  -4.2442  -4.2288  -4.2202  -3.9669  -3.1263  -2.6731  -2.6628
    -2.6550  -2.6518  -2.6413  -2.6385  -2.5865  -2.5850  -2.5681  -2.5568
    -2.5546  -2.5516  -2.5466  -2.5340  -2.5241  -2.4386  -2.4379  -2.2120
    -2.0601  -2.0491  -2.0325  -1.9952  -1.9680  -1.5662  -0.9821  -0.9751

     the Fermi energy is    -4.2239 ev

!    total energy              =   -1939.06464150 Ry
     estimated scf accuracy    <          2.4E-12 Ry
     smearing contrib. (-TS)   =      -0.01243089 Ry
     internal energy E=F+TS    =   -1939.05221061 Ry

     The total energy is F=E-TS. E is the sum of the following terms:
     one-electron contribution =  -21951.44453743 Ry
     hartree contribution      =   11035.84693255 Ry
     xc contribution           =    -689.86865515 Ry
     ewald contribution        =    9666.41404943 Ry

     convergence has been achieved in  14 iterations

     Forces acting on atoms (cartesian axes, Ry/au):

     atom    1 type  1   force =    -0.00045938   -0.00000006   -0.00000000
     atom    2 type  1   force =    -0.00039906    0.00000009   -0.00000001
     atom    3 type  1   force =    -0.00020144   -0.00016883    0.00000001
     atom    4 type  1   force =     0.00003196   -0.00017370   -0.00000000
     atom    5 type  1   force =     0.00002098    0.00005371    0.00000000
     atom    6 type  1   force =     0.00038330   -0.00002595   -0.00000000
     atom    7 type  1   force =    -0.00010946    0.00054638   -0.00000001
     atom    8 type  1   force =     0.00021137    0.00023892   -0.00000000
     atom    9 type  1   force =    -0.00035899    0.00049890    0.00000000
     atom   10 type  1   force =    -0.00005361   -0.00006129    0.00000001
     atom   11 type  1   force =    -0.00046003    0.00000182    0.00000001
     atom   12 type  1   force =    -0.00029630   -0.00003777   -0.00000001
     atom   13 type  1   force =     0.00021704   -0.00028747   -0.00000001
     atom   14 type  1   force =     0.00029508    0.00017609    0.00000001
     atom   15 type  1   force =     0.00034177    0.00025034    0.00000001
     atom   16 type  1   force =    -0.00000220    0.00002756    0.00000000
     atom   17 type  1   force =    -0.00017378    0.00017167    0.00000001
     atom   18 type  1   force =    -0.00061147    0.00015380    0.00000000
     atom   19 type  1   force =    -0.00020135    0.00016875    0.00000000
     atom   20 type  1   force =     0.00003193    0.00017384    0.00000000
     atom   21 type  1   force =    -0.00037930   -0.00000013   -0.00000000
     atom   22 type  1   force =     0.00011213    0.00000014   -0.00000000
     atom   23 type  1   force =    -0.00056908    0.00030273    0.00000000
     atom   24 type  1   force =    -0.00015225   -0.00000406    0.00000000
     atom   25 type  1   force =    -0.00047823    0.00055043    0.00000001
     atom   26 type  1   force =    -0.00032502    0.00003734    0.00000000
     atom   27 type  1   force =    -0.00012916   -0.00011897   -0.00000001
     atom   28 type  1   force =    -0.00017062   -0.00018644   -0.00000000
     atom   29 type  1   force =    -0.00001469   -0.00047557    0.00000000
     atom   30 type  1   force =    -0.00035672    0.00025022    0.00000001
     atom   31 type  1   force =     0.00056924   -0.00031942   -0.00000002
     atom   32 type  1   force =    -0.00001974   -0.00002116    0.00000000
     atom   33 type  1   force =     0.00055584   -0.00019301   -0.00000001
     atom   34 type  1   force =    -0.00021236    0.00008193   -0.00000001
     atom   35 type  1   force =    -0.00008582    0.00024795   -0.00000000
     atom   36 type  1   force =    -0.00022465    0.00014568    0.00000000
     atom   37 type  1   force =     0.00002113   -0.00005355    0.00000000
     atom   38 type  1   force =     0.00038324    0.00002587    0.00000001
     atom   39 type  1   force =    -0.00056909   -0.00030286    0.00000001
     atom   40 type  1   force =    -0.00015213    0.00000420   -0.00000002
     atom   41 type  1   force =    -0.00001258   -0.00000010   -0.00000000
     atom   42 type  1   force =    -0.00007568   -0.00000000    0.00000000
     atom   43 type  1   force =     0.00025820    0.00002732    0.00000001
     atom   44 type  1   force =     0.00008293   -0.00008088   -0.00000000
     atom   45 type  1   force =     0.00031240   -0.00038941    0.00000000
     atom   46 type  1   force =    -0.00002026    0.00002611    0.00000001
     atom   47 type  1   force =    -0.00014267   -0.00003191   -0.00000002
     atom   48 type  1   force =    -0.00020898    0.00010776    0.00000000
     atom   49 type  1   force =     0.00032710   -0.00026044   -0.00000001
     atom   50 type  1   force =    -0.00032164   -0.00041537    0.00000002
     atom   51 type  1   force =     0.00021915   -0.00036003   -0.00000001
     atom   52 type  1   force =    -0.00027794   -0.00044275   -0.00000000
     atom   53 type  1   force =    -0.00005459   -0.00028413    0.00000000
     atom   54 type  1   force =     0.00007671    0.00014363   -0.00000001
     atom   55 type  1   force =    -0.00010933   -0.00054606    0.00000000
     atom   56 type  1   force =     0.00021145   -0.00023907    0.00000001
     atom   57 type  1   force =    -0.00047840   -0.00055044   -0.00000000
     atom   58 type  1   force =    -0.00032482   -0.00003739    0.00000000
     atom   59 type  1   force =     0.00025823   -0.00002729    0.00000001
     atom   60 type  1   force =     0.00008285    0.00008077   -0.00000002
     atom   61 type  1   force =     0.00059766    0.00000008   -0.00000000
     atom   62 type  1   force =     0.00021535   -0.00000006    0.00000001
     atom   63 type  1   force =     0.00007611    0.00008423   -0.00000001
     atom   64 type  1   force =    -0.00025830    0.00009932   -0.00000000
     atom   65 type  1   force =     0.00012532    0.00037294    0.00000000
     atom   66 type  1   force =    -0.00002042   -0.00037764    0.00000002
     atom   67 type  1   force =     0.00013695    0.00006850   -0.00000001
     atom   68 type  1   force =    -0.00008785   -0.00079509   -0.00000000
     atom   69 type  1   force =     0.00003277   -0.00016078    0.00000001
     atom   70 type  1   force =     0.00003345   -0.00014125   -0.00000000
     atom   71 type  1   force =     0.00030658    0.00009678   -0.00000001
     atom   72 type  1   force =     0.00042391   -0.00009197    0.00000001
     atom   73 type  1   force =    -0.00035913   -0.00049862   -0.00000002
     atom   74 type  1   force =    -0.00005340    0.00006127    0.00000001
     atom   75 type  1   force =    -0.00012935    0.00011896   -0.00000000
     atom   76 type  1   force =    -0.00017063    0.00018637   -0.00000000
     atom   77 type  1   force =     0.00031248    0.00038953    0.00000001
     atom   78 type  1   force =    -0.00002040   -0.00002626    0.00000001
     atom   79 type  1   force =     0.00007606   -0.00008404    0.00000001
     atom   80 type  1   force =    -0.00025827   -0.00009930   -0.00000001
     atom   81 type  1   force =    -0.00010158    0.00000038    0.00000001
     atom   82 type  1   force =     0.00003723    0.00015040    0.00000001
     atom   83 type  1   force =    -0.00000805   -0.00035225    0.00000000
     atom   84 type  1   force =    -0.00002579    0.00027113   -0.00000002
     atom   85 type  1   force =    -0.00022624   -0.00025459    0.00000003
     atom   86 type  1   force =     0.00006686    0.00055641   -0.00000001
     atom   87 type  1   force =    -0.00000107    0.00011330    0.00000002
     atom   88 type  1   force =     0.00015671    0.00007227    0.00000000
     atom   89 type  1   force =     0.00037576   -0.00020686   -0.00000000
     atom   90 type  1   force =    -0.00046008   -0.00000184    0.00000000
     atom   91 type  1   force =    -0.00029630    0.00003798    0.00000000
     atom   92 type  1   force =    -0.00001466    0.00047547   -0.00000000
     atom   93 type  1   force =    -0.00035688   -0.00025023    0.00000000
     atom   94 type  1   force =    -0.00014256    0.00003201   -0.00000001
     atom   95 type  1   force =    -0.00020910   -0.00010773   -0.00000001
     atom   96 type  1   force =     0.00012539   -0.00037296   -0.00000000
     atom   97 type  1   force =    -0.00002047    0.00037768    0.00000000
     atom   98 type  1   force =     0.00003748   -0.00015084    0.00000000
     atom   99 type  1   force =    -0.00000803    0.00035279   -0.00000001
     atom  100 type  1   force =    -0.00005741   -0.00000038   -0.00000000
     atom  101 type  1   force =    -0.00007489    0.00000033    0.00000001
     atom  102 type  1   force =     0.00013848    0.00037466   -0.00000000
     atom  103 type  1   force =     0.00000433    0.00027851   -0.00000001
     atom  104 type  1   force =     0.00034369    0.00053709   -0.00000001
     atom  105 type  1   force =     0.00028938    0.00019649    0.00000000
     atom  106 type  1   force =     0.00001162   -0.00022524    0.00000001
     atom  107 type  1   force =     0.00021649    0.00005356    0.00000001
     atom  108 type  1   force =     0.00021708    0.00028727   -0.00000001
     atom  109 type  1   force =     0.00029507   -0.00017596    0.00000000
     atom  110 type  1   force =     0.00056938    0.00031934    0.00000000
     atom  111 type  1   force =    -0.00001988    0.00002118   -0.00000001
     atom  112 type  1   force =     0.00032725    0.00026039    0.00000001
     atom  113 type  1   force =    -0.00032173    0.00041529    0.00000000
     atom  114 type  1   force =     0.00013704   -0.00006839   -0.00000001
     atom  115 type  1   force =    -0.00008781    0.00079507    0.00000001
     atom  116 type  1   force =    -0.00002580   -0.00027131   -0.00000000
     atom  117 type  1   force =    -0.00022617    0.00025483    0.00000001
     atom  118 type  1   force =     0.00013849   -0.00037511   -0.00000001
     atom  119 type  1   force =     0.00000437   -0.00027818   -0.00000001
     atom  120 type  1   force =     0.00021390   -0.00000018    0.00000001
     atom  121 type  1   force =     0.00006467    0.00000010   -0.00000000
     atom  122 type  1   force =     0.00025268   -0.00009372    0.00000001
     atom  123 type  1   force =     0.00030328    0.00018371   -0.00000001
     atom  124 type  1   force =    -0.00015598   -0.00032737   -0.00000001
     atom  125 type  1   force =     0.00039395    0.00026102    0.00000001
     atom  126 type  1   force =     0.00034170   -0.00025037    0.00000001
     atom  127 type  1   force =    -0.00000214   -0.00002766    0.00000000
     atom  128 type  1   force =     0.00055584    0.00019306   -0.00000001
     atom  129 type  1   force =    -0.00021230   -0.00008215   -0.00000000
     atom  130 type  1   force =     0.00021908    0.00036013    0.00000001
     atom  131 type  1   force =    -0.00027775    0.00044251    0.00000001
     atom  132 type  1   force =     0.00003264    0.00016087   -0.00000000
     atom  133 type  1   force =     0.00003362    0.00014103    0.00000001
     atom  134 type  1   force =     0.00006686   -0.00055640   -0.00000001
     atom  135 type  1   force =    -0.00000096   -0.00011347    0.00000000
     atom  136 type  1   force =     0.00034365   -0.00053718    0.00000000
     atom  137 type  1   force =     0.00028955   -0.00019651    0.00000001
     atom  138 type  1   force =     0.00025256    0.00009357    0.00000001
     atom  139 type  1   force =     0.00030342   -0.00018369   -0.00000001
     atom  140 type  1   force =    -0.00022963   -0.00000003   -0.00000000
     atom  141 type  1   force =     0.00033062   -0.00000005   -0.00000000
     atom  142 type  1   force =    -0.00040405   -0.00023265    0.00000001
     atom  143 type  1   force =     0.00008676   -0.00006904   -0.00000001
     atom  144 type  1   force =    -0.00017384   -0.00017158    0.00000001
     atom  145 type  1   force =    -0.00061143   -0.00015384   -0.00000001
     atom  146 type  1   force =    -0.00008600   -0.00024779    0.00000001
     atom  147 type  1   force =    -0.00022450   -0.00014583   -0.00000000
     atom  148 type  1   force =    -0.00005480    0.00028442   -0.00000002
     atom  149 type  1   force =     0.00007691   -0.00014399    0.00000002
     atom  150 type  1   force =     0.00030640   -0.00009642   -0.00000000
     atom  151 type  1   force =     0.00042410    0.00009154   -0.00000000
     atom  152 type  1   force =     0.00015655   -0.00007190    0.00000000
     atom  153 type  1   force =     0.00037587    0.00020661    0.00000001
     atom  154 type  1   force =     0.00001148    0.00022540   -0.00000002
     atom  155 type  1   force =     0.00021658   -0.00005353    0.00000000
     atom  156 type  1   force =    -0.00015610    0.00032735    0.00000000
     atom  157 type  1   force =     0.00039404   -0.00026097    0.00000001
     atom  158 type  1   force =    -0.00040407    0.00023267   -0.00000000
     atom  159 type  1   force =     0.00008673    0.00006899   -0.00000000
     atom  160 type  1   force =    -0.00029222   -0.00000000   -0.00000001
     atom  161 type  1   force =    -0.00044538    0.00000001    0.00000000

     Total force =     0.004659     Total SCF correction =     0.000002
     Energy error            =      4.0E-05 Ry
     Gradient error          =      8.0E-04 Ry/Bohr

     number of scf cycles    =  21
     number of bfgs steps    =  20

     energy             old  =   -1939.0646011720 Ry
     energy             new  =   -1939.0646415036 Ry

     CASE: energy            _new < energy            _old

     new trust radius        =       0.0022478656 bohr
     new conv_thr            =            4.0E-12 Ry


ATOMIC_POSITIONS (crystal)
C                0.0368403731        0.0368403762       -0.0000000017
C                0.0738379795        0.0738379825       -0.0000000021
C                0.0365718606        0.1480640688       -0.0000000039
C                0.0736344182        0.1849910031       -0.0000000036
C                0.0365194032        0.2592048366       -0.0000000019
C                0.0736240475        0.2961510472        0.0000000008
C                0.0367386580        0.3702237635        0.0000000016
C                0.0738222002        0.4072586705       -0.0000000011
C                0.0371493889        0.4813679476       -0.0000000027
C                0.0741615044        0.5183526908       -0.0000000038
C                0.0374512688        0.5924782350       -0.0000000029
C                0.0746805968        0.6293143224        0.0000000003
C                0.0377211348        0.7033706264        0.0000000007
C                0.0750254343        0.7400943491        0.0000000003
C                0.0377607345        0.8142986773       -0.0000000020
C                0.0749327532        0.8509967606       -0.0000000005
C                0.0374154930        0.9254499649       -0.0000000031
C                0.0742542476        0.9625204854       -0.0000000013
C                0.1480640690        0.0365718615       -0.0000000025
C                0.1849910016        0.0736344198       -0.0000000046
C                0.1478160277        0.1478160240       -0.0000000039
C                0.1848663919        0.1848663930       -0.0000000018
C                0.1478016969        0.2589772640        0.0000000002
C                0.1847229200        0.2959760097        0.0000000010
C                0.1477400425        0.3701021373       -0.0000000010
C                0.1846882163        0.4071064396       -0.0000000016
C                0.1482189754        0.4811442444       -0.0000000011
C                0.1854815381        0.5179885808        0.0000000001
C                0.1489612440        0.5920402780        0.0000000001
C                0.1864579421        0.6285186618        0.0000000013
C                0.1494151165        0.7025462840        0.0000000030
C                0.1871768872        0.7387392032        0.0000000029
C                0.1494763816        0.8132661189        0.0000000038
C                0.1859745689        0.8507557405        0.0000000051
C                0.1485426720        0.9251357001        0.0000000023
C                0.1853087284        0.9622998137        0.0000000006
C                0.2592048379        0.0365194040       -0.0000000039
C                0.2961510478        0.0736240467       -0.0000000051
C                0.2589772680        0.1478016936       -0.0000000017
C                0.2959760091        0.1847229215        0.0000000047
C                0.2588696842        0.2588696811        0.0000000034
C                0.2957385386        0.2957385390        0.0000000027
C                0.2586370331        0.3698857072        0.0000000003
C                0.2953294529        0.4067422289        0.0000000012
C                0.2595242992        0.4806035168        0.0000000003
C                0.2971642588        0.5171880160       -0.0000000002
C                0.2611630438        0.5907620983        0.0000000021
C                0.3003245628        0.6255225267       -0.0000000024
C                0.2620782557        0.7007218500       -0.0000000006
C                0.2974841168        0.7391223552       -0.0000000028
C                0.2601248525        0.8134652478        0.0000000025
C                0.2966961010        0.8510457356        0.0000000015
C                0.2595445617        0.9250761026        0.0000000017
C                0.2964067365        0.9624387906       -0.0000000001
C                0.3702237652        0.0367386598       -0.0000000039
C                0.4072586723        0.0738221990       -0.0000000008
C                0.3701021390        0.1477400415        0.0000000032
C                0.4071064393        0.1846882176        0.0000000028
C                0.3698857089        0.2586370329        0.0000000030
C                0.4067422327        0.2953294490        0.0000000026
C                0.3693421386        0.3693421392        0.0000000009
C                0.4055678484        0.4055678422       -0.0000000035
C                0.3718118922        0.4790626560       -0.0000000024
C                0.4122667253        0.5110125208       -0.0000000102
C                0.3766379239        0.5861560013       -0.0000000088
C                0.4089147023        0.6282375792       -0.0000000067
C                0.3717240216        0.7018175275       -0.0000000042
C                0.4082055103        0.7400948897       -0.0000000012
C                0.3709540650        0.8140543748       -0.0000000002
C                0.4077263447        0.8514478722       -0.0000000006
C                0.3704747162        0.9256002060       -0.0000000006
C                0.4074025320        0.9627107021       -0.0000000042
C                0.4813679465        0.0371493915       -0.0000000004
C                0.5183526919        0.0741615070       -0.0000000010
C                0.4811442452        0.1482189784        0.0000000015
C                0.5179885811        0.1854815400       -0.0000000002
C                0.4806035180        0.2595243012       -0.0000000022
C                0.5171880200        0.2971642564       -0.0000000041
C                0.4790626589        0.3718118922       -0.0000000043
C                0.5110125234        0.4122667231       -0.0000000070
C                0.5222222088        0.5222222094        0.0000000261
C                0.4828583344        0.5930409136        0.0000000015
C                0.5198224571        0.6305207082       -0.0000000017
C                0.4820820604        0.7042710045       -0.0000000021
C                0.5190545210        0.7412266422       -0.0000000044
C                0.4817785291        0.8150371999       -0.0000000027
C                0.5188120799        0.8521348872       -0.0000000046
C                0.4815885442        0.9260302324       -0.0000000046
C                0.5185657533        0.9630854996       -0.0000000034
C                0.5924782342        0.0374512722       -0.0000000025
C                0.6293143192        0.0746806019       -0.0000000012
C                0.5920402800        0.1489612450       -0.0000000010
C                0.6285186629        0.1864579421       -0.0000000019
C                0.5907621010        0.2611630458       -0.0000000020
C                0.6255225275        0.3003245614       -0.0000000003
C                0.5861560063        0.3766379200       -0.0000000020
C                0.6282375819        0.4089146971        0.0000000044
C                0.5930409250        0.4828583255        0.0000000117
C                0.6305207076        0.5198224571        0.0000000089
C                0.5934671892        0.5934671786        0.0000000036
C                0.6304770819        0.6304770845        0.0000000024
C                0.5932272830        0.7042898891       -0.0000000006
C                0.6301461800        0.7412317762        0.0000000022
C                0.5928827545        0.8153007648       -0.0000000008
C                0.6298474954        0.8522620232       -0.0000000016
C                0.5926464366        0.9263005274       -0.0000000039
C                0.6296546585        0.9634026511       -0.0000000029
C                0.7033706270        0.0377211365       -0.0000000014
C                0.7400943485        0.0750254374       -0.0000000029
C                0.7025462854        0.1494151173       -0.0000000012
C                0.7387392025        0.1871768875        0.0000000007
C                0.7007218519        0.2620782561        0.0000000003
C                0.7391223589        0.2974841109       -0.0000000004
C                0.7018175289        0.3717240222        0.0000000027
C                0.7400948925        0.4082055042        0.0000000046
C                0.7042710070        0.4820820572        0.0000000068
C                0.7412266435        0.5190545206        0.0000000056
C                0.7042898953        0.5932272758        0.0000000069
C                0.7412317745        0.6301461816        0.0000000064
C                0.7041619331        0.7041619305        0.0000000037
C                0.7411793666        0.7411793701        0.0000000032
C                0.7040340446        0.8152175761        0.0000000014
C                0.7409845166        0.8522282985        0.0000000037
C                0.7037738537        0.9264171630        0.0000000014
C                0.7406789663        0.9634683694       -0.0000000012
C                0.8142986754        0.0377607377       -0.0000000036
C                0.8509967615        0.0749327556       -0.0000000025
C                0.8132661175        0.1494763850       -0.0000000001
C                0.8507557419        0.1859745704       -0.0000000011
C                0.8134652442        0.2601248561       -0.0000000016
C                0.8510457390        0.2966960988       -0.0000000007
C                0.8140543717        0.3709540665        0.0000000024
C                0.8514478751        0.4077263423        0.0000000027
C                0.8150372002        0.4817785276        0.0000000052
C                0.8521348876        0.5188120785        0.0000000037
C                0.8153007659        0.5928827533        0.0000000044
C                0.8522620207        0.6298474966        0.0000000029
C                0.8152175744        0.7040340447        0.0000000038
C                0.8522282951        0.7409845207        0.0000000047
C                0.8151150363        0.8151150390        0.0000000050
C                0.8521448147        0.8521448193        0.0000000020
C                0.8148849497        0.9263285042       -0.0000000012
C                0.8517689171        0.9633959937       -0.0000000011
C                0.9254499625        0.0374154960       -0.0000000036
C                0.9625204831        0.0742542512       -0.0000000028
C                0.9251356953        0.1485426749       -0.0000000033
C                0.9622998140        0.1853087315       -0.0000000026
C                0.9250760981        0.2595445641       -0.0000000004
C                0.9624387932        0.2964067350       -0.0000000025
C                0.9256002022        0.3704747175        0.0000000008
C                0.9627107049        0.4074025302        0.0000000018
C                0.9260302301        0.4815885444        0.0000000013
C                0.9630855007        0.5185657514       -0.0000000005
C                0.9263005248        0.5926464379        0.0000000023
C                0.9634026485        0.6296546599       -0.0000000002
C                0.9264171587        0.7037738550        0.0000000020
C                0.9634683652        0.7406789698        0.0000000010
C                0.9263284989        0.8148849536        0.0000000011
C                0.9633959893        0.8517689195       -0.0000000005
C                0.9260388155        0.9260388185       -0.0000000005
C                0.9630218958        0.9630218980       -0.0000000035



     Writing config-only to output data dir /home/gregb26/links/scratch/qe_tmp/vacancy_relaxed/nspin1/vac_9x9_relax_nspin1.save/ :
     XML data file
     NEW-OLD atomic charge density approx. for the potential

     negative rho (up, down):  7.527E-07 0.000E+00

     total cpu time spent up to now is     2940.9 secs

     per-process dynamical memory:   351.9 Mb

     Self-consistent Calculation

     iteration #  1     ecut=   100.00 Ry     beta= 0.30
     Davidson diagonalization with overlap
     ethr =  1.00E-06,  avg # of iterations =  3.0

     Threshold (ethr) on eigenvalues was too large:
     Diagonalizing with lowered threshold

     Davidson diagonalization with overlap
     ethr =  2.29E-08,  avg # of iterations =  4.0

     negative rho (up, down):  4.881E-07 0.000E+00

     total cpu time spent up to now is     2962.0 secs

     total energy              =   -1939.06459672 Ry
     estimated scf accuracy    <       0.00014857 Ry

     iteration #  2     ecut=   100.00 Ry     beta= 0.30
     Davidson diagonalization with overlap
     ethr =  2.31E-08,  avg # of iterations =  5.0

     negative rho (up, down):  4.780E-07 0.000E+00

     total cpu time spent up to now is     2970.9 secs

     total energy              =   -1939.06411978 Ry
     estimated scf accuracy    <       0.03707819 Ry

     iteration #  3     ecut=   100.00 Ry     beta= 0.30
     Davidson diagonalization with overlap
     ethr =  2.31E-08,  avg # of iterations =  5.0

     negative rho (up, down):  2.283E-07 0.000E+00

     total cpu time spent up to now is     2979.4 secs

     total energy              =   -1939.06465526 Ry
     estimated scf accuracy    <       0.00000687 Ry

     iteration #  4     ecut=   100.00 Ry     beta= 0.30
     Davidson diagonalization with overlap
     ethr =  1.07E-09,  avg # of iterations =  5.0

     negative rho (up, down):  6.584E-08 0.000E+00

     total cpu time spent up to now is     2989.0 secs

     total energy              =   -1939.06465579 Ry
     estimated scf accuracy    <       0.00000960 Ry

     iteration #  5     ecut=   100.00 Ry     beta= 0.30
     Davidson diagonalization with overlap
     ethr =  1.07E-09,  avg # of iterations =  2.0

     negative rho (up, down):  2.425E-08 0.000E+00

     total cpu time spent up to now is     2996.8 secs

     total energy              =   -1939.06465609 Ry
     estimated scf accuracy    <       0.00000076 Ry

     iteration #  6     ecut=   100.00 Ry     beta= 0.30
     Davidson diagonalization with overlap
     ethr =  1.18E-10,  avg # of iterations =  5.0

     total cpu time spent up to now is     3005.4 secs

     total energy              =   -1939.06465616 Ry
     estimated scf accuracy    <       0.00000015 Ry

     iteration #  7     ecut=   100.00 Ry     beta= 0.30
     Davidson diagonalization with overlap
     ethr =  2.28E-11,  avg # of iterations =  4.0

     total cpu time spent up to now is     3014.6 secs

     total energy              =   -1939.06465618 Ry
     estimated scf accuracy    <       0.00000005 Ry

     iteration #  8     ecut=   100.00 Ry     beta= 0.30
     Davidson diagonalization with overlap
     ethr =  7.77E-12,  avg # of iterations =  4.0

     total cpu time spent up to now is     3023.1 secs

     total energy              =   -1939.06465618 Ry
     estimated scf accuracy    <          3.7E-09 Ry

     iteration #  9     ecut=   100.00 Ry     beta= 0.30
     Davidson diagonalization with overlap
     ethr =  5.68E-13,  avg # of iterations =  5.0

     total cpu time spent up to now is     3036.0 secs

     total energy              =   -1939.06465618 Ry
     estimated scf accuracy    <          8.1E-10 Ry

     iteration # 10     ecut=   100.00 Ry     beta= 0.30
     Davidson diagonalization with overlap
     ethr =  1.25E-13,  avg # of iterations =  4.0

     total cpu time spent up to now is     3046.1 secs

     total energy              =   -1939.06465618 Ry
     estimated scf accuracy    <          2.9E-10 Ry

     iteration # 11     ecut=   100.00 Ry     beta= 0.30
     Davidson diagonalization with overlap
     ethr =  1.00E-13,  avg # of iterations =  1.0

     total cpu time spent up to now is     3053.4 secs

     total energy              =   -1939.06465618 Ry
     estimated scf accuracy    <          4.6E-11 Ry

     iteration # 12     ecut=   100.00 Ry     beta= 0.30
     Davidson diagonalization with overlap
     ethr =  1.00E-13,  avg # of iterations =  1.0

     total cpu time spent up to now is     3060.7 secs

     total energy              =   -1939.06465618 Ry
     estimated scf accuracy    <          2.0E-11 Ry

     iteration # 13     ecut=   100.00 Ry     beta= 0.30
     Davidson diagonalization with overlap
     ethr =  1.00E-13,  avg # of iterations =  1.0

     total cpu time spent up to now is     3067.9 secs

     total energy              =   -1939.06465618 Ry
     estimated scf accuracy    <          3.8E-11 Ry

     iteration # 14     ecut=   100.00 Ry     beta= 0.30
     Davidson diagonalization with overlap
     ethr =  1.00E-13,  avg # of iterations =  1.0

     total cpu time spent up to now is     3075.2 secs

     End of self-consistent calculation

          k = 0.0000 0.0000 0.0000 (385710 PWs)   bands (ev):

   -23.7924 -23.5482 -23.5235 -23.5123 -23.5029 -23.4802 -23.4066 -22.9579
   -22.9382 -22.9379 -22.9310 -22.9016 -22.8396 -22.6650 -22.6570 -22.6438
   -22.6325 -22.6127 -22.4696 -21.8124 -21.8042 -21.7987 -21.7969 -21.7948
   -21.7879 -21.7878 -21.7808 -21.7721 -21.7714 -21.7160 -21.5325 -21.2429
   -21.2253 -21.2192 -21.2050 -21.1823 -21.0066 -20.4010 -20.3977 -20.3870
   -20.3774 -20.3576 -20.3080 -20.1357 -20.1309 -20.1254 -20.1236 -20.1186
   -20.1138 -20.1079 -20.1001 -20.0859 -20.0851 -20.0298 -19.7065 -19.3385
   -19.3302 -19.3147 -19.2878 -19.2863 -19.0981 -18.5678 -18.5617 -18.5593
   -18.5566 -18.5471 -18.5461 -18.5285 -18.5266 -18.5132 -18.4912 -18.4869
   -18.4362 -18.3853 -18.3820 -18.3681 -18.3543 -18.3306 -17.7308 -17.3492
   -17.3491 -17.3462 -17.3019 -17.2645 -17.1814 -16.9028 -16.8597 -16.8553
   -16.7793 -16.6738 -16.6732 -16.6652 -16.6015 -16.5863 -16.4293 -16.0975
   -16.0972 -16.0906 -16.0898 -16.0848 -16.0829 -16.0783 -16.0726 -16.0520
   -15.9378 -15.9369 -15.5473 -15.2374 -15.2302 -15.2192 -15.2163 -15.2117
   -15.2112 -15.2073 -15.1918 -15.1885 -15.0809 -15.0674 -14.8085 -14.7748
   -14.4612 -13.9813 -13.9742 -13.9731 -13.9494 -13.9479 -13.9387 -13.9373
   -13.9311 -13.9134 -13.8465 -13.8124 -13.5589 -13.4656 -13.4523 -13.4470
   -13.4421 -13.4381 -13.4353 -13.4271 -13.4236 -13.4129 -13.2172 -13.1895
   -12.9156 -12.5150 -12.5038 -12.4651 -12.4641 -12.4553 -12.4545 -12.4537
   -12.4480 -12.4471 -12.4440 -12.4386 -12.4249 -12.4226 -12.4216 -12.4071
   -12.1654 -12.1523 -11.8768 -11.7129 -11.6245 -11.6231 -11.6132 -11.5671
   -11.5530 -11.5445 -11.5417 -11.5361 -11.5222 -11.5143 -11.4536 -11.4207
   -11.3546 -11.3331 -11.3285 -11.3206 -11.3142 -11.3126 -11.3062 -11.2787
   -11.2651 -11.1762 -11.1382 -11.1213 -11.0200 -11.0021 -10.9833 -10.9081
   -10.8684 -10.8615 -10.8582 -10.8569 -10.8525 -10.8271 -10.7544 -10.6687
   -10.6543 -10.6315 -10.6281 -10.5820 -10.5710 -10.5394 -10.5294 -10.5238
   -10.5153 -10.5034 -10.4895 -10.4585 -10.4488 -10.4479 -10.4362 -10.4331
   -10.4287 -10.4155 -10.4069 -10.3849 -10.3385 -10.2357 -10.2228 -10.2096
   -10.1109 -10.0924 -10.0700 -10.0484 -10.0371 -10.0181 -10.0063  -9.9959
    -9.9769  -9.5394  -9.5293  -9.5280  -9.5234  -9.5211  -9.5199  -9.5197
    -9.5157  -9.5041  -9.5032  -9.4648  -9.4637  -9.4489  -9.2660  -9.1246
    -9.0926  -9.0831  -9.0761  -9.0607  -9.0551  -9.0535  -9.0417  -9.0351
    -8.9930  -8.9086  -8.8928  -8.8883  -8.8701  -8.8682  -8.8103  -8.6952
    -8.6096  -8.6066  -8.4575  -8.4447  -8.4438  -8.1026  -8.0847  -7.9454
    -7.9448  -7.9441  -7.9367  -7.9359  -7.9231  -7.9146  -7.9120  -7.8912
    -7.8727  -7.8719  -7.7145  -7.7060  -7.7029  -7.6988  -7.6955  -7.6904
    -7.6887  -7.6872  -7.6656  -7.6653  -7.6546  -7.4011  -7.3998  -7.3586
    -7.0696  -7.0623  -7.0527  -7.0356  -7.0139  -6.8061  -6.3681  -6.3674
    -6.3585  -6.3422  -6.3381  -6.2554  -6.0918  -6.0854  -6.0785  -6.0754
    -6.0683  -6.0664  -6.0579  -6.0517  -6.0383  -6.0322  -6.0218  -5.0240
    -4.2764  -4.2441  -4.2286  -4.2205  -3.9667  -3.1144  -2.6736  -2.6629
    -2.6551  -2.6519  -2.6413  -2.6386  -2.5870  -2.5855  -2.5685  -2.5566
    -2.5544  -2.5515  -2.5460  -2.5343  -2.5241  -2.4382  -2.4370  -2.2121
    -2.0601  -2.0491  -2.0324  -1.9954  -1.9673  -1.5661  -0.9825  -0.9752

     the Fermi energy is    -4.2239 ev

!    total energy              =   -1939.06465618 Ry
     estimated scf accuracy    <          3.5E-12 Ry
     smearing contrib. (-TS)   =      -0.01242855 Ry
     internal energy E=F+TS    =   -1939.05222764 Ry

     The total energy is F=E-TS. E is the sum of the following terms:
     one-electron contribution =  -21951.45444864 Ry
     hartree contribution      =   11035.85343088 Ry
     xc contribution           =    -689.86878155 Ry
     ewald contribution        =    9666.41757167 Ry

     convergence has been achieved in  14 iterations

     Forces acting on atoms (cartesian axes, Ry/au):

     atom    1 type  1   force =    -0.00037805   -0.00000001   -0.00000000
     atom    2 type  1   force =    -0.00005587   -0.00000007   -0.00000001
     atom    3 type  1   force =    -0.00015914   -0.00006139    0.00000001
     atom    4 type  1   force =     0.00002905   -0.00019530    0.00000000
     atom    5 type  1   force =     0.00016008   -0.00005726   -0.00000000
     atom    6 type  1   force =    -0.00016752    0.00027718   -0.00000001
     atom    7 type  1   force =     0.00009878   -0.00012513   -0.00000001
     atom    8 type  1   force =    -0.00019769    0.00062814    0.00000000
     atom    9 type  1   force =     0.00016117    0.00006900    0.00000000
     atom   10 type  1   force =    -0.00021399    0.00002026    0.00000001
     atom   11 type  1   force =    -0.00006621   -0.00001769    0.00000001
     atom   12 type  1   force =    -0.00011161    0.00005574   -0.00000001
     atom   13 type  1   force =     0.00000806   -0.00012791   -0.00000000
     atom   14 type  1   force =     0.00039233   -0.00000178    0.00000000
     atom   15 type  1   force =    -0.00006992    0.00017339    0.00000001
     atom   16 type  1   force =     0.00037003   -0.00028760    0.00000000
     atom   17 type  1   force =    -0.00045224    0.00018381    0.00000001
     atom   18 type  1   force =    -0.00021477    0.00013233    0.00000000
     atom   19 type  1   force =    -0.00015924    0.00006148    0.00000000
     atom   20 type  1   force =     0.00002907    0.00019512    0.00000001
     atom   21 type  1   force =     0.00010424    0.00000014   -0.00000000
     atom   22 type  1   force =    -0.00056634   -0.00000013   -0.00000000
     atom   23 type  1   force =     0.00017995   -0.00015030    0.00000000
     atom   24 type  1   force =    -0.00039321    0.00023860   -0.00000000
     atom   25 type  1   force =    -0.00010202   -0.00009133    0.00000000
     atom   26 type  1   force =    -0.00018261    0.00027461    0.00000001
     atom   27 type  1   force =     0.00000855   -0.00026948   -0.00000001
     atom   28 type  1   force =     0.00025849   -0.00026772   -0.00000000
     atom   29 type  1   force =    -0.00016941   -0.00018678    0.00000001
     atom   30 type  1   force =    -0.00004343    0.00005592    0.00000001
     atom   31 type  1   force =    -0.00000077   -0.00005699   -0.00000001
     atom   32 type  1   force =     0.00026752   -0.00021872    0.00000000
     atom   33 type  1   force =    -0.00007639   -0.00006721   -0.00000001
     atom   34 type  1   force =     0.00025715   -0.00008426   -0.00000001
     atom   35 type  1   force =    -0.00015291    0.00018609   -0.00000000
     atom   36 type  1   force =     0.00004410    0.00008104    0.00000000
     atom   37 type  1   force =     0.00015996    0.00005724   -0.00000000
     atom   38 type  1   force =    -0.00016744   -0.00027724    0.00000001
     atom   39 type  1   force =     0.00017993    0.00015051    0.00000001
     atom   40 type  1   force =    -0.00039324   -0.00023879   -0.00000002
     atom   41 type  1   force =     0.00010727    0.00000011   -0.00000000
     atom   42 type  1   force =     0.00027892   -0.00000004    0.00000000
     atom   43 type  1   force =    -0.00013202   -0.00019018    0.00000000
     atom   44 type  1   force =     0.00059015   -0.00011527   -0.00000000
     atom   45 type  1   force =     0.00005389   -0.00024794    0.00000000
     atom   46 type  1   force =     0.00008315   -0.00018314    0.00000001
     atom   47 type  1   force =    -0.00000706    0.00003207   -0.00000002
     atom   48 type  1   force =    -0.00007334    0.00000882   -0.00000000
     atom   49 type  1   force =     0.00007262   -0.00021582    0.00000000
     atom   50 type  1   force =    -0.00015067   -0.00016416    0.00000001
     atom   51 type  1   force =    -0.00006902   -0.00013371   -0.00000001
     atom   52 type  1   force =    -0.00000789   -0.00037662    0.00000000
     atom   53 type  1   force =    -0.00026319   -0.00015066   -0.00000000
     atom   54 type  1   force =     0.00027885    0.00003400   -0.00000001
     atom   55 type  1   force =     0.00009861    0.00012503    0.00000000
     atom   56 type  1   force =    -0.00019764   -0.00062806    0.00000000
     atom   57 type  1   force =    -0.00010200    0.00009139   -0.00000000
     atom   58 type  1   force =    -0.00018263   -0.00027467    0.00000000
     atom   59 type  1   force =    -0.00013207    0.00019021    0.00000001
     atom   60 type  1   force =     0.00059021    0.00011546   -0.00000002
     atom   61 type  1   force =    -0.00007078   -0.00000012   -0.00000000
     atom   62 type  1   force =     0.00047121    0.00000012    0.00000001
     atom   63 type  1   force =    -0.00019673    0.00012500   -0.00000001
     atom   64 type  1   force =    -0.00003296    0.00008197   -0.00000000
     atom   65 type  1   force =    -0.00003187    0.00019147    0.00000000
     atom   66 type  1   force =     0.00015239    0.00012723    0.00000001
     atom   67 type  1   force =     0.00002755   -0.00030289   -0.00000000
     atom   68 type  1   force =    -0.00002773   -0.00011476   -0.00000001
     atom   69 type  1   force =    -0.00014495   -0.00022546    0.00000000
     atom   70 type  1   force =     0.00010310    0.00001311   -0.00000000
     atom   71 type  1   force =     0.00011057    0.00019433   -0.00000001
     atom   72 type  1   force =     0.00011866   -0.00019529    0.00000001
     atom   73 type  1   force =     0.00016121   -0.00006915   -0.00000001
     atom   74 type  1   force =    -0.00021408   -0.00002021    0.00000001
     atom   75 type  1   force =     0.00000851    0.00026948   -0.00000000
     atom   76 type  1   force =     0.00025854    0.00026770   -0.00000000
     atom   77 type  1   force =     0.00005384    0.00024784    0.00000001
     atom   78 type  1   force =     0.00008323    0.00018325    0.00000001
     atom   79 type  1   force =    -0.00019682   -0.00012512    0.00000000
     atom   80 type  1   force =    -0.00003288   -0.00008198   -0.00000001
     atom   81 type  1   force =    -0.00020884   -0.00000032    0.00000001
     atom   82 type  1   force =     0.00013697   -0.00016283    0.00000002
     atom   83 type  1   force =    -0.00021635    0.00008663    0.00000000
     atom   84 type  1   force =    -0.00021388   -0.00038336   -0.00000001
     atom   85 type  1   force =    -0.00006741    0.00028508    0.00000002
     atom   86 type  1   force =    -0.00019761   -0.00012423   -0.00000001
     atom   87 type  1   force =    -0.00004359    0.00019951    0.00000001
     atom   88 type  1   force =     0.00026549   -0.00006526   -0.00000000
     atom   89 type  1   force =     0.00000820   -0.00036347   -0.00000000
     atom   90 type  1   force =    -0.00006624    0.00001766    0.00000000
     atom   91 type  1   force =    -0.00011157   -0.00005593   -0.00000000
     atom   92 type  1   force =    -0.00016944    0.00018689   -0.00000000
     atom   93 type  1   force =    -0.00004334   -0.00005591    0.00000001
     atom   94 type  1   force =    -0.00000724   -0.00003215   -0.00000001
     atom   95 type  1   force =    -0.00007320   -0.00000885   -0.00000001
     atom   96 type  1   force =    -0.00003198   -0.00019138   -0.00000000
     atom   97 type  1   force =     0.00015254   -0.00012723    0.00000000
     atom   98 type  1   force =     0.00013675    0.00016332    0.00000001
     atom   99 type  1   force =    -0.00021637   -0.00008703   -0.00000002
     atom  100 type  1   force =    -0.00006126    0.00000033    0.00000000
     atom  101 type  1   force =     0.00013001   -0.00000026    0.00000001
     atom  102 type  1   force =    -0.00014933   -0.00015108    0.00000000
     atom  103 type  1   force =     0.00026124    0.00013868   -0.00000001
     atom  104 type  1   force =     0.00015555    0.00016861   -0.00000001
     atom  105 type  1   force =     0.00022605   -0.00024239    0.00000000
     atom  106 type  1   force =     0.00018642   -0.00010485    0.00000001
     atom  107 type  1   force =     0.00006359   -0.00039902    0.00000001
     atom  108 type  1   force =     0.00000803    0.00012806   -0.00000001
     atom  109 type  1   force =     0.00039228    0.00000174    0.00000001
     atom  110 type  1   force =    -0.00000083    0.00005706   -0.00000000
     atom  111 type  1   force =     0.00026761    0.00021872   -0.00000001
     atom  112 type  1   force =     0.00007247    0.00021579    0.00000000
     atom  113 type  1   force =    -0.00015053    0.00016446    0.00000000
     atom  114 type  1   force =     0.00002734    0.00030269   -0.00000000
     atom  115 type  1   force =    -0.00002761    0.00011500    0.00000000
     atom  116 type  1   force =    -0.00021388    0.00038339   -0.00000000
     atom  117 type  1   force =    -0.00006756   -0.00028520    0.00000001
     atom  118 type  1   force =    -0.00014927    0.00015149   -0.00000001
     atom  119 type  1   force =     0.00026120   -0.00013891   -0.00000001
     atom  120 type  1   force =    -0.00008151    0.00000013    0.00000001
     atom  121 type  1   force =     0.00036505   -0.00000009    0.00000000
     atom  122 type  1   force =     0.00030424    0.00010292    0.00000001
     atom  123 type  1   force =     0.00005739   -0.00021972   -0.00000001
     atom  124 type  1   force =     0.00010230    0.00002488   -0.00000001
     atom  125 type  1   force =    -0.00010258   -0.00006428    0.00000001
     atom  126 type  1   force =    -0.00006985   -0.00017342    0.00000001
     atom  127 type  1   force =     0.00036994    0.00028770   -0.00000000
     atom  128 type  1   force =    -0.00007639    0.00006713   -0.00000001
     atom  129 type  1   force =     0.00025704    0.00008443   -0.00000001
     atom  130 type  1   force =    -0.00006895    0.00013343    0.00000001
     atom  131 type  1   force =    -0.00000798    0.00037693    0.00000001
     atom  132 type  1   force =    -0.00014487    0.00022517   -0.00000000
     atom  133 type  1   force =     0.00010299   -0.00001290    0.00000001
     atom  134 type  1   force =    -0.00019756    0.00012418   -0.00000001
     atom  135 type  1   force =    -0.00004361   -0.00019945    0.00000000
     atom  136 type  1   force =     0.00015552   -0.00016852    0.00000000
     atom  137 type  1   force =     0.00022607    0.00024234    0.00000001
     atom  138 type  1   force =     0.00030430   -0.00010281    0.00000000
     atom  139 type  1   force =     0.00005728    0.00021967   -0.00000001
     atom  140 type  1   force =     0.00009312    0.00000003   -0.00000001
     atom  141 type  1   force =    -0.00041969    0.00000000   -0.00000000
     atom  142 type  1   force =     0.00006894   -0.00017176    0.00000001
     atom  143 type  1   force =    -0.00034345   -0.00000459   -0.00000001
     atom  144 type  1   force =    -0.00045221   -0.00018387    0.00000000
     atom  145 type  1   force =    -0.00021482   -0.00013234   -0.00000000
     atom  146 type  1   force =    -0.00015269   -0.00018622    0.00000001
     atom  147 type  1   force =     0.00004390   -0.00008101   -0.00000000
     atom  148 type  1   force =    -0.00026301    0.00015043   -0.00000002
     atom  149 type  1   force =     0.00027875   -0.00003380    0.00000002
     atom  150 type  1   force =     0.00011071   -0.00019459   -0.00000000
     atom  151 type  1   force =     0.00011852    0.00019548   -0.00000000
     atom  152 type  1   force =     0.00026557    0.00006511    0.00000000
     atom  153 type  1   force =     0.00000816    0.00036366    0.00000001
     atom  154 type  1   force =     0.00018642    0.00010477   -0.00000002
     atom  155 type  1   force =     0.00006354    0.00039903    0.00000000
     atom  156 type  1   force =     0.00010242   -0.00002488    0.00000000
     atom  157 type  1   force =    -0.00010264    0.00006423    0.00000000
     atom  158 type  1   force =     0.00006895    0.00017170   -0.00000000
     atom  159 type  1   force =    -0.00034340    0.00000459   -0.00000000
     atom  160 type  1   force =    -0.00041600   -0.00000001   -0.00000001
     atom  161 type  1   force =    -0.00012494    0.00000001    0.00000001

     Total force =     0.003473     Total SCF correction =     0.000004
     Energy error            =      1.5E-05 Ry
     Gradient error          =      6.3E-04 Ry/Bohr

     number of scf cycles    =  22
     number of bfgs steps    =  21

     energy             old  =   -1939.0646415036 Ry
     energy             new  =   -1939.0646561820 Ry

     CASE: energy            _new < energy            _old

     new trust radius        =       0.0013186109 bohr
     new conv_thr            =            1.5E-12 Ry


ATOMIC_POSITIONS (crystal)
C                0.0368279988        0.0368280004       -0.0000000018
C                0.0738288046        0.0738288076       -0.0000000023
C                0.0365642452        0.1480544337       -0.0000000038
C                0.0736308502        0.1849827685       -0.0000000037
C                0.0365155059        0.2592039333       -0.0000000018
C                0.0736094918        0.2961568440        0.0000000006
C                0.0367314132        0.3702273036        0.0000000012
C                0.0738014929        0.4072698864       -0.0000000012
C                0.0371418499        0.4813734707       -0.0000000025
C                0.0741582000        0.5183433367       -0.0000000034
C                0.0374549137        0.5924700571       -0.0000000024
C                0.0746844724        0.6293044797       -0.0000000001
C                0.0377418062        0.7033601711        0.0000000004
C                0.0750401215        0.7400984459        0.0000000004
C                0.0377631723        0.8143024501       -0.0000000015
C                0.0749480760        0.8509933929       -0.0000000004
C                0.0374037473        0.9254450781       -0.0000000026
C                0.0742452376        0.9625129915       -0.0000000010
C                0.1480544327        0.0365642459       -0.0000000024
C                0.1849827689        0.0736308504       -0.0000000045
C                0.1478094542        0.1478094536       -0.0000000039
C                0.1848543691        0.1848543667       -0.0000000018
C                0.1477928678        0.2589707004        0.0000000003
C                0.1847051715        0.2959699849        0.0000000009
C                0.1477268837        0.3700957593       -0.0000000008
C                0.1846749423        0.4070983094       -0.0000000013
C                0.1482209675        0.4811291702       -0.0000000014
C                0.1854917245        0.5179694063        0.0000000001
C                0.1489722626        0.5920214870        0.0000000002
C                0.1864595583        0.6285102487        0.0000000017
C                0.1494309859        0.7025390927        0.0000000022
C                0.1871975417        0.7387308695        0.0000000029
C                0.1494874449        0.8132584614        0.0000000035
C                0.1859856681        0.8507488232        0.0000000044
C                0.1485349367        0.9251319757        0.0000000022
C                0.1853065319        0.9622920894        0.0000000006
C                0.2592039329        0.0365155064       -0.0000000038
C                0.2961568461        0.0736094906       -0.0000000046
C                0.2589707004        0.1477928674       -0.0000000012
C                0.2959699871        0.1847051709        0.0000000038
C                0.2588625929        0.2588625921        0.0000000032
C                0.2957334902        0.2957334885        0.0000000027
C                0.2586328324        0.3698746681        0.0000000006
C                0.2953339228        0.4067363911        0.0000000012
C                0.2595315162        0.4805911719        0.0000000005
C                0.2971688317        0.5171759350       -0.0000000001
C                0.2611645808        0.5907520519        0.0000000012
C                0.3003379086        0.6255047262       -0.0000000024
C                0.2621005382        0.7007019492       -0.0000000008
C                0.2975003915        0.7391005112       -0.0000000021
C                0.2601391881        0.8134488009        0.0000000020
C                0.2967115789        0.8510246595        0.0000000014
C                0.2595473050        0.9250609065        0.0000000016
C                0.2964093581        0.9624356011       -0.0000000004
C                0.3702273040        0.0367314141       -0.0000000039
C                0.4072698887        0.0738014935       -0.0000000006
C                0.3700957589        0.1477268833        0.0000000031
C                0.4070983119        0.1846749424        0.0000000028
C                0.3698746687        0.2586328338        0.0000000031
C                0.4067363925        0.2953339205        0.0000000020
C                0.3693391587        0.3693391574        0.0000000007
C                0.4055654872        0.4055654834       -0.0000000032
C                0.3718065953        0.4790548836       -0.0000000029
C                0.4122933009        0.5109778112       -0.0000000106
C                0.3766537082        0.5861329746       -0.0000000085
C                0.4089295700        0.6282279484       -0.0000000060
C                0.3717433266        0.7017996108       -0.0000000045
C                0.4082219418        0.7400797483       -0.0000000014
C                0.3709665755        0.8140399479       -0.0000000001
C                0.4077299332        0.8514479361       -0.0000000007
C                0.3704740024        0.9256062750       -0.0000000010
C                0.4074116329        0.9627057650       -0.0000000038
C                0.4813734699        0.0371418507       -0.0000000010
C                0.5183433370        0.0741582048       -0.0000000007
C                0.4811291705        0.1482209683        0.0000000013
C                0.5179694070        0.1854917262       -0.0000000003
C                0.4805911745        0.2595315166       -0.0000000018
C                0.5171759386        0.2971688294       -0.0000000037
C                0.4790548857        0.3718065940       -0.0000000037
C                0.5109778142        0.4122932988       -0.0000000076
C                0.5222347111        0.5222347038        0.0000000271
C                0.4828740329        0.5930462380        0.0000000027
C                0.5198326522        0.6305265884       -0.0000000016
C                0.4820956326        0.7042701106       -0.0000000028
C                0.5190518878        0.7412395165       -0.0000000034
C                0.4817779070        0.8150453208       -0.0000000031
C                0.5188073115        0.8521469794       -0.0000000040
C                0.4815953488        0.9260365591       -0.0000000046
C                0.5185777532        0.9630800483       -0.0000000036
C                0.5924700566        0.0374549154       -0.0000000022
C                0.6293044786        0.0746844769       -0.0000000012
C                0.5920214887        0.1489722638       -0.0000000010
C                0.6285102495        0.1864595587       -0.0000000017
C                0.5907520534        0.2611645810       -0.0000000024
C                0.6255047289        0.3003379075       -0.0000000009
C                0.5861329774        0.3766537057       -0.0000000023
C                0.6282279539        0.4089295635        0.0000000045
C                0.5930462407        0.4828740317        0.0000000119
C                0.6305265903        0.5198326484        0.0000000085
C                0.5934779771        0.5934779721        0.0000000037
C                0.6304880534        0.6304880522        0.0000000024
C                0.5932332547        0.7042998514       -0.0000000007
C                0.6301484546        0.7412508370        0.0000000018
C                0.5928810782        0.8153219114       -0.0000000011
C                0.6298567478        0.8522718230       -0.0000000015
C                0.5926544789        0.9263059640       -0.0000000035
C                0.6296623205        0.9634040313       -0.0000000025
C                0.7033601702        0.0377418091       -0.0000000018
C                0.7400984447        0.0750401243       -0.0000000026
C                0.7025390934        0.1494309868       -0.0000000010
C                0.7387308696        0.1871975425        0.0000000003
C                0.7007019505        0.2621005368        0.0000000004
C                0.7391005112        0.2975003917       -0.0000000002
C                0.7017996122        0.3717433236        0.0000000026
C                0.7400797497        0.4082219396        0.0000000049
C                0.7042701140        0.4820956295        0.0000000067
C                0.7412395171        0.5190518850        0.0000000059
C                0.7042998546        0.5932332519        0.0000000066
C                0.7412508371        0.6301484539        0.0000000061
C                0.7041675681        0.7041675675        0.0000000039
C                0.7411893534        0.7411893551        0.0000000032
C                0.7040403884        0.8152292277        0.0000000016
C                0.7409923839        0.8522354486        0.0000000033
C                0.7037760523        0.9264287475        0.0000000009
C                0.7406767106        0.9634824498       -0.0000000010
C                0.8143024494        0.0377631745       -0.0000000033
C                0.8509933920        0.0749480792       -0.0000000024
C                0.8132584605        0.1494874474       -0.0000000004
C                0.8507488216        0.1859856710       -0.0000000014
C                0.8134488027        0.2601391862       -0.0000000012
C                0.8510246585        0.2967115807       -0.0000000004
C                0.8140399487        0.3709665734        0.0000000024
C                0.8514479363        0.4077299314        0.0000000031
C                0.8150453223        0.4817779059        0.0000000049
C                0.8521469802        0.5188073096        0.0000000038
C                0.8153219107        0.5928810775        0.0000000046
C                0.8522718226        0.6298567482        0.0000000032
C                0.8152292253        0.7040403899        0.0000000040
C                0.8522354459        0.7409923860        0.0000000042
C                0.8151208333        0.8151208374        0.0000000046
C                0.8521467901        0.8521467943        0.0000000020
C                0.8148878246        0.9263334746       -0.0000000007
C                0.8517670571        0.9633985648       -0.0000000016
C                0.9254450761        0.0374037503       -0.0000000034
C                0.9625129890        0.0742452404       -0.0000000032
C                0.9251319736        0.1485349400       -0.0000000031
C                0.9622920886        0.1853065329       -0.0000000027
C                0.9250609053        0.2595473065       -0.0000000011
C                0.9624356014        0.2964093574       -0.0000000019
C                0.9256062744        0.3704740026        0.0000000007
C                0.9627057662        0.4074116306        0.0000000016
C                0.9260365571        0.4815953489        0.0000000013
C                0.9630800473        0.5185777530       -0.0000000001
C                0.9263059609        0.5926544791        0.0000000016
C                0.9634040277        0.6296623224       -0.0000000000
C                0.9264287437        0.7037760544        0.0000000020
C                0.9634824463        0.7406767130        0.0000000012
C                0.9263334705        0.8148878280        0.0000000012
C                0.9633985604        0.8517670593       -0.0000000005
C                0.9260340257        0.9260340283       -0.0000000009
C                0.9630185530        0.9630185559       -0.0000000033



     Writing config-only to output data dir /home/gregb26/links/scratch/qe_tmp/vacancy_relaxed/nspin1/vac_9x9_relax_nspin1.save/ :
     XML data file
     NEW-OLD atomic charge density approx. for the potential

     negative rho (up, down):  3.243E-07 0.000E+00

     total cpu time spent up to now is     3078.8 secs

     per-process dynamical memory:   351.9 Mb

     Self-consistent Calculation

     iteration #  1     ecut=   100.00 Ry     beta= 0.30
     Davidson diagonalization with overlap
     ethr =  1.00E-06,  avg # of iterations =  2.0

     Threshold (ethr) on eigenvalues was too large:
     Diagonalizing with lowered threshold

     Davidson diagonalization with overlap
     ethr =  1.36E-08,  avg # of iterations =  3.0

     negative rho (up, down):  2.071E-07 0.000E+00

     total cpu time spent up to now is     3098.1 secs

     total energy              =   -1939.06462311 Ry
     estimated scf accuracy    <       0.00009146 Ry

     iteration #  2     ecut=   100.00 Ry     beta= 0.30
     Davidson diagonalization with overlap
     ethr =  1.42E-08,  avg # of iterations =  5.0

     negative rho (up, down):  2.027E-07 0.000E+00

     total cpu time spent up to now is     3107.1 secs

     total energy              =   -1939.06429526 Ry
     estimated scf accuracy    <       0.02576702 Ry

     iteration #  3     ecut=   100.00 Ry     beta= 0.30
     Davidson diagonalization with overlap
     ethr =  1.42E-08,  avg # of iterations =  5.0

     negative rho (up, down):  9.391E-08 0.000E+00

     total cpu time spent up to now is     3115.6 secs

     total energy              =   -1939.06466288 Ry
     estimated scf accuracy    <       0.00000201 Ry

     iteration #  4     ecut=   100.00 Ry     beta= 0.30
     Davidson diagonalization with overlap
     ethr =  3.12E-10,  avg # of iterations =  5.0

     negative rho (up, down):  3.773E-08 0.000E+00

     total cpu time spent up to now is     3126.6 secs

     total energy              =   -1939.06466337 Ry
     estimated scf accuracy    <       0.00000393 Ry

     iteration #  5     ecut=   100.00 Ry     beta= 0.30
     Davidson diagonalization with overlap
     ethr =  3.12E-10,  avg # of iterations =  2.0

     negative rho (up, down):  1.357E-08 0.000E+00

     total cpu time spent up to now is     3134.5 secs

     total energy              =   -1939.06466343 Ry
     estimated scf accuracy    <       0.00000025 Ry

     iteration #  6     ecut=   100.00 Ry     beta= 0.30
     Davidson diagonalization with overlap
     ethr =  3.87E-11,  avg # of iterations =  5.0

     total cpu time spent up to now is     3143.2 secs

     total energy              =   -1939.06466346 Ry
     estimated scf accuracy    <       0.00000024 Ry

     iteration #  7     ecut=   100.00 Ry     beta= 0.30
     Davidson diagonalization with overlap
     ethr =  3.74E-11,  avg # of iterations =  1.0

     total cpu time spent up to now is     3150.1 secs

     total energy              =   -1939.06466346 Ry
     estimated scf accuracy    <       0.00000004 Ry

     iteration #  8     ecut=   100.00 Ry     beta= 0.30
     Davidson diagonalization with overlap
     ethr =  6.01E-12,  avg # of iterations =  2.0

     total cpu time spent up to now is     3157.8 secs

     total energy              =   -1939.06466346 Ry
     estimated scf accuracy    <          3.8E-09 Ry

     iteration #  9     ecut=   100.00 Ry     beta= 0.30
     Davidson diagonalization with overlap
     ethr =  5.93E-13,  avg # of iterations =  5.0

     total cpu time spent up to now is     3168.4 secs

     total energy              =   -1939.06466347 Ry
     estimated scf accuracy    <          1.3E-09 Ry

     iteration # 10     ecut=   100.00 Ry     beta= 0.30
     Davidson diagonalization with overlap
     ethr =  2.01E-13,  avg # of iterations =  2.0

     total cpu time spent up to now is     3176.6 secs

     total energy              =   -1939.06466347 Ry
     estimated scf accuracy    <          1.7E-10 Ry

     iteration # 11     ecut=   100.00 Ry     beta= 0.30
     Davidson diagonalization with overlap
     ethr =  1.00E-13,  avg # of iterations =  2.0

     total cpu time spent up to now is     3184.4 secs

     total energy              =   -1939.06466347 Ry
     estimated scf accuracy    <          1.9E-11 Ry

     iteration # 12     ecut=   100.00 Ry     beta= 0.30
     Davidson diagonalization with overlap
     ethr =  1.00E-13,  avg # of iterations =  1.0

     total cpu time spent up to now is     3191.5 secs

     total energy              =   -1939.06466347 Ry
     estimated scf accuracy    <          6.9E-12 Ry

     iteration # 13     ecut=   100.00 Ry     beta= 0.30
     Davidson diagonalization with overlap
     ethr =  1.00E-13,  avg # of iterations =  1.0

     total cpu time spent up to now is     3198.5 secs

     total energy              =   -1939.06466347 Ry
     estimated scf accuracy    <          3.1E-12 Ry

     iteration # 14     ecut=   100.00 Ry     beta= 0.30
     Davidson diagonalization with overlap
     ethr =  1.00E-13,  avg # of iterations =  1.0

     total cpu time spent up to now is     3205.6 secs

     End of self-consistent calculation

          k = 0.0000 0.0000 0.0000 (385710 PWs)   bands (ev):

   -23.7924 -23.5480 -23.5239 -23.5122 -23.5031 -23.4799 -23.4066 -22.9579
   -22.9382 -22.9379 -22.9311 -22.9016 -22.8399 -22.6652 -22.6568 -22.6436
   -22.6322 -22.6126 -22.4696 -21.8125 -21.8041 -21.7987 -21.7970 -21.7949
   -21.7880 -21.7879 -21.7805 -21.7723 -21.7717 -21.7153 -21.5321 -21.2428
   -21.2255 -21.2192 -21.2050 -21.1818 -21.0067 -20.4008 -20.3975 -20.3872
   -20.3773 -20.3574 -20.3086 -20.1354 -20.1307 -20.1255 -20.1235 -20.1185
   -20.1136 -20.1080 -20.0999 -20.0859 -20.0851 -20.0296 -19.7063 -19.3386
   -19.3302 -19.3146 -19.2876 -19.2863 -19.0982 -18.5679 -18.5618 -18.5595
   -18.5563 -18.5471 -18.5460 -18.5285 -18.5266 -18.5131 -18.4910 -18.4866
   -18.4365 -18.3852 -18.3821 -18.3677 -18.3543 -18.3301 -17.7302 -17.3493
   -17.3491 -17.3462 -17.3019 -17.2645 -17.1814 -16.9029 -16.8597 -16.8551
   -16.7795 -16.6737 -16.6731 -16.6649 -16.6015 -16.5864 -16.4293 -16.0977
   -16.0971 -16.0907 -16.0899 -16.0848 -16.0827 -16.0779 -16.0724 -16.0518
   -15.9378 -15.9370 -15.5472 -15.2371 -15.2304 -15.2194 -15.2162 -15.2115
   -15.2110 -15.2074 -15.1918 -15.1884 -15.0808 -15.0672 -14.8086 -14.7748
   -14.4612 -13.9811 -13.9742 -13.9729 -13.9496 -13.9478 -13.9389 -13.9374
   -13.9308 -13.9128 -13.8467 -13.8125 -13.5589 -13.4654 -13.4523 -13.4470
   -13.4422 -13.4379 -13.4354 -13.4270 -13.4236 -13.4128 -13.2169 -13.1889
   -12.9155 -12.5149 -12.5040 -12.4653 -12.4644 -12.4553 -12.4545 -12.4540
   -12.4480 -12.4470 -12.4439 -12.4388 -12.4248 -12.4221 -12.4213 -12.4068
   -12.1655 -12.1520 -11.8769 -11.7132 -11.6245 -11.6231 -11.6131 -11.5670
   -11.5533 -11.5444 -11.5416 -11.5363 -11.5223 -11.5140 -11.4536 -11.4207
   -11.3544 -11.3333 -11.3281 -11.3203 -11.3140 -11.3123 -11.3067 -11.2782
   -11.2650 -11.1765 -11.1385 -11.1209 -11.0198 -11.0019 -10.9830 -10.9083
   -10.8685 -10.8614 -10.8582 -10.8568 -10.8525 -10.8271 -10.7547 -10.6685
   -10.6541 -10.6316 -10.6282 -10.5819 -10.5712 -10.5390 -10.5295 -10.5237
   -10.5151 -10.5033 -10.4894 -10.4587 -10.4489 -10.4480 -10.4362 -10.4330
   -10.4285 -10.4156 -10.4068 -10.3846 -10.3384 -10.2360 -10.2230 -10.2094
   -10.1108 -10.0920 -10.0695 -10.0486 -10.0368 -10.0177 -10.0064  -9.9956
    -9.9772  -9.5396  -9.5292  -9.5280  -9.5234  -9.5212  -9.5199  -9.5197
    -9.5155  -9.5042  -9.5034  -9.4646  -9.4631  -9.4490  -9.2657  -9.1240
    -9.0931  -9.0835  -9.0760  -9.0599  -9.0551  -9.0539  -9.0416  -9.0350
    -8.9926  -8.9085  -8.8927  -8.8885  -8.8702  -8.8678  -8.8106  -8.6953
    -8.6094  -8.6064  -8.4574  -8.4448  -8.4440  -8.1034  -8.0843  -7.9457
    -7.9446  -7.9439  -7.9368  -7.9358  -7.9227  -7.9145  -7.9123  -7.8915
    -7.8732  -7.8719  -7.7143  -7.7058  -7.7029  -7.6988  -7.6953  -7.6904
    -7.6889  -7.6873  -7.6653  -7.6652  -7.6545  -7.4012  -7.3996  -7.3585
    -7.0698  -7.0625  -7.0526  -7.0352  -7.0138  -6.8061  -6.3681  -6.3672
    -6.3584  -6.3422  -6.3380  -6.2556  -6.0919  -6.0857  -6.0787  -6.0753
    -6.0683  -6.0663  -6.0576  -6.0517  -6.0378  -6.0321  -6.0218  -5.0238
    -4.2766  -4.2441  -4.2284  -4.2207  -3.9666  -3.1081  -2.6736  -2.6627
    -2.6551  -2.6522  -2.6416  -2.6386  -2.5871  -2.5854  -2.5684  -2.5568
    -2.5547  -2.5515  -2.5460  -2.5340  -2.5239  -2.4380  -2.4370  -2.2122
    -2.0601  -2.0491  -2.0325  -1.9953  -1.9673  -1.5659  -0.9825  -0.9753

     the Fermi energy is    -4.2239 ev

!    total energy              =   -1939.06466347 Ry
     estimated scf accuracy    <          2.8E-13 Ry
     smearing contrib. (-TS)   =      -0.01242668 Ry
     internal energy E=F+TS    =   -1939.05223679 Ry

     The total energy is F=E-TS. E is the sum of the following terms:
     one-electron contribution =  -21951.44824667 Ry
     hartree contribution      =   11035.85124986 Ry
     xc contribution           =    -689.86851384 Ry
     ewald contribution        =    9666.41327385 Ry

     convergence has been achieved in  14 iterations

     Forces acting on atoms (cartesian axes, Ry/au):

     atom    1 type  1   force =     0.00000076    0.00000003   -0.00000000
     atom    2 type  1   force =    -0.00015137   -0.00000006   -0.00000000
     atom    3 type  1   force =     0.00009247   -0.00000655    0.00000000
     atom    4 type  1   force =    -0.00004431   -0.00000534    0.00000000
     atom    5 type  1   force =    -0.00004061   -0.00008510   -0.00000000
     atom    6 type  1   force =    -0.00009431   -0.00004652   -0.00000000
     atom    7 type  1   force =     0.00001552    0.00001394   -0.00000000
     atom    8 type  1   force =    -0.00008319    0.00010581    0.00000000
     atom    9 type  1   force =     0.00003704    0.00007225    0.00000000
     atom   10 type  1   force =     0.00017590   -0.00001844    0.00000001
     atom   11 type  1   force =    -0.00000191    0.00013144    0.00000001
     atom   12 type  1   force =     0.00007414   -0.00017438   -0.00000000
     atom   13 type  1   force =     0.00002230    0.00018991   -0.00000000
     atom   14 type  1   force =     0.00002908   -0.00011637    0.00000000
     atom   15 type  1   force =     0.00008680   -0.00009233    0.00000001
     atom   16 type  1   force =    -0.00015492   -0.00005112    0.00000000
     atom   17 type  1   force =    -0.00002457   -0.00010386    0.00000001
     atom   18 type  1   force =    -0.00023363    0.00010709    0.00000000
     atom   19 type  1   force =     0.00009248    0.00000658   -0.00000000
     atom   20 type  1   force =    -0.00004435    0.00000534    0.00000001
     atom   21 type  1   force =    -0.00009667    0.00000001   -0.00000000
     atom   22 type  1   force =    -0.00008090    0.00000005    0.00000000
     atom   23 type  1   force =    -0.00005837   -0.00008161   -0.00000000
     atom   24 type  1   force =    -0.00002961   -0.00008346    0.00000000
     atom   25 type  1   force =    -0.00011027    0.00014698   -0.00000000
     atom   26 type  1   force =     0.00000653   -0.00011027    0.00000000
     atom   27 type  1   force =     0.00005409   -0.00003328   -0.00000000
     atom   28 type  1   force =     0.00020355   -0.00009869   -0.00000000
     atom   29 type  1   force =    -0.00018544    0.00005434    0.00000000
     atom   30 type  1   force =     0.00002425   -0.00009089    0.00000000
     atom   31 type  1   force =     0.00004384    0.00008762   -0.00000000
     atom   32 type  1   force =    -0.00001854   -0.00022120   -0.00000000
     atom   33 type  1   force =     0.00007973   -0.00016889   -0.00000001
     atom   34 type  1   force =     0.00015703   -0.00004719   -0.00000001
     atom   35 type  1   force =    -0.00004521   -0.00004388   -0.00000000
     atom   36 type  1   force =    -0.00002322    0.00000545    0.00000000
     atom   37 type  1   force =    -0.00004059    0.00008504    0.00000000
     atom   38 type  1   force =    -0.00009433    0.00004658    0.00000001
     atom   39 type  1   force =    -0.00005831    0.00008155    0.00000000
     atom   40 type  1   force =    -0.00002970    0.00008351   -0.00000001
     atom   41 type  1   force =    -0.00010333   -0.00000001   -0.00000000
     atom   42 type  1   force =     0.00002972    0.00000005    0.00000000
     atom   43 type  1   force =     0.00016932    0.00005831    0.00000000
     atom   44 type  1   force =     0.00003145   -0.00007319   -0.00000000
     atom   45 type  1   force =     0.00001606   -0.00015641   -0.00000000
     atom   46 type  1   force =     0.00010063    0.00003101    0.00000001
     atom   47 type  1   force =     0.00009869   -0.00006935   -0.00000001
     atom   48 type  1   force =    -0.00014719   -0.00010008   -0.00000001
     atom   49 type  1   force =    -0.00000950   -0.00005354    0.00000001
     atom   50 type  1   force =     0.00013055   -0.00009261    0.00000000
     atom   51 type  1   force =    -0.00017073   -0.00010373   -0.00000000
     atom   52 type  1   force =     0.00006129   -0.00007448    0.00000000
     atom   53 type  1   force =    -0.00001719   -0.00013513   -0.00000000
     atom   54 type  1   force =    -0.00002479    0.00009219   -0.00000000
     atom   55 type  1   force =     0.00001552   -0.00001402    0.00000000
     atom   56 type  1   force =    -0.00008329   -0.00010576    0.00000000
     atom   57 type  1   force =    -0.00011012   -0.00014701   -0.00000000
     atom   58 type  1   force =     0.00000642    0.00011035    0.00000000
     atom   59 type  1   force =     0.00016925   -0.00005841    0.00000000
     atom   60 type  1   force =     0.00003157    0.00007324   -0.00000001
     atom   61 type  1   force =     0.00003068   -0.00000002   -0.00000000
     atom   62 type  1   force =     0.00017500    0.00000005    0.00000001
     atom   63 type  1   force =     0.00008285   -0.00002915   -0.00000000
     atom   64 type  1   force =    -0.00006924    0.00009852   -0.00000000
     atom   65 type  1   force =     0.00018483    0.00010336    0.00000000
     atom   66 type  1   force =    -0.00012343   -0.00004759    0.00000001
     atom   67 type  1   force =     0.00000578   -0.00006855    0.00000000
     atom   68 type  1   force =     0.00005222    0.00003128   -0.00000001
     atom   69 type  1   force =     0.00003122   -0.00020972    0.00000000
     atom   70 type  1   force =    -0.00002213    0.00012864   -0.00000001
     atom   71 type  1   force =    -0.00003110   -0.00012589   -0.00000000
     atom   72 type  1   force =     0.00007481    0.00002734    0.00000000
     atom   73 type  1   force =     0.00003720   -0.00007228   -0.00000001
     atom   74 type  1   force =     0.00017570    0.00001834    0.00000000
     atom   75 type  1   force =     0.00005419    0.00003331   -0.00000000
     atom   76 type  1   force =     0.00020355    0.00009865   -0.00000000
     atom   77 type  1   force =     0.00001597    0.00015642    0.00000001
     atom   78 type  1   force =     0.00010066   -0.00003093    0.00000001
     atom   79 type  1   force =     0.00008286    0.00002910    0.00000000
     atom   80 type  1   force =    -0.00006923   -0.00009849   -0.00000001
     atom   81 type  1   force =    -0.00032664    0.00000012    0.00000001
     atom   82 type  1   force =     0.00004648   -0.00002855    0.00000001
     atom   83 type  1   force =    -0.00009597   -0.00006130    0.00000000
     atom   84 type  1   force =    -0.00021958   -0.00019694   -0.00000001
     atom   85 type  1   force =     0.00003742   -0.00011279    0.00000001
     atom   86 type  1   force =    -0.00015819   -0.00011433    0.00000000
     atom   87 type  1   force =     0.00010994   -0.00005114    0.00000001
     atom   88 type  1   force =     0.00002914   -0.00011594    0.00000000
     atom   89 type  1   force =     0.00009128   -0.00022470   -0.00000000
     atom   90 type  1   force =    -0.00000182   -0.00013137    0.00000000
     atom   91 type  1   force =     0.00007406    0.00017428   -0.00000000
     atom   92 type  1   force =    -0.00018548   -0.00005425   -0.00000000
     atom   93 type  1   force =     0.00002430    0.00009089    0.00000000
     atom   94 type  1   force =     0.00009869    0.00006930   -0.00000000
     atom   95 type  1   force =    -0.00014724    0.00010010   -0.00000000
     atom   96 type  1   force =     0.00018485   -0.00010337   -0.00000000
     atom   97 type  1   force =    -0.00012340    0.00004780   -0.00000000
     atom   98 type  1   force =     0.00004640    0.00002834    0.00000001
     atom   99 type  1   force =    -0.00009585    0.00006126   -0.00000001
     atom  100 type  1   force =    -0.00017655    0.00000005   -0.00000000
     atom  101 type  1   force =     0.00005453   -0.00000006    0.00000001
     atom  102 type  1   force =    -0.00002455    0.00006004    0.00000000
     atom  103 type  1   force =     0.00003461   -0.00003559   -0.00000001
     atom  104 type  1   force =     0.00001250   -0.00003272   -0.00000000
     atom  105 type  1   force =     0.00007248   -0.00013486    0.00000000
     atom  106 type  1   force =     0.00012744   -0.00019993    0.00000000
     atom  107 type  1   force =     0.00008312   -0.00011082    0.00000000
     atom  108 type  1   force =     0.00002229   -0.00018987   -0.00000000
     atom  109 type  1   force =     0.00002908    0.00011631    0.00000000
     atom  110 type  1   force =     0.00004383   -0.00008758   -0.00000000
     atom  111 type  1   force =    -0.00001855    0.00022118   -0.00000000
     atom  112 type  1   force =    -0.00000945    0.00005358   -0.00000000
     atom  113 type  1   force =     0.00013052    0.00009249    0.00000000
     atom  114 type  1   force =     0.00000586    0.00006854    0.00000000
     atom  115 type  1   force =     0.00005223   -0.00003129   -0.00000000
     atom  116 type  1   force =    -0.00021967    0.00019698   -0.00000000
     atom  117 type  1   force =     0.00003753    0.00011277    0.00000000
     atom  118 type  1   force =    -0.00002460   -0.00005995   -0.00000001
     atom  119 type  1   force =     0.00003462    0.00003556   -0.00000000
     atom  120 type  1   force =     0.00023942    0.00000002    0.00000000
     atom  121 type  1   force =     0.00014293   -0.00000001    0.00000000
     atom  122 type  1   force =     0.00025083   -0.00007745    0.00000000
     atom  123 type  1   force =     0.00008128   -0.00008258   -0.00000001
     atom  124 type  1   force =     0.00009992   -0.00014513   -0.00000001
     atom  125 type  1   force =    -0.00003434   -0.00005485    0.00000000
     atom  126 type  1   force =     0.00008683    0.00009238    0.00000001
     atom  127 type  1   force =    -0.00015497    0.00005112   -0.00000000
     atom  128 type  1   force =     0.00007973    0.00016887   -0.00000000
     atom  129 type  1   force =     0.00015699    0.00004711   -0.00000000
     atom  130 type  1   force =    -0.00017069    0.00010389    0.00000000
     atom  131 type  1   force =     0.00006124    0.00007437    0.00000000
     atom  132 type  1   force =     0.00003125    0.00020979    0.00000000
     atom  133 type  1   force =    -0.00002208   -0.00012862   -0.00000000
     atom  134 type  1   force =    -0.00015828    0.00011433    0.00000000
     atom  135 type  1   force =     0.00010996    0.00005122   -0.00000000
     atom  136 type  1   force =     0.00001254    0.00003269    0.00000000
     atom  137 type  1   force =     0.00007239    0.00013492    0.00000000
     atom  138 type  1   force =     0.00025086    0.00007742    0.00000000
     atom  139 type  1   force =     0.00008127    0.00008263   -0.00000000
     atom  140 type  1   force =     0.00000135   -0.00000004   -0.00000001
     atom  141 type  1   force =    -0.00014209   -0.00000001    0.00000000
     atom  142 type  1   force =    -0.00013201   -0.00003475    0.00000000
     atom  143 type  1   force =    -0.00025311   -0.00005863   -0.00000000
     atom  144 type  1   force =    -0.00002457    0.00010385   -0.00000000
     atom  145 type  1   force =    -0.00023360   -0.00010711    0.00000000
     atom  146 type  1   force =    -0.00004523    0.00004383    0.00000000
     atom  147 type  1   force =    -0.00002320   -0.00000542   -0.00000000
     atom  148 type  1   force =    -0.00001719    0.00013509   -0.00000001
     atom  149 type  1   force =    -0.00002477   -0.00009214    0.00000001
     atom  150 type  1   force =    -0.00003112    0.00012583    0.00000000
     atom  151 type  1   force =     0.00007482   -0.00002722   -0.00000001
     atom  152 type  1   force =     0.00002918    0.00011582    0.00000001
     atom  153 type  1   force =     0.00009126    0.00022472    0.00000000
     atom  154 type  1   force =     0.00012753    0.00019988   -0.00000001
     atom  155 type  1   force =     0.00008312    0.00011078    0.00000000
     atom  156 type  1   force =     0.00009995    0.00014511    0.00000000
     atom  157 type  1   force =    -0.00003434    0.00005484   -0.00000000
     atom  158 type  1   force =    -0.00013204    0.00003472   -0.00000000
     atom  159 type  1   force =    -0.00025304    0.00005859   -0.00000000
     atom  160 type  1   force =    -0.00016475    0.00000000   -0.00000001
     atom  161 type  1   force =    -0.00050676   -0.00000001    0.00000001

     Total force =     0.001929     Total SCF correction =     0.000001
     Energy error            =      7.3E-06 Ry
     Gradient error          =      5.1E-04 Ry/Bohr

     number of scf cycles    =  23
     number of bfgs steps    =  22

     energy             old  =   -1939.0646561820 Ry
     energy             new  =   -1939.0646634658 Ry

     CASE: energy            _new < energy            _old

     new trust radius        =       0.0006943999 bohr
     new conv_thr            =            1.0E-12 Ry


ATOMIC_POSITIONS (crystal)
C                0.0368244165        0.0368244187       -0.0000000020
C                0.0738243861        0.0738243867       -0.0000000026
C                0.0365644864        0.1480533749       -0.0000000035
C                0.0736325346        0.1849800668       -0.0000000037
C                0.0365166771        0.2592023080       -0.0000000018
C                0.0736073313        0.2961578604        0.0000000004
C                0.0367288721        0.3702303850        0.0000000009
C                0.0737920464        0.4072778742       -0.0000000011
C                0.0371360916        0.4813801813       -0.0000000023
C                0.0741606676        0.5183437922       -0.0000000031
C                0.0374501156        0.5924724022       -0.0000000020
C                0.0746882384        0.6293001871       -0.0000000004
C                0.0377415734        0.7033626488        0.0000000003
C                0.0750451369        0.7401002095        0.0000000005
C                0.0377644004        0.8143038684       -0.0000000010
C                0.0749507378        0.8509901463       -0.0000000003
C                0.0373997210        0.9254415783       -0.0000000021
C                0.0742346218        0.9625104937       -0.0000000008
C                0.1480533732        0.0365644877       -0.0000000024
C                0.1849800665        0.0736325342       -0.0000000042
C                0.1478072500        0.1478072503       -0.0000000040
C                0.1848514340        0.1848514340       -0.0000000018
C                0.1477927280        0.2589674630        0.0000000002
C                0.1847038219        0.2959683726        0.0000000010
C                0.1477174608        0.3700984304       -0.0000000007
C                0.1846754200        0.4070950812       -0.0000000011
C                0.1482249220        0.4811274040       -0.0000000017
C                0.1855018169        0.5179647744        0.0000000000
C                0.1489712968        0.5920160266        0.0000000004
C                0.1864590933        0.6285094801        0.0000000019
C                0.1494326335        0.7025410225        0.0000000018
C                0.1872057391        0.7387274151        0.0000000027
C                0.1494942867        0.8132556042        0.0000000031
C                0.1859904660        0.8507504997        0.0000000039
C                0.1485314924        0.9251323141        0.0000000021
C                0.1853043103        0.9622915080        0.0000000007
C                0.2592023087        0.0365166766       -0.0000000037
C                0.2961578613        0.0736073313       -0.0000000040
C                0.2589674646        0.1477927271       -0.0000000009
C                0.2959683735        0.1847038209        0.0000000029
C                0.2588612036        0.2588612031        0.0000000031
C                0.2957353195        0.2957353185        0.0000000028
C                0.2586358366        0.3698789924        0.0000000009
C                0.2953415635        0.4067353162        0.0000000010
C                0.2595399919        0.4805873332        0.0000000005
C                0.2971696403        0.5171783727        0.0000000002
C                0.2611652689        0.5907533562        0.0000000004
C                0.3003327482        0.6255040364       -0.0000000026
C                0.2621033157        0.7007006943       -0.0000000006
C                0.2975065881        0.7390962241       -0.0000000018
C                0.2601418277        0.8134417832        0.0000000017
C                0.2967192096        0.8510174018        0.0000000014
C                0.2595512913        0.9250540820        0.0000000014
C                0.2964078548        0.9624391318       -0.0000000007
C                0.3702303858        0.0367288711       -0.0000000037
C                0.4072778749        0.0737920474       -0.0000000006
C                0.3700984315        0.1477174614        0.0000000030
C                0.4070950823        0.1846754205        0.0000000030
C                0.3698789927        0.2586358354        0.0000000032
C                0.4067353183        0.2953415641        0.0000000014
C                0.3693433076        0.3693433053        0.0000000006
C                0.4055708975        0.4055708971       -0.0000000026
C                0.3718063287        0.4790584423       -0.0000000031
C                0.4122761383        0.5109936893       -0.0000000108
C                0.3766460419        0.5861447721       -0.0000000083
C                0.4089294006        0.6282273799       -0.0000000052
C                0.3717470758        0.7017977273       -0.0000000046
C                0.4082263600        0.7400754971       -0.0000000018
C                0.3709744478        0.8140327103        0.0000000000
C                0.4077274454        0.8514500261       -0.0000000009
C                0.3704756576        0.9256064408       -0.0000000013
C                0.4074163179        0.9627068448       -0.0000000037
C                0.4813801826        0.0371360935       -0.0000000015
C                0.5183437917        0.0741606684       -0.0000000006
C                0.4811274039        0.1482249236        0.0000000011
C                0.5179647765        0.1855018177       -0.0000000005
C                0.4805873344        0.2595399912       -0.0000000013
C                0.5171783739        0.2971696407       -0.0000000032
C                0.4790584452        0.3718063262       -0.0000000034
C                0.5109936918        0.4122761373       -0.0000000081
C                0.5222273401        0.5222273390        0.0000000277
C                0.4828746584        0.5930436781        0.0000000033
C                0.5198326045        0.6305197719       -0.0000000014
C                0.4820983444        0.7042589694       -0.0000000033
C                0.5190514528        0.7412365456       -0.0000000028
C                0.4817762293        0.8150412972       -0.0000000032
C                0.5188074370        0.8521485217       -0.0000000035
C                0.4816014756        0.9260347367       -0.0000000044
C                0.5185903325        0.9630730419       -0.0000000037
C                0.5924724016        0.0374501191       -0.0000000020
C                0.6293001878        0.0746882392       -0.0000000014
C                0.5920160259        0.1489712994       -0.0000000011
C                0.6285094808        0.1864590948       -0.0000000015
C                0.5907533590        0.2611652669       -0.0000000025
C                0.6255040389        0.3003327465       -0.0000000012
C                0.5861447746        0.3766460404       -0.0000000025
C                0.6282273808        0.4089293998        0.0000000045
C                0.5930436840        0.4828746517        0.0000000123
C                0.6305197755        0.5198326023        0.0000000079
C                0.5934750359        0.5934750332        0.0000000037
C                0.6304874014        0.6304873983        0.0000000027
C                0.5932309779        0.7043012599       -0.0000000006
C                0.6301478162        0.7412530725        0.0000000013
C                0.5928799648        0.8153265621       -0.0000000014
C                0.6298641148        0.8522697617       -0.0000000014
C                0.5926649125        0.9263010953       -0.0000000032
C                0.6296704479        0.9634012986       -0.0000000022
C                0.7033626470        0.0377415771       -0.0000000020
C                0.7401002090        0.0750451383       -0.0000000023
C                0.7025410225        0.1494326348       -0.0000000010
C                0.7387274159        0.1872057395        0.0000000000
C                0.7007006952        0.2621033155        0.0000000003
C                0.7390962253        0.2975065870       -0.0000000002
C                0.7017977303        0.3717470722        0.0000000025
C                0.7400754986        0.4082263589        0.0000000049
C                0.7042589718        0.4820983408        0.0000000065
C                0.7412365475        0.5190514507        0.0000000061
C                0.7043012608        0.5932309764        0.0000000061
C                0.7412530731        0.6301478162        0.0000000058
C                0.7041708341        0.7041708331        0.0000000040
C                0.7411925814        0.7411925827        0.0000000033
C                0.7040466342        0.8152324206        0.0000000018
C                0.7409977478        0.8522352357        0.0000000030
C                0.7037817278        0.9264269005        0.0000000003
C                0.7406769016        0.9634835973       -0.0000000007
C                0.8143038675        0.0377644039       -0.0000000029
C                0.8509901438        0.0749507409       -0.0000000024
C                0.8132556039        0.1494942879       -0.0000000007
C                0.8507504988        0.1859904668       -0.0000000016
C                0.8134417835        0.2601418288       -0.0000000009
C                0.8510174020        0.2967192083       -0.0000000001
C                0.8140327102        0.3709744479        0.0000000024
C                0.8514500272        0.4077274438        0.0000000032
C                0.8150412968        0.4817762278        0.0000000047
C                0.8521485227        0.5188074366        0.0000000038
C                0.8153265615        0.5928799638        0.0000000047
C                0.8522697600        0.6298641161        0.0000000035
C                0.8152324193        0.7040466351        0.0000000041
C                0.8522352322        0.7409977505        0.0000000040
C                0.8151203697        0.8151203725        0.0000000043
C                0.8521437504        0.8521437536        0.0000000020
C                0.8148872739        0.9263291021       -0.0000000003
C                0.8517631181        0.9633925905       -0.0000000019
C                0.9254415767        0.0373997235       -0.0000000033
C                0.9625104921        0.0742346243       -0.0000000032
C                0.9251323142        0.1485314939       -0.0000000027
C                0.9622915065        0.1853043116       -0.0000000028
C                0.9250540822        0.2595512919       -0.0000000017
C                0.9624391315        0.2964078551       -0.0000000012
C                0.9256064407        0.3704756570        0.0000000008
C                0.9627068443        0.4074163170        0.0000000013
C                0.9260347364        0.4816014749        0.0000000015
C                0.9630730401        0.5185903326        0.0000000000
C                0.9263010939        0.5926649125        0.0000000011
C                0.9634012957        0.6296704491        0.0000000001
C                0.9264268981        0.7037817297        0.0000000020
C                0.9634835940        0.7406769037        0.0000000012
C                0.9263290984        0.8148872761        0.0000000012
C                0.9633925886        0.8517631200       -0.0000000006
C                0.9260281671        0.9260281699       -0.0000000014
C                0.9630090591        0.9630090614       -0.0000000030



     Writing config-only to output data dir /home/gregb26/links/scratch/qe_tmp/vacancy_relaxed/nspin1/vac_9x9_relax_nspin1.save/ :
     XML data file
     NEW-OLD atomic charge density approx. for the potential

     negative rho (up, down):  1.107E-07 0.000E+00

     total cpu time spent up to now is     3209.0 secs

     per-process dynamical memory:   353.4 Mb

     Self-consistent Calculation

     iteration #  1     ecut=   100.00 Ry     beta= 0.30
     Davidson diagonalization with overlap
     ethr =  1.00E-06,  avg # of iterations =  2.0

     Threshold (ethr) on eigenvalues was too large:
     Diagonalizing with lowered threshold

     Davidson diagonalization with overlap
     ethr =  1.56E-10,  avg # of iterations =  7.0

     negative rho (up, down):  6.830E-08 0.000E+00

     total cpu time spent up to now is     3236.9 secs

     total energy              =   -1939.06466625 Ry
     estimated scf accuracy    <       0.00000128 Ry

     iteration #  2     ecut=   100.00 Ry     beta= 0.30
     Davidson diagonalization with overlap
     ethr =  1.99E-10,  avg # of iterations =  2.0

     negative rho (up, down):  6.520E-08 0.000E+00

     total cpu time spent up to now is     3244.8 secs

     total energy              =   -1939.06466590 Ry
     estimated scf accuracy    <       0.00001083 Ry

     iteration #  3     ecut=   100.00 Ry     beta= 0.30
     Davidson diagonalization with overlap
     ethr =  1.99E-10,  avg # of iterations =  2.0

     negative rho (up, down):  3.301E-08 0.000E+00

     total cpu time spent up to now is     3252.7 secs

     total energy              =   -1939.06466612 Ry
     estimated scf accuracy    <       0.00001335 Ry

     iteration #  4     ecut=   100.00 Ry     beta= 0.30
     Davidson diagonalization with overlap
     ethr =  1.99E-10,  avg # of iterations =  2.0

     negative rho (up, down):  1.111E-08 0.000E+00

     total cpu time spent up to now is     3260.7 secs

     total energy              =   -1939.06466630 Ry
     estimated scf accuracy    <       0.00000010 Ry

     iteration #  5     ecut=   100.00 Ry     beta= 0.30
     Davidson diagonalization with overlap
     ethr =  1.55E-11,  avg # of iterations =  2.0

     total cpu time spent up to now is     3268.9 secs

     total energy              =   -1939.06466631 Ry
     estimated scf accuracy    <       0.00000002 Ry

     iteration #  6     ecut=   100.00 Ry     beta= 0.30
     Davidson diagonalization with overlap
     ethr =  3.67E-12,  avg # of iterations =  5.0

     total cpu time spent up to now is     3277.8 secs

     total energy              =   -1939.06466631 Ry
     estimated scf accuracy    <          7.0E-09 Ry

     iteration #  7     ecut=   100.00 Ry     beta= 0.30
     Davidson diagonalization with overlap
     ethr =  1.09E-12,  avg # of iterations =  5.0

     total cpu time spent up to now is     3286.5 secs

     total energy              =   -1939.06466631 Ry
     estimated scf accuracy    <          1.3E-09 Ry

     iteration #  8     ecut=   100.00 Ry     beta= 0.30
     Davidson diagonalization with overlap
     ethr =  2.01E-13,  avg # of iterations =  4.0

     total cpu time spent up to now is     3296.2 secs

     total energy              =   -1939.06466631 Ry
     estimated scf accuracy    <          3.9E-10 Ry

     iteration #  9     ecut=   100.00 Ry     beta= 0.30
     Davidson diagonalization with overlap
     ethr =  1.00E-13,  avg # of iterations =  4.0

     total cpu time spent up to now is     3304.5 secs

     total energy              =   -1939.06466631 Ry
     estimated scf accuracy    <          8.4E-11 Ry

     iteration # 10     ecut=   100.00 Ry     beta= 0.30
     Davidson diagonalization with overlap
     ethr =  1.00E-13,  avg # of iterations =  1.0

     total cpu time spent up to now is     3311.5 secs

     total energy              =   -1939.06466631 Ry
     estimated scf accuracy    <          8.7E-12 Ry

     iteration # 11     ecut=   100.00 Ry     beta= 0.30
     Davidson diagonalization with overlap
     ethr =  1.00E-13,  avg # of iterations =  1.0

     total cpu time spent up to now is     3318.5 secs

     total energy              =   -1939.06466631 Ry
     estimated scf accuracy    <          1.4E-12 Ry

     iteration # 12     ecut=   100.00 Ry     beta= 0.30
     Davidson diagonalization with overlap
     ethr =  1.00E-13,  avg # of iterations =  1.0

     total cpu time spent up to now is     3325.5 secs

     End of self-consistent calculation

          k = 0.0000 0.0000 0.0000 (385710 PWs)   bands (ev):

   -23.7924 -23.5479 -23.5237 -23.5123 -23.5028 -23.4799 -23.4071 -22.9580
   -22.9380 -22.9378 -22.9310 -22.9017 -22.8401 -22.6652 -22.6567 -22.6436
   -22.6323 -22.6127 -22.4696 -21.8126 -21.8042 -21.7984 -21.7972 -21.7949
   -21.7881 -21.7879 -21.7803 -21.7723 -21.7717 -21.7156 -21.5320 -21.2429
   -21.2254 -21.2193 -21.2050 -21.1819 -21.0067 -20.4009 -20.3976 -20.3871
   -20.3773 -20.3575 -20.3087 -20.1357 -20.1306 -20.1253 -20.1234 -20.1184
   -20.1136 -20.1079 -20.1000 -20.0859 -20.0851 -20.0297 -19.7063 -19.3386
   -19.3302 -19.3147 -19.2877 -19.2863 -19.0981 -18.5678 -18.5617 -18.5595
   -18.5565 -18.5471 -18.5461 -18.5284 -18.5267 -18.5132 -18.4911 -18.4866
   -18.4366 -18.3851 -18.3819 -18.3680 -18.3543 -18.3303 -17.7303 -17.3492
   -17.3490 -17.3459 -17.3020 -17.2646 -17.1813 -16.9030 -16.8598 -16.8552
   -16.7799 -16.6738 -16.6732 -16.6649 -16.6014 -16.5862 -16.4291 -16.0976
   -16.0974 -16.0908 -16.0898 -16.0847 -16.0828 -16.0779 -16.0723 -16.0517
   -15.9379 -15.9370 -15.5473 -15.2372 -15.2306 -15.2193 -15.2160 -15.2115
   -15.2109 -15.2075 -15.1919 -15.1882 -15.0810 -15.0674 -14.8086 -14.7747
   -14.4614 -13.9810 -13.9742 -13.9728 -13.9493 -13.9478 -13.9387 -13.9373
   -13.9309 -13.9129 -13.8470 -13.8127 -13.5589 -13.4654 -13.4522 -13.4470
   -13.4422 -13.4379 -13.4354 -13.4269 -13.4236 -13.4128 -13.2170 -13.1890
   -12.9156 -12.5150 -12.5040 -12.4652 -12.4645 -12.4552 -12.4544 -12.4542
   -12.4479 -12.4471 -12.4438 -12.4389 -12.4248 -12.4223 -12.4214 -12.4068
   -12.1653 -12.1520 -11.8768 -11.7133 -11.6246 -11.6230 -11.6132 -11.5669
   -11.5532 -11.5445 -11.5415 -11.5361 -11.5222 -11.5140 -11.4534 -11.4212
   -11.3542 -11.3334 -11.3281 -11.3200 -11.3143 -11.3122 -11.3070 -11.2784
   -11.2652 -11.1765 -11.1386 -11.1211 -11.0200 -11.0020 -10.9830 -10.9080
   -10.8685 -10.8612 -10.8580 -10.8567 -10.8525 -10.8272 -10.7549 -10.6686
   -10.6541 -10.6315 -10.6281 -10.5820 -10.5710 -10.5391 -10.5295 -10.5236
   -10.5151 -10.5033 -10.4895 -10.4587 -10.4489 -10.4480 -10.4365 -10.4330
   -10.4287 -10.4157 -10.4069 -10.3846 -10.3384 -10.2362 -10.2231 -10.2097
   -10.1108 -10.0921 -10.0697 -10.0485 -10.0369 -10.0178 -10.0062  -9.9955
    -9.9770  -9.5395  -9.5292  -9.5278  -9.5235  -9.5213  -9.5198  -9.5198
    -9.5154  -9.5043  -9.5035  -9.4648  -9.4633  -9.4489  -9.2656  -9.1243
    -9.0931  -9.0836  -9.0757  -9.0601  -9.0550  -9.0537  -9.0415  -9.0353
    -8.9927  -8.9086  -8.8928  -8.8884  -8.8702  -8.8679  -8.8106  -8.6952
    -8.6096  -8.6063  -8.4577  -8.4446  -8.4436  -8.1034  -8.0844  -7.9453
    -7.9446  -7.9440  -7.9368  -7.9358  -7.9230  -7.9146  -7.9119  -7.8913
    -7.8733  -7.8717  -7.7145  -7.7057  -7.7029  -7.6987  -7.6954  -7.6904
    -7.6890  -7.6872  -7.6653  -7.6652  -7.6546  -7.4013  -7.3995  -7.3584
    -7.0698  -7.0624  -7.0527  -7.0354  -7.0138  -6.8061  -6.3680  -6.3672
    -6.3586  -6.3423  -6.3380  -6.2556  -6.0919  -6.0857  -6.0786  -6.0752
    -6.0683  -6.0664  -6.0576  -6.0517  -6.0379  -6.0322  -6.0218  -5.0238
    -4.2766  -4.2441  -4.2283  -4.2207  -3.9665  -3.1106  -2.6734  -2.6628
    -2.6550  -2.6522  -2.6416  -2.6387  -2.5871  -2.5856  -2.5684  -2.5567
    -2.5545  -2.5516  -2.5460  -2.5339  -2.5240  -2.4380  -2.4370  -2.2121
    -2.0600  -2.0491  -2.0324  -1.9953  -1.9673  -1.5659  -0.9825  -0.9753

     the Fermi energy is    -4.2239 ev

!    total energy              =   -1939.06466631 Ry
     estimated scf accuracy    <          4.2E-13 Ry
     smearing contrib. (-TS)   =      -0.01242459 Ry
     internal energy E=F+TS    =   -1939.05224172 Ry

     The total energy is F=E-TS. E is the sum of the following terms:
     one-electron contribution =  -21951.44948109 Ry
     hartree contribution      =   11035.85170228 Ry
     xc contribution           =    -689.86882376 Ry
     ewald contribution        =    9666.41436086 Ry

     convergence has been achieved in  12 iterations

     Forces acting on atoms (cartesian axes, Ry/au):

     atom    1 type  1   force =    -0.00008534   -0.00000002   -0.00000000
     atom    2 type  1   force =     0.00005308    0.00000003   -0.00000000
     atom    3 type  1   force =    -0.00001225   -0.00001671    0.00000000
     atom    4 type  1   force =    -0.00010782    0.00007756    0.00000000
     atom    5 type  1   force =    -0.00003523   -0.00008467    0.00000000
     atom    6 type  1   force =    -0.00004757   -0.00009005   -0.00000000
     atom    7 type  1   force =    -0.00002136   -0.00001622   -0.00000001
     atom    8 type  1   force =    -0.00004966   -0.00003657    0.00000000
     atom    9 type  1   force =     0.00010776    0.00006307    0.00000000
     atom   10 type  1   force =     0.00010962    0.00006923    0.00000000
     atom   11 type  1   force =     0.00015430    0.00000051    0.00000000
     atom   12 type  1   force =     0.00002676    0.00009492    0.00000000
     atom   13 type  1   force =     0.00006409   -0.00001295    0.00000000
     atom   14 type  1   force =    -0.00015743   -0.00002076    0.00000000
     atom   15 type  1   force =    -0.00008907   -0.00006077    0.00000001
     atom   16 type  1   force =    -0.00009200   -0.00006335    0.00000000
     atom   17 type  1   force =    -0.00017122   -0.00003364    0.00000000
     atom   18 type  1   force =     0.00004194   -0.00007911    0.00000000
     atom   19 type  1   force =    -0.00001224    0.00001667    0.00000000
     atom   20 type  1   force =    -0.00010779   -0.00007755    0.00000000
     atom   21 type  1   force =    -0.00003170   -0.00000002    0.00000000
     atom   22 type  1   force =     0.00000978   -0.00000002    0.00000000
     atom   23 type  1   force =    -0.00005389   -0.00000388   -0.00000000
     atom   24 type  1   force =    -0.00004422    0.00000821    0.00000000
     atom   25 type  1   force =     0.00006557   -0.00002995    0.00000000
     atom   26 type  1   force =     0.00005579   -0.00002301    0.00000000
     atom   27 type  1   force =     0.00004554   -0.00004000   -0.00000000
     atom   28 type  1   force =    -0.00000360    0.00000917   -0.00000000
     atom   29 type  1   force =     0.00011872   -0.00002321    0.00000000
     atom   30 type  1   force =    -0.00000531   -0.00004525   -0.00000000
     atom   31 type  1   force =     0.00000923   -0.00006669    0.00000000
     atom   32 type  1   force =    -0.00006226   -0.00004080   -0.00000000
     atom   33 type  1   force =     0.00005086   -0.00007321   -0.00000000
     atom   34 type  1   force =    -0.00008028   -0.00005306   -0.00000001
     atom   35 type  1   force =    -0.00005272    0.00000829   -0.00000000
     atom   36 type  1   force =     0.00000891   -0.00009471   -0.00000000
     atom   37 type  1   force =    -0.00003523    0.00008471    0.00000000
     atom   38 type  1   force =    -0.00004761    0.00009003    0.00000001
     atom   39 type  1   force =    -0.00005390    0.00000392   -0.00000000
     atom   40 type  1   force =    -0.00004419   -0.00000820   -0.00000000
     atom   41 type  1   force =     0.00008874   -0.00000001   -0.00000000
     atom   42 type  1   force =    -0.00001713    0.00000001    0.00000000
     atom   43 type  1   force =    -0.00005373   -0.00003914    0.00000000
     atom   44 type  1   force =    -0.00000896    0.00002193   -0.00000000
     atom   45 type  1   force =     0.00005529   -0.00002491    0.00000000
     atom   46 type  1   force =     0.00004805   -0.00002172   -0.00000000
     atom   47 type  1   force =    -0.00010849   -0.00001705   -0.00000000
     atom   48 type  1   force =     0.00016210   -0.00004163   -0.00000000
     atom   49 type  1   force =    -0.00002769   -0.00011676    0.00000000
     atom   50 type  1   force =     0.00002579   -0.00002682   -0.00000000
     atom   51 type  1   force =     0.00011350   -0.00007514    0.00000000
     atom   52 type  1   force =    -0.00003668   -0.00000432    0.00000000
     atom   53 type  1   force =     0.00004820    0.00001383   -0.00000000
     atom   54 type  1   force =    -0.00015037   -0.00008174   -0.00000000
     atom   55 type  1   force =    -0.00002127    0.00001625    0.00000000
     atom   56 type  1   force =    -0.00004969    0.00003655   -0.00000000
     atom   57 type  1   force =     0.00006554    0.00002995   -0.00000001
     atom   58 type  1   force =     0.00005577    0.00002302    0.00000000
     atom   59 type  1   force =    -0.00005362    0.00003916   -0.00000000
     atom   60 type  1   force =    -0.00000910   -0.00002197   -0.00000000
     atom   61 type  1   force =     0.00008105    0.00000006   -0.00000000
     atom   62 type  1   force =    -0.00002144   -0.00000005    0.00000001
     atom   63 type  1   force =     0.00010824   -0.00001380    0.00000000
     atom   64 type  1   force =     0.00009822    0.00008593   -0.00000000
     atom   65 type  1   force =    -0.00001067   -0.00001826    0.00000000
     atom   66 type  1   force =     0.00000043   -0.00000318    0.00000001
     atom   67 type  1   force =    -0.00001213   -0.00006331    0.00000000
     atom   68 type  1   force =     0.00002291   -0.00002915   -0.00000001
     atom   69 type  1   force =     0.00003011   -0.00002405   -0.00000000
     atom   70 type  1   force =    -0.00001786   -0.00004697   -0.00000000
     atom   71 type  1   force =     0.00002599   -0.00002379   -0.00000000
     atom   72 type  1   force =    -0.00009014   -0.00003715   -0.00000000
     atom   73 type  1   force =     0.00010767   -0.00006306   -0.00000000
     atom   74 type  1   force =     0.00010972   -0.00006920   -0.00000000
     atom   75 type  1   force =     0.00004555    0.00003995   -0.00000000
     atom   76 type  1   force =    -0.00000368   -0.00000913    0.00000000
     atom   77 type  1   force =     0.00005535    0.00002494    0.00000000
     atom   78 type  1   force =     0.00004801    0.00002164    0.00000001
     atom   79 type  1   force =     0.00010826    0.00001390    0.00000000
     atom   80 type  1   force =     0.00009818   -0.00008594   -0.00000001
     atom   81 type  1   force =    -0.00019245   -0.00000012    0.00000002
     atom   82 type  1   force =    -0.00019499   -0.00009426    0.00000001
     atom   83 type  1   force =    -0.00005185   -0.00006797    0.00000000
     atom   84 type  1   force =     0.00002534   -0.00004786    0.00000000
     atom   85 type  1   force =    -0.00006590   -0.00010879   -0.00000000
     atom   86 type  1   force =     0.00005606   -0.00005667    0.00000001
     atom   87 type  1   force =    -0.00004134   -0.00012657    0.00000000
     atom   88 type  1   force =     0.00003490   -0.00004880    0.00000000
     atom   89 type  1   force =     0.00004358   -0.00008415    0.00000000
     atom   90 type  1   force =     0.00015423   -0.00000055    0.00000000
     atom   91 type  1   force =     0.00002678   -0.00009480   -0.00000000
     atom   92 type  1   force =     0.00011873    0.00002311   -0.00000000
     atom   93 type  1   force =    -0.00000536    0.00004521   -0.00000000
     atom   94 type  1   force =    -0.00010845    0.00001715    0.00000000
     atom   95 type  1   force =     0.00016210    0.00004167   -0.00000000
     atom   96 type  1   force =    -0.00001071    0.00001827   -0.00000000
     atom   97 type  1   force =     0.00000042    0.00000302   -0.00000000
     atom   98 type  1   force =    -0.00019493    0.00009452    0.00000000
     atom   99 type  1   force =    -0.00005195    0.00006796   -0.00000000
     atom  100 type  1   force =    -0.00000355    0.00000001    0.00000000
     atom  101 type  1   force =     0.00000085    0.00000005    0.00000000
     atom  102 type  1   force =     0.00003123   -0.00005982    0.00000000
     atom  103 type  1   force =     0.00007054   -0.00006084   -0.00000000
     atom  104 type  1   force =    -0.00000673   -0.00020229   -0.00000000
     atom  105 type  1   force =     0.00002979   -0.00007608    0.00000000
     atom  106 type  1   force =     0.00012919   -0.00015167    0.00000000
     atom  107 type  1   force =    -0.00001139   -0.00006995    0.00000000
     atom  108 type  1   force =     0.00006407    0.00001287    0.00000000
     atom  109 type  1   force =    -0.00015739    0.00002079    0.00000000
     atom  110 type  1   force =     0.00000924    0.00006668   -0.00000000
     atom  111 type  1   force =    -0.00006229    0.00004083   -0.00000000
     atom  112 type  1   force =    -0.00002769    0.00011673   -0.00000000
     atom  113 type  1   force =     0.00002580    0.00002682    0.00000000
     atom  114 type  1   force =    -0.00001210    0.00006341    0.00000000
     atom  115 type  1   force =     0.00002284    0.00002912   -0.00000000
     atom  116 type  1   force =     0.00002542    0.00004791   -0.00000000
     atom  117 type  1   force =    -0.00006593    0.00010882   -0.00000000
     atom  118 type  1   force =     0.00003127    0.00005978   -0.00000001
     atom  119 type  1   force =     0.00007048    0.00006082   -0.00000000
     atom  120 type  1   force =     0.00008481    0.00000003   -0.00000000
     atom  121 type  1   force =     0.00016442   -0.00000001    0.00000000
     atom  122 type  1   force =     0.00005601   -0.00010826    0.00000000
     atom  123 type  1   force =     0.00004323    0.00001322   -0.00000000
     atom  124 type  1   force =     0.00011995   -0.00007379   -0.00000000
     atom  125 type  1   force =    -0.00002767   -0.00008109   -0.00000000
     atom  126 type  1   force =    -0.00008916    0.00006073    0.00000000
     atom  127 type  1   force =    -0.00009197    0.00006328   -0.00000000
     atom  128 type  1   force =     0.00005086    0.00007322   -0.00000001
     atom  129 type  1   force =    -0.00008023    0.00005304    0.00000000
     atom  130 type  1   force =     0.00011344    0.00007509   -0.00000000
     atom  131 type  1   force =    -0.00003660    0.00000436   -0.00000000
     atom  132 type  1   force =     0.00003010    0.00002397    0.00000000
     atom  133 type  1   force =    -0.00001788    0.00004702   -0.00000000
     atom  134 type  1   force =     0.00005616    0.00005663    0.00000000
     atom  135 type  1   force =    -0.00004144    0.00012659    0.00000000
     atom  136 type  1   force =    -0.00000666    0.00020229   -0.00000000
     atom  137 type  1   force =     0.00002976    0.00007604    0.00000000
     atom  138 type  1   force =     0.00005601    0.00010828   -0.00000000
     atom  139 type  1   force =     0.00004326   -0.00001326   -0.00000000
     atom  140 type  1   force =     0.00007505    0.00000000   -0.00000001
     atom  141 type  1   force =    -0.00001530   -0.00000001    0.00000000
     atom  142 type  1   force =    -0.00012518    0.00004250    0.00000000
     atom  143 type  1   force =    -0.00003579    0.00006987    0.00000000
     atom  144 type  1   force =    -0.00017123    0.00003365    0.00000000
     atom  145 type  1   force =     0.00004192    0.00007909    0.00000000
     atom  146 type  1   force =    -0.00005278   -0.00000825    0.00000000
     atom  147 type  1   force =     0.00000896    0.00009468   -0.00000000
     atom  148 type  1   force =     0.00004817   -0.00001382   -0.00000000
     atom  149 type  1   force =    -0.00015037    0.00008170    0.00000000
     atom  150 type  1   force =     0.00002600    0.00002377    0.00000001
     atom  151 type  1   force =    -0.00009009    0.00003713   -0.00000000
     atom  152 type  1   force =     0.00003489    0.00004879    0.00000000
     atom  153 type  1   force =     0.00004360    0.00008412   -0.00000000
     atom  154 type  1   force =     0.00012919    0.00015170    0.00000000
     atom  155 type  1   force =    -0.00001138    0.00006995    0.00000000
     atom  156 type  1   force =     0.00011991    0.00007381    0.00000000
     atom  157 type  1   force =    -0.00002767    0.00008108    0.00000000
     atom  158 type  1   force =    -0.00012513   -0.00004251   -0.00000000
     atom  159 type  1   force =    -0.00003586   -0.00006983   -0.00000000
     atom  160 type  1   force =    -0.00022515   -0.00000002   -0.00000000
     atom  161 type  1   force =    -0.00011411    0.00000001    0.00000000

     Total force =     0.001271     Total SCF correction =     0.000001
     Energy error            =      2.8E-06 Ry
     Gradient error          =      2.3E-04 Ry/Bohr

     number of scf cycles    =  24
     number of bfgs steps    =  23

     energy             old  =   -1939.0646634658 Ry
     energy             new  =   -1939.0646663132 Ry

     CASE: energy            _new < energy            _old

     new trust radius        =       0.0012103182 bohr
     new conv_thr            =            1.0E-12 Ry


ATOMIC_POSITIONS (crystal)
C                0.0368214744        0.0368214757       -0.0000000022
C                0.0738236215        0.0738236222       -0.0000000027
C                0.0365645545        0.1480522677       -0.0000000033
C                0.0736306736        0.1849790914       -0.0000000036
C                0.0365187193        0.2591991948       -0.0000000017
C                0.0736082865        0.2961553335        0.0000000001
C                0.0367285219        0.3702307266        0.0000000006
C                0.0737877334        0.4072806274       -0.0000000010
C                0.0371339203        0.4813862781       -0.0000000021
C                0.0741618479        0.5183480268       -0.0000000028
C                0.0374504092        0.5924756431       -0.0000000016
C                0.0746871312        0.6293020833       -0.0000000006
C                0.0377422368        0.7033643903        0.0000000002
C                0.0750448651        0.7400988152        0.0000000006
C                0.0377638187        0.8143021073       -0.0000000006
C                0.0749521200        0.8509860697       -0.0000000002
C                0.0373951046        0.9254370354       -0.0000000017
C                0.0742323069        0.9625083066       -0.0000000007
C                0.1480522666        0.0365645553       -0.0000000023
C                0.1849790914        0.0736306734       -0.0000000039
C                0.1478059766        0.1478059768       -0.0000000039
C                0.1848500830        0.1848500826       -0.0000000017
C                0.1477929346        0.2589657683        0.0000000002
C                0.1847021469        0.2959678543        0.0000000012
C                0.1477165840        0.3700995855       -0.0000000006
C                0.1846773151        0.4070952840       -0.0000000008
C                0.1482302059        0.4811263923       -0.0000000018
C                0.1855060665        0.5179641658       -0.0000000001
C                0.1489737599        0.5920149636        0.0000000006
C                0.1864580227        0.6285100913        0.0000000019
C                0.1494345605        0.7025404708        0.0000000016
C                0.1872065613        0.7387268425        0.0000000025
C                0.1494984708        0.8132548555        0.0000000027
C                0.1859914727        0.8507495726        0.0000000034
C                0.1485283019        0.9251328661        0.0000000020
C                0.1853052903        0.9622899245        0.0000000007
C                0.2591991948        0.0365187193       -0.0000000036
C                0.2961553344        0.0736082859       -0.0000000035
C                0.2589657689        0.1477929344       -0.0000000008
C                0.2959678554        0.1847021461        0.0000000024
C                0.2588629303        0.2588629302        0.0000000029
C                0.2957371014        0.2957371004        0.0000000027
C                0.2586393629        0.3698794061        0.0000000010
C                0.2953463699        0.4067367865        0.0000000008
C                0.2595461406        0.4805864438        0.0000000006
C                0.2971699835        0.5171818919        0.0000000003
C                0.2611627318        0.5907544805       -0.0000000001
C                0.3003265454        0.6255125780       -0.0000000029
C                0.2621032355        0.7007016203       -0.0000000004
C                0.2975080739        0.7390967863       -0.0000000017
C                0.2601455132        0.8134404929        0.0000000016
C                0.2967222984        0.8510136446        0.0000000014
C                0.2595533137        0.9250523228        0.0000000012
C                0.2964074112        0.9624370321       -0.0000000010
C                0.3702307273        0.0367285223       -0.0000000034
C                0.4072806276        0.0737877340       -0.0000000006
C                0.3700995864        0.1477165844        0.0000000026
C                0.4070952845        0.1846773155        0.0000000031
C                0.3698794068        0.2586393630        0.0000000032
C                0.4067367878        0.2953463689        0.0000000010
C                0.3693479117        0.3693479114        0.0000000004
C                0.4055758379        0.4055758366       -0.0000000022
C                0.3718069037        0.4790650764       -0.0000000031
C                0.4122484968        0.5110236296       -0.0000000110
C                0.3766326263        0.5861624426       -0.0000000081
C                0.4089258541        0.6282315404       -0.0000000045
C                0.3717478490        0.7017989794       -0.0000000045
C                0.4082288080        0.7400739920       -0.0000000022
C                0.3709777101        0.8140307352       -0.0000000000
C                0.4077280166        0.8514488853       -0.0000000012
C                0.3704768560        0.9256065365       -0.0000000015
C                0.4074187526        0.9627048629       -0.0000000036
C                0.4813862786        0.0371339214       -0.0000000018
C                0.5183480268        0.0741618495       -0.0000000005
C                0.4811263932        0.1482302066        0.0000000009
C                0.5179641665        0.1855060666       -0.0000000005
C                0.4805864447        0.2595461411       -0.0000000010
C                0.5171818933        0.2971699828       -0.0000000027
C                0.4790650776        0.3718069032       -0.0000000032
C                0.5110236318        0.4122484959       -0.0000000086
C                0.5222173848        0.5222173788        0.0000000286
C                0.4828715323        0.5930355124        0.0000000039
C                0.5198309796        0.6305119662       -0.0000000012
C                0.4821000314        0.7042511110       -0.0000000035
C                0.5190523568        0.7412293339       -0.0000000026
C                0.4817774676        0.8150374145       -0.0000000030
C                0.5188101321        0.8521438112       -0.0000000032
C                0.4816059041        0.9260328546       -0.0000000043
C                0.5185989496        0.9630680551       -0.0000000038
C                0.5924756429        0.0374504110       -0.0000000017
C                0.6293020823        0.0746871338       -0.0000000015
C                0.5920149643        0.1489737608       -0.0000000012
C                0.6285100922        0.1864580229       -0.0000000015
C                0.5907544817        0.2611627317       -0.0000000025
C                0.6255125793        0.3003265447       -0.0000000016
C                0.5861624438        0.3766326248       -0.0000000029
C                0.6282315431        0.4089258527        0.0000000043
C                0.5930355130        0.4828715310        0.0000000126
C                0.6305119699        0.5198309756        0.0000000073
C                0.5934715795        0.5934715790        0.0000000036
C                0.6304851923        0.6304851904        0.0000000030
C                0.5932312376        0.7042985764       -0.0000000005
C                0.6301495643        0.7412521927        0.0000000009
C                0.5928844319        0.8153223066       -0.0000000016
C                0.6298701980        0.8522661159       -0.0000000013
C                0.5926752524        0.9262964652       -0.0000000028
C                0.6296763535        0.9633977783       -0.0000000019
C                0.7033643900        0.0377422383       -0.0000000020
C                0.7400988146        0.0750448673       -0.0000000022
C                0.7025404712        0.1494345615       -0.0000000011
C                0.7387268423        0.1872065623       -0.0000000001
C                0.7007016220        0.2621032345        0.0000000002
C                0.7390967876        0.2975080732       -0.0000000001
C                0.7017989816        0.3717478473        0.0000000024
C                0.7400739923        0.4082288065        0.0000000048
C                0.7042511129        0.4821000300        0.0000000064
C                0.7412293349        0.5190523550        0.0000000061
C                0.7042985776        0.5932312365        0.0000000055
C                0.7412521929        0.6301495634        0.0000000056
C                0.7041728462        0.7041728463        0.0000000041
C                0.7411961152        0.7411961157        0.0000000034
C                0.7040525686        0.8152318030        0.0000000019
C                0.7410005864        0.8522357730        0.0000000027
C                0.7037876852        0.9264252071       -0.0000000000
C                0.7406787242        0.9634812034       -0.0000000006
C                0.8143021059        0.0377638208       -0.0000000026
C                0.8509860686        0.0749521219       -0.0000000024
C                0.8132548555        0.1494984718       -0.0000000011
C                0.8507495728        0.1859914731       -0.0000000017
C                0.8134404932        0.2601455131       -0.0000000008
C                0.8510136447        0.2967222988       -0.0000000001
C                0.8140307377        0.3709777083        0.0000000025
C                0.8514488851        0.4077280160        0.0000000031
C                0.8150374160        0.4817774662        0.0000000048
C                0.8521438107        0.5188101313        0.0000000038
C                0.8153223069        0.5928844316        0.0000000048
C                0.8522661146        0.6298701985        0.0000000036
C                0.8152318013        0.7040525697        0.0000000040
C                0.8522357708        0.7410005885        0.0000000038
C                0.8151210357        0.8151210382        0.0000000038
C                0.8521417328        0.8521417351        0.0000000021
C                0.8148845573        0.9263254091       -0.0000000001
C                0.8517584376        0.9633912148       -0.0000000020
C                0.9254370338        0.0373951068       -0.0000000032
C                0.9625083055        0.0742323085       -0.0000000032
C                0.9251328654        0.1485283028       -0.0000000026
C                0.9622899241        0.1853052916       -0.0000000029
C                0.9250523231        0.2595533136       -0.0000000020
C                0.9624370324        0.2964074111       -0.0000000008
C                0.9256065372        0.3704768549        0.0000000010
C                0.9627048630        0.4074187521        0.0000000010
C                0.9260328546        0.4816059031        0.0000000017
C                0.9630680539        0.5185989494        0.0000000001
C                0.9262964635        0.5926752531        0.0000000009
C                0.9633977756        0.6296763546        0.0000000002
C                0.9264252044        0.7037876869        0.0000000021
C                0.9634812003        0.7406787260        0.0000000012
C                0.9263254064        0.8148845595        0.0000000011
C                0.9633912122        0.8517584395       -0.0000000006
C                0.9260217488        0.9260217505       -0.0000000017
C                0.9630032839        0.9630032864       -0.0000000028



     Writing config-only to output data dir /home/gregb26/links/scratch/qe_tmp/vacancy_relaxed/nspin1/vac_9x9_relax_nspin1.save/ :
     XML data file
     NEW-OLD atomic charge density approx. for the potential

     negative rho (up, down):  1.065E-07 0.000E+00

     total cpu time spent up to now is     3328.9 secs

     per-process dynamical memory:   353.4 Mb

     Self-consistent Calculation

     iteration #  1     ecut=   100.00 Ry     beta= 0.30
     Davidson diagonalization with overlap
     ethr =  1.00E-06,  avg # of iterations =  2.0

     Threshold (ethr) on eigenvalues was too large:
     Diagonalizing with lowered threshold

     Davidson diagonalization with overlap
     ethr =  2.25E-09,  avg # of iterations =  5.0

     negative rho (up, down):  6.559E-08 0.000E+00

     total cpu time spent up to now is     3348.3 secs

     total energy              =   -1939.06466184 Ry
     estimated scf accuracy    <       0.00001372 Ry

     iteration #  2     ecut=   100.00 Ry     beta= 0.30
     Davidson diagonalization with overlap
     ethr =  2.13E-09,  avg # of iterations =  5.0

     negative rho (up, down):  6.420E-08 0.000E+00

     total cpu time spent up to now is     3357.4 secs

     total energy              =   -1939.06460681 Ry
     estimated scf accuracy    <       0.00445355 Ry

     iteration #  3     ecut=   100.00 Ry     beta= 0.30
     Davidson diagonalization with overlap
     ethr =  2.13E-09,  avg # of iterations =  5.0

     negative rho (up, down):  3.670E-08 0.000E+00

     total cpu time spent up to now is     3366.1 secs

     total energy              =   -1939.06466764 Ry
     estimated scf accuracy    <       0.00000040 Ry

     iteration #  4     ecut=   100.00 Ry     beta= 0.30
     Davidson diagonalization with overlap
     ethr =  6.23E-11,  avg # of iterations =  5.0

     negative rho (up, down):  1.200E-08 0.000E+00

     total cpu time spent up to now is     3376.6 secs

     total energy              =   -1939.06466769 Ry
     estimated scf accuracy    <       0.00000059 Ry

     iteration #  5     ecut=   100.00 Ry     beta= 0.30
     Davidson diagonalization with overlap
     ethr =  6.23E-11,  avg # of iterations =  2.0

     total cpu time spent up to now is     3384.8 secs

     total energy              =   -1939.06466771 Ry
     estimated scf accuracy    <       0.00000005 Ry

     iteration #  6     ecut=   100.00 Ry     beta= 0.30
     Davidson diagonalization with overlap
     ethr =  8.09E-12,  avg # of iterations =  2.0

     total cpu time spent up to now is     3392.7 secs

     total energy              =   -1939.06466772 Ry
     estimated scf accuracy    <          9.9E-09 Ry

     iteration #  7     ecut=   100.00 Ry     beta= 0.30
     Davidson diagonalization with overlap
     ethr =  1.53E-12,  avg # of iterations =  5.0

     total cpu time spent up to now is     3401.9 secs

     total energy              =   -1939.06466772 Ry
     estimated scf accuracy    <          1.8E-09 Ry

     iteration #  8     ecut=   100.00 Ry     beta= 0.30
     Davidson diagonalization with overlap
     ethr =  2.78E-13,  avg # of iterations =  5.0

     total cpu time spent up to now is     3412.2 secs

     total energy              =   -1939.06466772 Ry
     estimated scf accuracy    <          4.1E-10 Ry

     iteration #  9     ecut=   100.00 Ry     beta= 0.30
     Davidson diagonalization with overlap
     ethr =  1.00E-13,  avg # of iterations =  4.0

     total cpu time spent up to now is     3420.8 secs

     total energy              =   -1939.06466772 Ry
     estimated scf accuracy    <          8.6E-11 Ry

     iteration # 10     ecut=   100.00 Ry     beta= 0.30
     Davidson diagonalization with overlap
     ethr =  1.00E-13,  avg # of iterations =  1.0

     total cpu time spent up to now is     3428.1 secs

     total energy              =   -1939.06466772 Ry
     estimated scf accuracy    <          1.9E-11 Ry

     iteration # 11     ecut=   100.00 Ry     beta= 0.30
     Davidson diagonalization with overlap
     ethr =  1.00E-13,  avg # of iterations =  1.0

     total cpu time spent up to now is     3435.3 secs

     total energy              =   -1939.06466772 Ry
     estimated scf accuracy    <          2.1E-12 Ry

     iteration # 12     ecut=   100.00 Ry     beta= 0.30
     Davidson diagonalization with overlap
     ethr =  1.00E-13,  avg # of iterations =  1.0

     total cpu time spent up to now is     3442.7 secs

     End of self-consistent calculation

          k = 0.0000 0.0000 0.0000 (385710 PWs)   bands (ev):

   -23.7923 -23.5478 -23.5234 -23.5124 -23.5026 -23.4801 -23.4075 -22.9581
   -22.9378 -22.9376 -22.9309 -22.9019 -22.8402 -22.6651 -22.6568 -22.6437
   -22.6324 -22.6129 -22.4697 -21.8125 -21.8042 -21.7983 -21.7974 -21.7950
   -21.7881 -21.7878 -21.7802 -21.7723 -21.7716 -21.7160 -21.5321 -21.2428
   -21.2255 -21.2193 -21.2051 -21.1821 -21.0067 -20.4009 -20.3977 -20.3871
   -20.3773 -20.3576 -20.3086 -20.1358 -20.1306 -20.1252 -20.1233 -20.1185
   -20.1135 -20.1079 -20.1003 -20.0861 -20.0852 -20.0301 -19.7064 -19.3387
   -19.3301 -19.3147 -19.2879 -19.2865 -19.0980 -18.5678 -18.5616 -18.5594
   -18.5566 -18.5470 -18.5460 -18.5283 -18.5267 -18.5133 -18.4913 -18.4869
   -18.4367 -18.3850 -18.3819 -18.3684 -18.3542 -18.3307 -17.7306 -17.3491
   -17.3489 -17.3460 -17.3020 -17.2646 -17.1814 -16.9030 -16.8598 -16.8553
   -16.7799 -16.6738 -16.6732 -16.6650 -16.6014 -16.5863 -16.4289 -16.0977
   -16.0974 -16.0908 -16.0900 -16.0846 -16.0828 -16.0782 -16.0723 -16.0516
   -15.9380 -15.9371 -15.5474 -15.2373 -15.2306 -15.2192 -15.2159 -15.2115
   -15.2107 -15.2075 -15.1921 -15.1884 -15.0812 -15.0676 -14.8085 -14.7748
   -14.4614 -13.9810 -13.9743 -13.9728 -13.9493 -13.9477 -13.9387 -13.9373
   -13.9311 -13.9130 -13.8471 -13.8129 -13.5591 -13.4652 -13.4519 -13.4470
   -13.4422 -13.4380 -13.4353 -13.4270 -13.4236 -13.4129 -13.2172 -13.1894
   -12.9156 -12.5151 -12.5041 -12.4650 -12.4644 -12.4552 -12.4544 -12.4542
   -12.4479 -12.4470 -12.4438 -12.4390 -12.4248 -12.4226 -12.4215 -12.4070
   -12.1654 -12.1521 -11.8768 -11.7134 -11.6246 -11.6230 -11.6133 -11.5668
   -11.5529 -11.5446 -11.5415 -11.5359 -11.5222 -11.5141 -11.4532 -11.4215
   -11.3542 -11.3333 -11.3283 -11.3200 -11.3143 -11.3123 -11.3070 -11.2787
   -11.2655 -11.1765 -11.1387 -11.1213 -11.0200 -11.0020 -10.9832 -10.9079
   -10.8686 -10.8614 -10.8578 -10.8566 -10.8524 -10.8274 -10.7550 -10.6685
   -10.6542 -10.6315 -10.6281 -10.5822 -10.5712 -10.5392 -10.5295 -10.5236
   -10.5151 -10.5034 -10.4896 -10.4586 -10.4491 -10.4479 -10.4363 -10.4331
   -10.4288 -10.4158 -10.4071 -10.3847 -10.3385 -10.2362 -10.2229 -10.2097
   -10.1108 -10.0923 -10.0699 -10.0486 -10.0370 -10.0181 -10.0063  -9.9955
    -9.9771  -9.5394  -9.5292  -9.5277  -9.5235  -9.5215  -9.5199  -9.5197
    -9.5153  -9.5043  -9.5035  -9.4648  -9.4637  -9.4491  -9.2657  -9.1242
    -9.0930  -9.0836  -9.0760  -9.0602  -9.0551  -9.0536  -9.0415  -9.0352
    -8.9929  -8.9085  -8.8928  -8.8885  -8.8703  -8.8680  -8.8099  -8.6953
    -8.6098  -8.6065  -8.4576  -8.4445  -8.4438  -8.1035  -8.0840  -7.9447
    -7.9447  -7.9440  -7.9368  -7.9359  -7.9229  -7.9146  -7.9119  -7.8909
    -7.8732  -7.8718  -7.7145  -7.7056  -7.7028  -7.6986  -7.6952  -7.6905
    -7.6891  -7.6872  -7.6655  -7.6654  -7.6549  -7.4011  -7.3997  -7.3584
    -7.0698  -7.0624  -7.0526  -7.0355  -7.0140  -6.8060  -6.3679  -6.3671
    -6.3588  -6.3422  -6.3382  -6.2557  -6.0919  -6.0858  -6.0785  -6.0751
    -6.0683  -6.0663  -6.0575  -6.0517  -6.0382  -6.0323  -6.0220  -5.0238
    -4.2766  -4.2442  -4.2284  -4.2205  -3.9665  -3.1158  -2.6736  -2.6628
    -2.6549  -2.6521  -2.6415  -2.6385  -2.5870  -2.5856  -2.5683  -2.5567
    -2.5546  -2.5517  -2.5461  -2.5339  -2.5238  -2.4381  -2.4372  -2.2121
    -2.0600  -2.0490  -2.0325  -1.9953  -1.9674  -1.5658  -0.9825  -0.9753

     the Fermi energy is    -4.2239 ev

!    total energy              =   -1939.06466772 Ry
     estimated scf accuracy    <          8.0E-13 Ry
     smearing contrib. (-TS)   =      -0.01242277 Ry
     internal energy E=F+TS    =   -1939.05224494 Ry

     The total energy is F=E-TS. E is the sum of the following terms:
     one-electron contribution =  -21951.45392042 Ry
     hartree contribution      =   11035.85345361 Ry
     xc contribution           =    -689.86928550 Ry
     ewald contribution        =    9666.41750737 Ry

     convergence has been achieved in  12 iterations

     Forces acting on atoms (cartesian axes, Ry/au):

     atom    1 type  1   force =     0.00003588   -0.00000001   -0.00000000
     atom    2 type  1   force =    -0.00004726    0.00000001    0.00000000
     atom    3 type  1   force =    -0.00007897    0.00004895   -0.00000000
     atom    4 type  1   force =    -0.00005069    0.00001032    0.00000000
     atom    5 type  1   force =    -0.00008103    0.00005894    0.00000000
     atom    6 type  1   force =    -0.00001142   -0.00002299   -0.00000000
     atom    7 type  1   force =    -0.00007488    0.00000512   -0.00000000
     atom    8 type  1   force =     0.00008662   -0.00008510    0.00000000
     atom    9 type  1   force =     0.00004749    0.00005826    0.00000000
     atom   10 type  1   force =     0.00005468   -0.00001141    0.00000000
     atom   11 type  1   force =     0.00008020    0.00006743    0.00000000
     atom   12 type  1   force =     0.00010687    0.00001582    0.00000000
     atom   13 type  1   force =    -0.00005308    0.00000989    0.00000000
     atom   14 type  1   force =    -0.00005974   -0.00004028    0.00000000
     atom   15 type  1   force =    -0.00010841   -0.00007787    0.00000000
     atom   16 type  1   force =    -0.00006603   -0.00001730    0.00000000
     atom   17 type  1   force =    -0.00004368   -0.00004506    0.00000000
     atom   18 type  1   force =    -0.00005302   -0.00005111    0.00000000
     atom   19 type  1   force =    -0.00007897   -0.00004898    0.00000000
     atom   20 type  1   force =    -0.00005068   -0.00001030    0.00000000
     atom   21 type  1   force =    -0.00002954   -0.00000001    0.00000000
     atom   22 type  1   force =     0.00001822   -0.00000000    0.00000000
     atom   23 type  1   force =    -0.00006215    0.00001481   -0.00000000
     atom   24 type  1   force =     0.00009167   -0.00001979   -0.00000000
     atom   25 type  1   force =     0.00003347   -0.00000803    0.00000000
     atom   26 type  1   force =     0.00004298   -0.00006156    0.00000000
     atom   27 type  1   force =    -0.00000168    0.00009200    0.00000000
     atom   28 type  1   force =    -0.00000038   -0.00001264   -0.00000000
     atom   29 type  1   force =     0.00005622    0.00007502   -0.00000000
     atom   30 type  1   force =     0.00001778   -0.00007554   -0.00000001
     atom   31 type  1   force =    -0.00004144    0.00000547    0.00000000
     atom   32 type  1   force =    -0.00002279   -0.00002762   -0.00000000
     atom   33 type  1   force =    -0.00009741   -0.00000805   -0.00000000
     atom   34 type  1   force =    -0.00000747   -0.00005054   -0.00000000
     atom   35 type  1   force =    -0.00000710   -0.00008469   -0.00000000
     atom   36 type  1   force =    -0.00002667   -0.00003615   -0.00000000
     atom   37 type  1   force =    -0.00008103   -0.00005896    0.00000000
     atom   38 type  1   force =    -0.00001142    0.00002302    0.00000000
     atom   39 type  1   force =    -0.00006216   -0.00001482   -0.00000000
     atom   40 type  1   force =     0.00009167    0.00001982   -0.00000000
     atom   41 type  1   force =    -0.00004658   -0.00000002   -0.00000000
     atom   42 type  1   force =    -0.00004514    0.00000002    0.00000000
     atom   43 type  1   force =    -0.00003072    0.00001888    0.00000000
     atom   44 type  1   force =    -0.00006467    0.00001422    0.00000000
     atom   45 type  1   force =     0.00001360    0.00008790   -0.00000000
     atom   46 type  1   force =     0.00000383   -0.00004678   -0.00000000
     atom   47 type  1   force =     0.00003824    0.00000875   -0.00000000
     atom   48 type  1   force =     0.00001060   -0.00003197   -0.00000000
     atom   49 type  1   force =     0.00002668    0.00000321    0.00000000
     atom   50 type  1   force =    -0.00001098   -0.00002638   -0.00000000
     atom   51 type  1   force =     0.00003674   -0.00000147    0.00000000
     atom   52 type  1   force =     0.00005161    0.00004291   -0.00000000
     atom   53 type  1   force =    -0.00003530    0.00001319   -0.00000000
     atom   54 type  1   force =    -0.00000829   -0.00003401   -0.00000000
     atom   55 type  1   force =    -0.00007490   -0.00000513    0.00000000
     atom   56 type  1   force =     0.00008663    0.00008509   -0.00000000
     atom   57 type  1   force =     0.00003346    0.00000804   -0.00000000
     atom   58 type  1   force =     0.00004298    0.00006154   -0.00000000
     atom   59 type  1   force =    -0.00003073   -0.00001889   -0.00000000
     atom   60 type  1   force =    -0.00006465   -0.00001417    0.00000000
     atom   61 type  1   force =     0.00005907   -0.00000002   -0.00000000
     atom   62 type  1   force =     0.00000440    0.00000001    0.00000000
     atom   63 type  1   force =     0.00005191   -0.00003455    0.00000001
     atom   64 type  1   force =     0.00018101    0.00002108   -0.00000000
     atom   65 type  1   force =    -0.00005985   -0.00006909    0.00000000
     atom   66 type  1   force =     0.00003796   -0.00002320    0.00000000
     atom   67 type  1   force =     0.00001509   -0.00003412    0.00000000
     atom   68 type  1   force =    -0.00000367   -0.00002731   -0.00000000
     atom   69 type  1   force =    -0.00001013    0.00000284   -0.00000000
     atom   70 type  1   force =     0.00004352   -0.00006432   -0.00000000
     atom   71 type  1   force =    -0.00004210   -0.00004557   -0.00000000
     atom   72 type  1   force =    -0.00003555   -0.00001237   -0.00000000
     atom   73 type  1   force =     0.00004748   -0.00005825    0.00000000
     atom   74 type  1   force =     0.00005468    0.00001139   -0.00000000
     atom   75 type  1   force =    -0.00000170   -0.00009198    0.00000000
     atom   76 type  1   force =    -0.00000034    0.00001266    0.00000000
     atom   77 type  1   force =     0.00001357   -0.00008793    0.00000000
     atom   78 type  1   force =     0.00000385    0.00004680    0.00000000
     atom   79 type  1   force =     0.00005191    0.00003455    0.00000000
     atom   80 type  1   force =     0.00018099   -0.00002105   -0.00000001
     atom   81 type  1   force =    -0.00015507    0.00000015    0.00000002
     atom   82 type  1   force =    -0.00017591   -0.00003443    0.00000001
     atom   83 type  1   force =    -0.00006318   -0.00004798   -0.00000000
     atom   84 type  1   force =     0.00004691   -0.00000246    0.00000000
     atom   85 type  1   force =     0.00003392   -0.00004753   -0.00000000
     atom   86 type  1   force =     0.00004190   -0.00008660    0.00000000
     atom   87 type  1   force =     0.00001917   -0.00010219   -0.00000000
     atom   88 type  1   force =    -0.00001992   -0.00008374    0.00000000
     atom   89 type  1   force =     0.00005992    0.00000850    0.00000000
     atom   90 type  1   force =     0.00008020   -0.00006740    0.00000000
     atom   91 type  1   force =     0.00010686   -0.00001588   -0.00000000
     atom   92 type  1   force =     0.00005621   -0.00007500   -0.00000000
     atom   93 type  1   force =     0.00001779    0.00007555   -0.00000000
     atom   94 type  1   force =     0.00003823   -0.00000875    0.00000000
     atom   95 type  1   force =     0.00001060    0.00003196   -0.00000000
     atom   96 type  1   force =    -0.00005979    0.00006907   -0.00000001
     atom   97 type  1   force =     0.00003789    0.00002320   -0.00000000
     atom   98 type  1   force =    -0.00017583    0.00003427    0.00000000
     atom   99 type  1   force =    -0.00006314    0.00004813   -0.00000000
     atom  100 type  1   force =     0.00003124   -0.00000009   -0.00000000
     atom  101 type  1   force =     0.00000091    0.00000003    0.00000000
     atom  102 type  1   force =     0.00005104   -0.00006512    0.00000000
     atom  103 type  1   force =     0.00001123   -0.00011850   -0.00000000
     atom  104 type  1   force =     0.00003319   -0.00010245    0.00000000
     atom  105 type  1   force =     0.00000983   -0.00008239    0.00000000
     atom  106 type  1   force =     0.00000796   -0.00005708    0.00000000
     atom  107 type  1   force =     0.00007800    0.00000157    0.00000000
     atom  108 type  1   force =    -0.00005306   -0.00000984    0.00000000
     atom  109 type  1   force =    -0.00005977    0.00004026   -0.00000000
     atom  110 type  1   force =    -0.00004144   -0.00000546   -0.00000000
     atom  111 type  1   force =    -0.00002278    0.00002759   -0.00000000
     atom  112 type  1   force =     0.00002669   -0.00000316   -0.00000000
     atom  113 type  1   force =    -0.00001100    0.00002636    0.00000000
     atom  114 type  1   force =     0.00001508    0.00003415    0.00000000
     atom  115 type  1   force =    -0.00000359    0.00002724    0.00000000
     atom  116 type  1   force =     0.00004687    0.00000244   -0.00000000
     atom  117 type  1   force =     0.00003397    0.00004753   -0.00000000
     atom  118 type  1   force =     0.00005100    0.00006510   -0.00000000
     atom  119 type  1   force =     0.00001127    0.00011851   -0.00000000
     atom  120 type  1   force =     0.00006931   -0.00000001   -0.00000000
     atom  121 type  1   force =     0.00000153    0.00000001    0.00000000
     atom  122 type  1   force =     0.00000335   -0.00000220   -0.00000000
     atom  123 type  1   force =     0.00003853   -0.00000274   -0.00000000
     atom  124 type  1   force =     0.00000587    0.00001960    0.00000000
     atom  125 type  1   force =     0.00004323    0.00001179   -0.00000000
     atom  126 type  1   force =    -0.00010839    0.00007787    0.00000000
     atom  127 type  1   force =    -0.00006603    0.00001730   -0.00000000
     atom  128 type  1   force =    -0.00009742    0.00000806   -0.00000000
     atom  129 type  1   force =    -0.00000747    0.00005054    0.00000000
     atom  130 type  1   force =     0.00003676    0.00000147   -0.00000000
     atom  131 type  1   force =     0.00005160   -0.00004297   -0.00000000
     atom  132 type  1   force =    -0.00001018   -0.00000274    0.00000000
     atom  133 type  1   force =     0.00004356    0.00006426   -0.00000000
     atom  134 type  1   force =     0.00004186    0.00008665    0.00000000
     atom  135 type  1   force =     0.00001922    0.00010216    0.00000000
     atom  136 type  1   force =     0.00003316    0.00010246   -0.00000000
     atom  137 type  1   force =     0.00000984    0.00008239   -0.00000000
     atom  138 type  1   force =     0.00000336    0.00000219    0.00000000
     atom  139 type  1   force =     0.00003851    0.00000274   -0.00000000
     atom  140 type  1   force =     0.00001866   -0.00000001   -0.00000000
     atom  141 type  1   force =     0.00006025    0.00000001   -0.00000000
     atom  142 type  1   force =     0.00001337    0.00005235   -0.00000000
     atom  143 type  1   force =    -0.00005022    0.00004621    0.00000000
     atom  144 type  1   force =    -0.00004368    0.00004505    0.00000000
     atom  145 type  1   force =    -0.00005303    0.00005110    0.00000000
     atom  146 type  1   force =    -0.00000708    0.00008469   -0.00000000
     atom  147 type  1   force =    -0.00002670    0.00003613    0.00000000
     atom  148 type  1   force =    -0.00003529   -0.00001317    0.00000000
     atom  149 type  1   force =    -0.00000829    0.00003400   -0.00000000
     atom  150 type  1   force =    -0.00004209    0.00004561    0.00000000
     atom  151 type  1   force =    -0.00003557    0.00001236    0.00000000
     atom  152 type  1   force =    -0.00001992    0.00008377   -0.00000000
     atom  153 type  1   force =     0.00005994   -0.00000850   -0.00000000
     atom  154 type  1   force =     0.00000795    0.00005706    0.00000000
     atom  155 type  1   force =     0.00007802   -0.00000159   -0.00000000
     atom  156 type  1   force =     0.00000587   -0.00001961   -0.00000000
     atom  157 type  1   force =     0.00004325   -0.00001182    0.00000000
     atom  158 type  1   force =     0.00001336   -0.00005236    0.00000000
     atom  159 type  1   force =    -0.00005020   -0.00004623    0.00000000
     atom  160 type  1   force =    -0.00005009    0.00000001   -0.00000000
     atom  161 type  1   force =    -0.00006126   -0.00000002    0.00000000

     Total force =     0.000930     Total SCF correction =     0.000001
     Energy error            =      1.4E-06 Ry
     Gradient error          =      1.8E-04 Ry/Bohr

     number of scf cycles    =  25
     number of bfgs steps    =  24

     energy             old  =   -1939.0646663132 Ry
     energy             new  =   -1939.0646677174 Ry

     CASE: energy            _new < energy            _old

     new trust radius        =       0.0008184860 bohr
     new conv_thr            =            1.0E-12 Ry


ATOMIC_POSITIONS (crystal)
C                0.0368198038        0.0368198044       -0.0000000023
C                0.0738215105        0.0738215111       -0.0000000028
C                0.0365604534        0.1480510454       -0.0000000033
C                0.0736276594        0.1849769200       -0.0000000035
C                0.0365155066        0.2591973906       -0.0000000017
C                0.0736076458        0.2961523370       -0.0000000002
C                0.0367266516        0.3702290741        0.0000000003
C                0.0737879017        0.4072810438       -0.0000000009
C                0.0371323129        0.4813913774       -0.0000000018
C                0.0741642106        0.5183502505       -0.0000000024
C                0.0374507930        0.5924800290       -0.0000000013
C                0.0746897115        0.6293043481       -0.0000000006
C                0.0377424788        0.7033642704        0.0000000002
C                0.0750469317        0.7400950085        0.0000000006
C                0.0377650224        0.8142966312       -0.0000000002
C                0.0749533917        0.8509812596        0.0000000000
C                0.0373933697        0.9254318783       -0.0000000013
C                0.0742309172        0.9625039908       -0.0000000006
C                0.1480510449        0.0365604535       -0.0000000022
C                0.1849769201        0.0736276595       -0.0000000037
C                0.1478036434        0.1478036437       -0.0000000038
C                0.1848479101        0.1848479094       -0.0000000016
C                0.1477909089        0.2589631447        0.0000000001
C                0.1847018007        0.2959671780        0.0000000012
C                0.1477164461        0.3700991924       -0.0000000004
C                0.1846800678        0.4070934260       -0.0000000006
C                0.1482308794        0.4811267322       -0.0000000019
C                0.1855093402        0.5179628524       -0.0000000002
C                0.1489745615        0.5920158709        0.0000000006
C                0.1864606489        0.6285075865        0.0000000015
C                0.1494358308        0.7025389442        0.0000000015
C                0.1872085580        0.7387241197        0.0000000022
C                0.1495002134        0.8132516094        0.0000000023
C                0.1859944065        0.8507465968        0.0000000028
C                0.1485291421        0.9251291998        0.0000000018
C                0.1853061489        0.9622868004        0.0000000006
C                0.2591973907        0.0365155063       -0.0000000034
C                0.2961523373        0.0736076456       -0.0000000030
C                0.2589631448        0.1477909090       -0.0000000008
C                0.2959671783        0.1847018007        0.0000000020
C                0.2588619889        0.2588619881        0.0000000026
C                0.2957364447        0.2957364450        0.0000000028
C                0.2586399741        0.3698781548        0.0000000011
C                0.2953475822        0.4067363643        0.0000000008
C                0.2595474740        0.4805867338        0.0000000006
C                0.2971714391        0.5171818084        0.0000000002
C                0.2611625913        0.5907554124       -0.0000000004
C                0.3003236662        0.6255160736       -0.0000000032
C                0.2621043914        0.7007025853       -0.0000000002
C                0.2975104515        0.7390953574       -0.0000000017
C                0.2601489601        0.8134390564        0.0000000014
C                0.2967247854        0.8510126680        0.0000000013
C                0.2595537954        0.9250491670        0.0000000009
C                0.2964080098        0.9624343401       -0.0000000012
C                0.3702290750        0.0367266515       -0.0000000031
C                0.4072810441        0.0737879018       -0.0000000008
C                0.3700991931        0.1477164466        0.0000000023
C                0.4070934262        0.1846800679        0.0000000031
C                0.3698781561        0.2586399738        0.0000000030
C                0.4067363640        0.2953475829        0.0000000007
C                0.3693504461        0.3693504446        0.0000000002
C                0.4055790979        0.4055790973       -0.0000000018
C                0.3718083127        0.4790682419       -0.0000000029
C                0.4122322959        0.5110452963       -0.0000000113
C                0.3766254919        0.5861714349       -0.0000000079
C                0.4089256000        0.6282338332       -0.0000000038
C                0.3717508389        0.7017985436       -0.0000000043
C                0.4082318930        0.7400724193       -0.0000000025
C                0.3709802369        0.8140284744       -0.0000000002
C                0.4077316860        0.8514471737       -0.0000000014
C                0.3704783220        0.9256036292       -0.0000000018
C                0.4074202017        0.9627023763       -0.0000000036
C                0.4813913775        0.0371323138       -0.0000000019
C                0.5183502510        0.0741642110       -0.0000000006
C                0.4811267326        0.1482308804        0.0000000008
C                0.5179628530        0.1855093408       -0.0000000005
C                0.4805867348        0.2595474735       -0.0000000007
C                0.5171818094        0.2971714393       -0.0000000022
C                0.4790682428        0.3718083124       -0.0000000029
C                0.5110452973        0.4122322957       -0.0000000092
C                0.5222097938        0.5222097942        0.0000000299
C                0.4828689835        0.5930280759        0.0000000046
C                0.5198308579        0.6305059425       -0.0000000012
C                0.4821031108        0.7042467813       -0.0000000035
C                0.5190561103        0.7412255568       -0.0000000026
C                0.4817821680        0.8150329036       -0.0000000027
C                0.5188158035        0.8521391742       -0.0000000030
C                0.4816108502        0.9260291733       -0.0000000041
C                0.5186050343        0.9630664377       -0.0000000037
C                0.5924800283        0.0374507952       -0.0000000015
C                0.6293043485        0.0746897122       -0.0000000015
C                0.5920158707        0.1489745625       -0.0000000013
C                0.6285075877        0.1864606490       -0.0000000015
C                0.5907554129        0.2611625915       -0.0000000025
C                0.6255160745        0.3003236661       -0.0000000019
C                0.5861714369        0.3766254908       -0.0000000034
C                0.6282338350        0.4089255981        0.0000000042
C                0.5930280799        0.4828689810        0.0000000128
C                0.6305059436        0.5198308574        0.0000000070
C                0.5934707499        0.5934707467        0.0000000036
C                0.6304854186        0.6304854172        0.0000000031
C                0.5932349276        0.7042964719       -0.0000000003
C                0.6301555283        0.7412495069        0.0000000006
C                0.5928910423        0.8153187356       -0.0000000016
C                0.6298774241        0.8522624936       -0.0000000012
C                0.5926830654        0.9262934007       -0.0000000025
C                0.6296814121        0.9633981830       -0.0000000016
C                0.7033642692        0.0377424815       -0.0000000019
C                0.7400950082        0.0750469327       -0.0000000020
C                0.7025389439        0.1494358323       -0.0000000012
C                0.7387241203        0.1872085582       -0.0000000003
C                0.7007025861        0.2621043915       -0.0000000001
C                0.7390953587        0.2975104505       -0.0000000001
C                0.7017985445        0.3717508384        0.0000000024
C                0.7400724217        0.4082318917        0.0000000047
C                0.7042467825        0.4821031089        0.0000000063
C                0.7412255585        0.5190561094        0.0000000060
C                0.7042964722        0.5932349265        0.0000000052
C                0.7412495077        0.6301555274        0.0000000054
C                0.7041763020        0.7041763026        0.0000000040
C                0.7411993001        0.7411993007        0.0000000037
C                0.7040570001        0.8152333749        0.0000000019
C                0.7410039198        0.8522376404        0.0000000023
C                0.7037907307        0.9264261723       -0.0000000003
C                0.7406800011        0.9634824442       -0.0000000006
C                0.8142966301        0.0377650240       -0.0000000024
C                0.8509812590        0.0749533926       -0.0000000025
C                0.8132516091        0.1495002145       -0.0000000014
C                0.8507465971        0.1859944066       -0.0000000017
C                0.8134390572        0.2601489599       -0.0000000007
C                0.8510126689        0.2967247849       -0.0000000001
C                0.8140284747        0.3709802359        0.0000000027
C                0.8514471748        0.4077316857        0.0000000030
C                0.8150329041        0.4817821670        0.0000000048
C                0.8521391741        0.5188158030        0.0000000039
C                0.8153187353        0.5928910422        0.0000000048
C                0.8522624925        0.6298774245        0.0000000036
C                0.8152333737        0.7040570013        0.0000000040
C                0.8522376382        0.7410039215        0.0000000036
C                0.8151227689        0.8151227705        0.0000000034
C                0.8521422849        0.8521422872        0.0000000020
C                0.8148824825        0.9263259071       -0.0000000000
C                0.8517533803        0.9633913813       -0.0000000020
C                0.9254318771        0.0373933714       -0.0000000030
C                0.9625039900        0.0742309179       -0.0000000030
C                0.9251291998        0.1485291430       -0.0000000025
C                0.9622868003        0.1853061490       -0.0000000030
C                0.9250491673        0.2595537956       -0.0000000020
C                0.9624343404        0.2964080094       -0.0000000007
C                0.9256036298        0.3704783214        0.0000000011
C                0.9627023759        0.4074202013        0.0000000008
C                0.9260291732        0.4816108495        0.0000000017
C                0.9630664367        0.5186050346        0.0000000001
C                0.9262933995        0.5926830656        0.0000000008
C                0.9633981816        0.6296814126        0.0000000002
C                0.9264261701        0.7037907321        0.0000000021
C                0.9634824427        0.7406800021        0.0000000013
C                0.9263259053        0.8148824839        0.0000000012
C                0.9633913795        0.8517533820       -0.0000000006
C                0.9260175782        0.9260175799       -0.0000000019
C                0.9629987103        0.9629987120       -0.0000000025



     Writing config-only to output data dir /home/gregb26/links/scratch/qe_tmp/vacancy_relaxed/nspin1/vac_9x9_relax_nspin1.save/ :
     XML data file
     NEW-OLD atomic charge density approx. for the potential

     negative rho (up, down):  7.667E-08 0.000E+00

     total cpu time spent up to now is     3446.1 secs

     per-process dynamical memory:   353.4 Mb

     Self-consistent Calculation

     iteration #  1     ecut=   100.00 Ry     beta= 0.30
     Davidson diagonalization with overlap
     ethr =  1.00E-06,  avg # of iterations =  2.0

     Threshold (ethr) on eigenvalues was too large:
     Diagonalizing with lowered threshold

     Davidson diagonalization with overlap
     ethr =  1.47E-09,  avg # of iterations =  5.0

     negative rho (up, down):  4.648E-08 0.000E+00

     total cpu time spent up to now is     3465.9 secs

     total energy              =   -1939.06466487 Ry
     estimated scf accuracy    <       0.00000857 Ry

     iteration #  2     ecut=   100.00 Ry     beta= 0.30
     Davidson diagonalization with overlap
     ethr =  1.33E-09,  avg # of iterations =  5.0

     negative rho (up, down):  4.546E-08 0.000E+00

     total cpu time spent up to now is     3475.0 secs

     total energy              =   -1939.06463057 Ry
     estimated scf accuracy    <       0.00276937 Ry

     iteration #  3     ecut=   100.00 Ry     beta= 0.30
     Davidson diagonalization with overlap
     ethr =  1.33E-09,  avg # of iterations =  5.0

     negative rho (up, down):  2.507E-08 0.000E+00

     total cpu time spent up to now is     3483.6 secs

     total energy              =   -1939.06466852 Ry
     estimated scf accuracy    <       0.00000025 Ry

     iteration #  4     ecut=   100.00 Ry     beta= 0.30
     Davidson diagonalization with overlap
     ethr =  3.85E-11,  avg # of iterations =  5.0

     total cpu time spent up to now is     3493.9 secs

     total energy              =   -1939.06466855 Ry
     estimated scf accuracy    <       0.00000042 Ry

     iteration #  5     ecut=   100.00 Ry     beta= 0.30
     Davidson diagonalization with overlap
     ethr =  3.85E-11,  avg # of iterations =  2.0

     total cpu time spent up to now is     3502.0 secs

     total energy              =   -1939.06466856 Ry
     estimated scf accuracy    <       0.00000004 Ry

     iteration #  6     ecut=   100.00 Ry     beta= 0.30
     Davidson diagonalization with overlap
     ethr =  5.56E-12,  avg # of iterations =  4.0

     total cpu time spent up to now is     3510.0 secs

     total energy              =   -1939.06466857 Ry
     estimated scf accuracy    <          9.7E-09 Ry

     iteration #  7     ecut=   100.00 Ry     beta= 0.30
     Davidson diagonalization with overlap
     ethr =  1.50E-12,  avg # of iterations =  2.0

     total cpu time spent up to now is     3518.4 secs

     total energy              =   -1939.06466857 Ry
     estimated scf accuracy    <          1.4E-09 Ry

     iteration #  8     ecut=   100.00 Ry     beta= 0.30
     Davidson diagonalization with overlap
     ethr =  2.13E-13,  avg # of iterations =  5.0

     total cpu time spent up to now is     3529.0 secs

     total energy              =   -1939.06466857 Ry
     estimated scf accuracy    <          2.6E-10 Ry

     iteration #  9     ecut=   100.00 Ry     beta= 0.30
     Davidson diagonalization with overlap
     ethr =  1.00E-13,  avg # of iterations =  2.0

     total cpu time spent up to now is     3536.6 secs

     total energy              =   -1939.06466857 Ry
     estimated scf accuracy    <          4.8E-11 Ry

     iteration # 10     ecut=   100.00 Ry     beta= 0.30
     Davidson diagonalization with overlap
     ethr =  1.00E-13,  avg # of iterations =  1.0

     total cpu time spent up to now is     3543.8 secs

     total energy              =   -1939.06466857 Ry
     estimated scf accuracy    <          1.0E-11 Ry

     iteration # 11     ecut=   100.00 Ry     beta= 0.30
     Davidson diagonalization with overlap
     ethr =  1.00E-13,  avg # of iterations =  1.0

     total cpu time spent up to now is     3551.2 secs

     total energy              =   -1939.06466857 Ry
     estimated scf accuracy    <          2.1E-12 Ry

     iteration # 12     ecut=   100.00 Ry     beta= 0.30
     Davidson diagonalization with overlap
     ethr =  1.00E-13,  avg # of iterations =  1.0

     total cpu time spent up to now is     3558.4 secs

     End of self-consistent calculation

          k = 0.0000 0.0000 0.0000 (385710 PWs)   bands (ev):

   -23.7923 -23.5478 -23.5232 -23.5125 -23.5024 -23.4802 -23.4077 -22.9581
   -22.9377 -22.9376 -22.9309 -22.9020 -22.8402 -22.6650 -22.6569 -22.6438
   -22.6325 -22.6130 -22.4697 -21.8124 -21.8042 -21.7981 -21.7975 -21.7949
   -21.7881 -21.7878 -21.7801 -21.7723 -21.7716 -21.7164 -21.5324 -21.2428
   -21.2255 -21.2192 -21.2052 -21.1822 -21.0067 -20.4009 -20.3977 -20.3871
   -20.3773 -20.3576 -20.3086 -20.1359 -20.1306 -20.1251 -20.1233 -20.1184
   -20.1134 -20.1079 -20.1004 -20.0862 -20.0853 -20.0304 -19.7065 -19.3387
   -19.3302 -19.3147 -19.2879 -19.2866 -19.0980 -18.5678 -18.5615 -18.5594
   -18.5567 -18.5470 -18.5460 -18.5282 -18.5268 -18.5134 -18.4914 -18.4870
   -18.4368 -18.3849 -18.3818 -18.3685 -18.3542 -18.3310 -17.7308 -17.3490
   -17.3488 -17.3460 -17.3020 -17.2648 -17.1815 -16.9030 -16.8599 -16.8554
   -16.7799 -16.6738 -16.6733 -16.6650 -16.6013 -16.5863 -16.4289 -16.0976
   -16.0975 -16.0909 -16.0900 -16.0846 -16.0828 -16.0783 -16.0723 -16.0517
   -15.9380 -15.9371 -15.5474 -15.2374 -15.2307 -15.2191 -15.2159 -15.2115
   -15.2106 -15.2074 -15.1922 -15.1884 -15.0814 -15.0677 -14.8085 -14.7748
   -14.4614 -13.9810 -13.9743 -13.9728 -13.9492 -13.9478 -13.9387 -13.9373
   -13.9312 -13.9131 -13.8472 -13.8131 -13.5592 -13.4652 -13.4518 -13.4469
   -13.4421 -13.4381 -13.4352 -13.4270 -13.4235 -13.4131 -13.2173 -13.1898
   -12.9157 -12.5153 -12.5041 -12.4650 -12.4644 -12.4552 -12.4543 -12.4543
   -12.4480 -12.4469 -12.4437 -12.4390 -12.4247 -12.4227 -12.4216 -12.4072
   -12.1654 -12.1522 -11.8767 -11.7134 -11.6246 -11.6230 -11.6133 -11.5668
   -11.5527 -11.5446 -11.5415 -11.5357 -11.5221 -11.5143 -11.4531 -11.4217
   -11.3542 -11.3333 -11.3284 -11.3200 -11.3145 -11.3124 -11.3070 -11.2788
   -11.2656 -11.1765 -11.1388 -11.1213 -11.0201 -11.0020 -10.9832 -10.9079
   -10.8686 -10.8614 -10.8577 -10.8565 -10.8524 -10.8275 -10.7550 -10.6685
   -10.6543 -10.6314 -10.6280 -10.5822 -10.5712 -10.5393 -10.5294 -10.5237
   -10.5152 -10.5034 -10.4897 -10.4586 -10.4490 -10.4479 -10.4364 -10.4330
   -10.4289 -10.4159 -10.4072 -10.3847 -10.3385 -10.2363 -10.2228 -10.2097
   -10.1109 -10.0923 -10.0701 -10.0486 -10.0371 -10.0182 -10.0062  -9.9955
    -9.9771  -9.5393  -9.5293  -9.5276  -9.5234  -9.5215  -9.5199  -9.5196
    -9.5151  -9.5043  -9.5035  -9.4649  -9.4640  -9.4493  -9.2659  -9.1243
    -9.0931  -9.0837  -9.0761  -9.0603  -9.0550  -9.0535  -9.0415  -9.0352
    -8.9930  -8.9085  -8.8928  -8.8884  -8.8703  -8.8681  -8.8098  -8.6953
    -8.6099  -8.6065  -8.4575  -8.4446  -8.4436  -8.1034  -8.0840  -7.9447
    -7.9444  -7.9440  -7.9367  -7.9358  -7.9231  -7.9147  -7.9117  -7.8908
    -7.8731  -7.8718  -7.7145  -7.7056  -7.7027  -7.6986  -7.6951  -7.6904
    -7.6891  -7.6872  -7.6656  -7.6656  -7.6551  -7.4012  -7.3995  -7.3585
    -7.0697  -7.0623  -7.0526  -7.0356  -7.0141  -6.8060  -6.3678  -6.3670
    -6.3588  -6.3422  -6.3383  -6.2558  -6.0918  -6.0857  -6.0785  -6.0750
    -6.0683  -6.0663  -6.0575  -6.0517  -6.0384  -6.0324  -6.0222  -5.0239
    -4.2765  -4.2442  -4.2285  -4.2205  -3.9664  -3.1196  -2.6735  -2.6627
    -2.6549  -2.6520  -2.6416  -2.6385  -2.5870  -2.5855  -2.5684  -2.5565
    -2.5544  -2.5517  -2.5461  -2.5340  -2.5238  -2.4382  -2.4374  -2.2121
    -2.0600  -2.0490  -2.0324  -1.9953  -1.9675  -1.5658  -0.9824  -0.9753

     the Fermi energy is    -4.2239 ev

!    total energy              =   -1939.06466857 Ry
     estimated scf accuracy    <          4.8E-13 Ry
     smearing contrib. (-TS)   =      -0.01242457 Ry
     internal energy E=F+TS    =   -1939.05224399 Ry

     The total energy is F=E-TS. E is the sum of the following terms:
     one-electron contribution =  -21951.45339829 Ry
     hartree contribution      =   11035.85280160 Ry
     xc contribution           =    -689.86946928 Ry
     ewald contribution        =    9666.41782197 Ry

     convergence has been achieved in  12 iterations

     Forces acting on atoms (cartesian axes, Ry/au):

     atom    1 type  1   force =    -0.00006484    0.00000000    0.00000000
     atom    2 type  1   force =    -0.00005721   -0.00000000    0.00000000
     atom    3 type  1   force =    -0.00004534    0.00001071   -0.00000000
     atom    4 type  1   force =    -0.00003132    0.00001807    0.00000000
     atom    5 type  1   force =    -0.00003803    0.00003957    0.00000000
     atom    6 type  1   force =    -0.00002324    0.00004326   -0.00000000
     atom    7 type  1   force =     0.00003592    0.00001756   -0.00000000
     atom    8 type  1   force =     0.00003897    0.00000712    0.00000000
     atom    9 type  1   force =    -0.00000729   -0.00004748    0.00000000
     atom   10 type  1   force =     0.00000575    0.00008222    0.00000000
     atom   11 type  1   force =     0.00004588   -0.00001416   -0.00000000
     atom   12 type  1   force =     0.00000191    0.00002039    0.00000000
     atom   13 type  1   force =    -0.00000830   -0.00000440    0.00000000
     atom   14 type  1   force =    -0.00002689   -0.00000721    0.00000000
     atom   15 type  1   force =    -0.00005985   -0.00002200    0.00000000
     atom   16 type  1   force =    -0.00007054    0.00000509    0.00000000
     atom   17 type  1   force =    -0.00001765    0.00000132    0.00000000
     atom   18 type  1   force =    -0.00000312   -0.00003699    0.00000000
     atom   19 type  1   force =    -0.00004532   -0.00001072    0.00000000
     atom   20 type  1   force =    -0.00003134   -0.00001806    0.00000000
     atom   21 type  1   force =    -0.00004607   -0.00000001    0.00000000
     atom   22 type  1   force =     0.00001106    0.00000002    0.00000000
     atom   23 type  1   force =     0.00003442    0.00001550   -0.00000000
     atom   24 type  1   force =     0.00000840   -0.00000116   -0.00000000
     atom   25 type  1   force =     0.00004345   -0.00002454    0.00000000
     atom   26 type  1   force =     0.00001342    0.00004670   -0.00000000
     atom   27 type  1   force =     0.00003590    0.00000642    0.00000000
     atom   28 type  1   force =    -0.00003117    0.00010063   -0.00000000
     atom   29 type  1   force =     0.00003213   -0.00001832   -0.00000000
     atom   30 type  1   force =     0.00004603    0.00002644   -0.00000000
     atom   31 type  1   force =    -0.00005784   -0.00005661    0.00000000
     atom   32 type  1   force =     0.00000521    0.00002087   -0.00000000
     atom   33 type  1   force =    -0.00007093    0.00000203   -0.00000000
     atom   34 type  1   force =    -0.00004944   -0.00003814   -0.00000000
     atom   35 type  1   force =    -0.00003177   -0.00003857   -0.00000000
     atom   36 type  1   force =    -0.00007159   -0.00001423   -0.00000000
     atom   37 type  1   force =    -0.00003801   -0.00003958    0.00000000
     atom   38 type  1   force =    -0.00002324   -0.00004326    0.00000000
     atom   39 type  1   force =     0.00003442   -0.00001552   -0.00000000
     atom   40 type  1   force =     0.00000840    0.00000114   -0.00000000
     atom   41 type  1   force =    -0.00003029    0.00000002   -0.00000000
     atom   42 type  1   force =    -0.00004377   -0.00000003    0.00000000
     atom   43 type  1   force =     0.00001805    0.00000124    0.00000000
     atom   44 type  1   force =    -0.00001478    0.00000791    0.00000000
     atom   45 type  1   force =    -0.00000958    0.00002950   -0.00000000
     atom   46 type  1   force =     0.00003052   -0.00000990   -0.00000000
     atom   47 type  1   force =     0.00004317   -0.00005736    0.00000000
     atom   48 type  1   force =    -0.00000349    0.00000840   -0.00000000
     atom   49 type  1   force =    -0.00002725    0.00002469   -0.00000000
     atom   50 type  1   force =     0.00004941   -0.00000034    0.00000000
     atom   51 type  1   force =    -0.00002250    0.00000035   -0.00000000
     atom   52 type  1   force =     0.00001216   -0.00000297   -0.00000000
     atom   53 type  1   force =     0.00003647    0.00003198   -0.00000000
     atom   54 type  1   force =    -0.00002372   -0.00003867   -0.00000000
     atom   55 type  1   force =     0.00003590   -0.00001754    0.00000000
     atom   56 type  1   force =     0.00003899   -0.00000711   -0.00000000
     atom   57 type  1   force =     0.00004341    0.00002455   -0.00000000
     atom   58 type  1   force =     0.00001345   -0.00004671   -0.00000000
     atom   59 type  1   force =     0.00001802   -0.00000119   -0.00000000
     atom   60 type  1   force =    -0.00001478   -0.00000799    0.00000000
     atom   61 type  1   force =    -0.00001343    0.00000005    0.00000000
     atom   62 type  1   force =     0.00000748   -0.00000001   -0.00000000
     atom   63 type  1   force =     0.00006444   -0.00001468    0.00000000
     atom   64 type  1   force =     0.00009255   -0.00006666   -0.00000000
     atom   65 type  1   force =    -0.00001155   -0.00003594   -0.00000000
     atom   66 type  1   force =    -0.00001389   -0.00000793    0.00000000
     atom   67 type  1   force =     0.00000615    0.00000432    0.00000000
     atom   68 type  1   force =    -0.00000217   -0.00002283   -0.00000000
     atom   69 type  1   force =     0.00005332    0.00001432   -0.00000000
     atom   70 type  1   force =    -0.00002233   -0.00009080   -0.00000000
     atom   71 type  1   force =    -0.00001035   -0.00003698   -0.00000000
     atom   72 type  1   force =     0.00001285   -0.00004921    0.00000000
     atom   73 type  1   force =    -0.00000730    0.00004747    0.00000000
     atom   74 type  1   force =     0.00000576   -0.00008218   -0.00000000
     atom   75 type  1   force =     0.00003587   -0.00000643    0.00000000
     atom   76 type  1   force =    -0.00003118   -0.00010063    0.00000000
     atom   77 type  1   force =    -0.00000956   -0.00002945    0.00000000
     atom   78 type  1   force =     0.00003048    0.00000990    0.00000000
     atom   79 type  1   force =     0.00006445    0.00001469    0.00000000
     atom   80 type  1   force =     0.00009255    0.00006665   -0.00000001
     atom   81 type  1   force =    -0.00014716   -0.00000012    0.00000002
     atom   82 type  1   force =    -0.00005084    0.00000478    0.00000001
     atom   83 type  1   force =    -0.00003515   -0.00000203    0.00000000
     atom   84 type  1   force =     0.00001281   -0.00000961    0.00000000
     atom   85 type  1   force =     0.00002980   -0.00006237   -0.00000000
     atom   86 type  1   force =     0.00006410   -0.00003833    0.00000000
     atom   87 type  1   force =     0.00005034   -0.00007352   -0.00000000
     atom   88 type  1   force =    -0.00000990   -0.00002202    0.00000000
     atom   89 type  1   force =    -0.00000056   -0.00000854    0.00000000
     atom   90 type  1   force =     0.00004586    0.00001411   -0.00000000
     atom   91 type  1   force =     0.00000191   -0.00002034   -0.00000000
     atom   92 type  1   force =     0.00003215    0.00001828   -0.00000000
     atom   93 type  1   force =     0.00004600   -0.00002639   -0.00000000
     atom   94 type  1   force =     0.00004319    0.00005735    0.00000000
     atom   95 type  1   force =    -0.00000350   -0.00000840   -0.00000000
     atom   96 type  1   force =    -0.00001157    0.00003597   -0.00000001
     atom   97 type  1   force =    -0.00001386    0.00000795   -0.00000000
     atom   98 type  1   force =    -0.00005093   -0.00000463   -0.00000000
     atom   99 type  1   force =    -0.00003518    0.00000195    0.00000000
     atom  100 type  1   force =    -0.00002035    0.00000007   -0.00000000
     atom  101 type  1   force =    -0.00005759    0.00000001   -0.00000000
     atom  102 type  1   force =     0.00006362   -0.00002395    0.00000000
     atom  103 type  1   force =    -0.00000728   -0.00002422    0.00000000
     atom  104 type  1   force =     0.00000989   -0.00006509    0.00000000
     atom  105 type  1   force =     0.00002011    0.00001650    0.00000000
     atom  106 type  1   force =    -0.00002286    0.00002212    0.00000000
     atom  107 type  1   force =     0.00001778    0.00002699    0.00000000
     atom  108 type  1   force =    -0.00000832    0.00000433    0.00000000
     atom  109 type  1   force =    -0.00002688    0.00000724    0.00000000
     atom  110 type  1   force =    -0.00005784    0.00005656   -0.00000000
     atom  111 type  1   force =     0.00000521   -0.00002085   -0.00000000
     atom  112 type  1   force =    -0.00002726   -0.00002470   -0.00000000
     atom  113 type  1   force =     0.00004942    0.00000037   -0.00000000
     atom  114 type  1   force =     0.00000616   -0.00000437   -0.00000000
     atom  115 type  1   force =    -0.00000223    0.00002288    0.00000000
     atom  116 type  1   force =     0.00001289    0.00000961   -0.00000000
     atom  117 type  1   force =     0.00002972    0.00006239   -0.00000000
     atom  118 type  1   force =     0.00006367    0.00002393    0.00000000
     atom  119 type  1   force =    -0.00000729    0.00002428   -0.00000000
     atom  120 type  1   force =     0.00001757   -0.00000003   -0.00000000
     atom  121 type  1   force =    -0.00000288    0.00000001    0.00000000
     atom  122 type  1   force =    -0.00001923   -0.00002303   -0.00000000
     atom  123 type  1   force =     0.00002000    0.00002034   -0.00000000
     atom  124 type  1   force =     0.00000072    0.00000628    0.00000000
     atom  125 type  1   force =    -0.00000705    0.00004035   -0.00000000
     atom  126 type  1   force =    -0.00005985    0.00002198   -0.00000000
     atom  127 type  1   force =    -0.00007054   -0.00000507    0.00000000
     atom  128 type  1   force =    -0.00007094   -0.00000205   -0.00000000
     atom  129 type  1   force =    -0.00004943    0.00003815    0.00000000
     atom  130 type  1   force =    -0.00002251   -0.00000036   -0.00000000
     atom  131 type  1   force =     0.00001216    0.00000299   -0.00000000
     atom  132 type  1   force =     0.00005340   -0.00001435   -0.00000000
     atom  133 type  1   force =    -0.00002238    0.00009080    0.00000000
     atom  134 type  1   force =     0.00006413    0.00003833   -0.00000000
     atom  135 type  1   force =     0.00005036    0.00007352    0.00000000
     atom  136 type  1   force =     0.00000989    0.00006508   -0.00000000
     atom  137 type  1   force =     0.00002013   -0.00001649   -0.00000000
     atom  138 type  1   force =    -0.00001926    0.00002302    0.00000000
     atom  139 type  1   force =     0.00002002   -0.00002036   -0.00000000
     atom  140 type  1   force =     0.00002142    0.00000001   -0.00000000
     atom  141 type  1   force =     0.00006404   -0.00000002   -0.00000000
     atom  142 type  1   force =     0.00002439    0.00000769   -0.00000000
     atom  143 type  1   force =     0.00003631    0.00001493    0.00000000
     atom  144 type  1   force =    -0.00001766   -0.00000134    0.00000000
     atom  145 type  1   force =    -0.00000310    0.00003699    0.00000000
     atom  146 type  1   force =    -0.00003180    0.00003855   -0.00000000
     atom  147 type  1   force =    -0.00007156    0.00001423    0.00000000
     atom  148 type  1   force =     0.00003646   -0.00003200    0.00000001
     atom  149 type  1   force =    -0.00002371    0.00003866   -0.00000000
     atom  150 type  1   force =    -0.00001035    0.00003699    0.00000000
     atom  151 type  1   force =     0.00001287    0.00004918    0.00000000
     atom  152 type  1   force =    -0.00000990    0.00002204   -0.00000000
     atom  153 type  1   force =    -0.00000057    0.00000853   -0.00000000
     atom  154 type  1   force =    -0.00002285   -0.00002211    0.00000000
     atom  155 type  1   force =     0.00001777   -0.00002697    0.00000000
     atom  156 type  1   force =     0.00000072   -0.00000630   -0.00000000
     atom  157 type  1   force =    -0.00000706   -0.00004032   -0.00000000
     atom  158 type  1   force =     0.00002440   -0.00000768   -0.00000000
     atom  159 type  1   force =     0.00003630   -0.00001494    0.00000000
     atom  160 type  1   force =     0.00001469    0.00000000   -0.00000000
     atom  161 type  1   force =     0.00003233   -0.00000001    0.00000000

     Total force =     0.000629     Total SCF correction =     0.000001
     Energy error            =      8.5E-07 Ry
     Gradient error          =      1.5E-04 Ry/Bohr

     number of scf cycles    =  26
     number of bfgs steps    =  25

     energy             old  =   -1939.0646677174 Ry
     energy             new  =   -1939.0646685678 Ry

     CASE: energy            _new < energy            _old

     new trust radius        =       0.0003027304 bohr
     new conv_thr            =            1.0E-12 Ry


ATOMIC_POSITIONS (crystal)
C                0.0368171649        0.0368171653       -0.0000000024
C                0.0738187950        0.0738187954       -0.0000000028
C                0.0365568356        0.1480493892       -0.0000000034
C                0.0736235422        0.1849753887       -0.0000000033
C                0.0365116791        0.2591963434       -0.0000000016
C                0.0736043638        0.2961511452       -0.0000000004
C                0.0367252831        0.3702292478       -0.0000000000
C                0.0737873880        0.4072815406       -0.0000000009
C                0.0371329985        0.4813920136       -0.0000000016
C                0.0741629204        0.5183534207       -0.0000000022
C                0.0374532079        0.5924820784       -0.0000000012
C                0.0746917159        0.6293049034       -0.0000000004
C                0.0377442688        0.7033634758        0.0000000003
C                0.0750495122        0.7400912070        0.0000000007
C                0.0377669516        0.8142914857        0.0000000000
C                0.0749539042        0.8509764641        0.0000000003
C                0.0373928085        0.9254281036       -0.0000000010
C                0.0742314654        0.9624999235       -0.0000000005
C                0.1480493894        0.0365568356       -0.0000000021
C                0.1849753884        0.0736235423       -0.0000000035
C                0.1478008002        0.1478007998       -0.0000000036
C                0.1848460785        0.1848460786       -0.0000000015
C                0.1477889780        0.2589619057        0.0000000000
C                0.1847005659        0.2959655849        0.0000000011
C                0.1477166374        0.3700983044       -0.0000000002
C                0.1846791853        0.4070929184       -0.0000000005
C                0.1482312918        0.4811262600       -0.0000000017
C                0.1855075565        0.5179634387       -0.0000000002
C                0.1489771109        0.5920147775        0.0000000005
C                0.1864640478        0.6285056597        0.0000000012
C                0.1494392402        0.7025341110        0.0000000015
C                0.1872122963        0.7387201217        0.0000000019
C                0.1495021324        0.8132466036        0.0000000020
C                0.1859977807        0.8507413396        0.0000000024
C                0.1485305118        0.9251241307        0.0000000016
C                0.1853062458        0.9622820984        0.0000000005
C                0.2591963437        0.0365116789       -0.0000000031
C                0.2961511453        0.0736043637       -0.0000000027
C                0.2589619062        0.1477889777       -0.0000000009
C                0.2959655852        0.1847005658        0.0000000017
C                0.2588598138        0.2588598138        0.0000000024
C                0.2957339402        0.2957339394        0.0000000028
C                0.2586390827        0.3698763406        0.0000000012
C                0.2953462383        0.4067347639        0.0000000008
C                0.2595469399        0.4805854276        0.0000000006
C                0.2971739850        0.5171796175        0.0000000000
C                0.2611671132        0.5907518653       -0.0000000005
C                0.3003281602        0.6255116191       -0.0000000034
C                0.2621079924        0.7006986605       -0.0000000003
C                0.2975152396        0.7390924719       -0.0000000018
C                0.2601521305        0.8134352838        0.0000000013
C                0.2967271217        0.8510108672        0.0000000012
C                0.2595542028        0.9250478067        0.0000000007
C                0.2964088537        0.9624301366       -0.0000000014
C                0.3702292481        0.0367252833       -0.0000000028
C                0.4072815407        0.0737873884       -0.0000000009
C                0.3700983046        0.1477166373        0.0000000020
C                0.4070929190        0.1846791855        0.0000000029
C                0.3698763404        0.2586390833        0.0000000029
C                0.4067347650        0.2953462373        0.0000000007
C                0.3693493191        0.3693493201        0.0000000001
C                0.4055786498        0.4055786490       -0.0000000016
C                0.3718109118        0.4790671199       -0.0000000026
C                0.4122406238        0.5110408295       -0.0000000117
C                0.3766310351        0.5861654143       -0.0000000078
C                0.4089287053        0.6282306350       -0.0000000033
C                0.3717550216        0.7017952033       -0.0000000040
C                0.4082354982        0.7400699754       -0.0000000028
C                0.3709836168        0.8140270274       -0.0000000005
C                0.4077358951        0.8514431640       -0.0000000016
C                0.3704804792        0.9256003154       -0.0000000020
C                0.4074224467        0.9626994021       -0.0000000036
C                0.4813920138        0.0371329989       -0.0000000019
C                0.5183534203        0.0741629216       -0.0000000007
C                0.4811262604        0.1482312920        0.0000000009
C                0.5179634388        0.1855075570       -0.0000000004
C                0.4805854277        0.2595469408       -0.0000000006
C                0.5171796179        0.2971739847       -0.0000000018
C                0.4790671204        0.3718109123       -0.0000000026
C                0.5110408303        0.4122406234       -0.0000000097
C                0.5222073895        0.5222073845        0.0000000314
C                0.4828700674        0.5930258638        0.0000000052
C                0.5198327006        0.6305046606       -0.0000000012
C                0.4821068706        0.7042458210       -0.0000000035
C                0.5190617010        0.7412241051       -0.0000000027
C                0.4817874587        0.8150315630       -0.0000000025
C                0.5188222439        0.8521367677       -0.0000000030
C                0.4816140984        0.9260270579       -0.0000000039
C                0.5186086871        0.9630652723       -0.0000000036
C                0.5924820786        0.0374532084       -0.0000000014
C                0.6293049026        0.0746917176       -0.0000000016
C                0.5920147783        0.1489771112       -0.0000000013
C                0.6285056592        0.1864640488       -0.0000000016
C                0.5907518659        0.2611671137       -0.0000000024
C                0.6255116198        0.3003281600       -0.0000000021
C                0.5861654149        0.3766310348       -0.0000000039
C                0.6282306366        0.4089287042        0.0000000041
C                0.5930258625        0.4828700683        0.0000000129
C                0.6305046629        0.5198326980        0.0000000069
C                0.5934720406        0.5934720413        0.0000000036
C                0.6304867763        0.6304867754        0.0000000031
C                0.5932397267        0.7042976545       -0.0000000001
C                0.6301602486        0.7412492685        0.0000000006
C                0.5928971892        0.8153163074       -0.0000000017
C                0.6298813322        0.8522629392       -0.0000000010
C                0.5926864983        0.9262931303       -0.0000000023
C                0.6296833433        0.9634001299       -0.0000000015
C                0.7033634758        0.0377442694       -0.0000000018
C                0.7400912062        0.0750495139       -0.0000000019
C                0.7025341116        0.1494392405       -0.0000000012
C                0.7387201219        0.1872122968       -0.0000000005
C                0.7006986610        0.2621079926       -0.0000000003
C                0.7390924727        0.2975152396       -0.0000000001
C                0.7017952051        0.3717550205        0.0000000024
C                0.7400699761        0.4082354974        0.0000000048
C                0.7042458228        0.4821068702        0.0000000061
C                0.7412241053        0.5190616998        0.0000000058
C                0.7042976555        0.5932397262        0.0000000051
C                0.7412492680        0.6301602486        0.0000000053
C                0.7041794979        0.7041794974        0.0000000038
C                0.7412021071        0.7412021082        0.0000000038
C                0.7040608478        0.8152341706        0.0000000019
C                0.7410057414        0.8522405630        0.0000000020
C                0.7037927340        0.9264281264       -0.0000000003
C                0.7406792082        0.9634851752       -0.0000000006
C                0.8142914851        0.0377669524       -0.0000000023
C                0.8509764634        0.0749539053       -0.0000000026
C                0.8132466037        0.1495021326       -0.0000000016
C                0.8507413401        0.1859977809       -0.0000000017
C                0.8134352848        0.2601521299       -0.0000000006
C                0.8510108680        0.2967271212       -0.0000000001
C                0.8140270293        0.3709836162        0.0000000028
C                0.8514431644        0.4077358942        0.0000000030
C                0.8150315641        0.4817874580        0.0000000049
C                0.8521367675        0.5188222437        0.0000000040
C                0.8153163076        0.5928971889        0.0000000048
C                0.8522629382        0.6298813327        0.0000000036
C                0.8152341697        0.7040608483        0.0000000041
C                0.8522405616        0.7410057426        0.0000000035
C                0.8151249341        0.8151249358        0.0000000031
C                0.8521443743        0.8521443754        0.0000000019
C                0.8148816770        0.9263277388        0.0000000000
C                0.8517512372        0.9633931320       -0.0000000018
C                0.9254281029        0.0373928092       -0.0000000029
C                0.9624999234        0.0742314659       -0.0000000029
C                0.9251241307        0.1485305117       -0.0000000026
C                0.9622820989        0.1853062459       -0.0000000030
C                0.9250478074        0.2595542024       -0.0000000018
C                0.9624301371        0.2964088534       -0.0000000007
C                0.9256003160        0.3704804786        0.0000000013
C                0.9626994023        0.4074224464        0.0000000008
C                0.9260270579        0.4816140981        0.0000000017
C                0.9630652717        0.5186086871       -0.0000000000
C                0.9262931294        0.5926864986        0.0000000010
C                0.9634001283        0.6296833444        0.0000000003
C                0.9264281250        0.7037927346        0.0000000021
C                0.9634851733        0.7406792094        0.0000000013
C                0.9263277374        0.8148816784        0.0000000012
C                0.9633931305        0.8517512384       -0.0000000006
C                0.9260159284        0.9260159300       -0.0000000021
C                0.9629967897        0.9629967906       -0.0000000024



     Writing config-only to output data dir /home/gregb26/links/scratch/qe_tmp/vacancy_relaxed/nspin1/vac_9x9_relax_nspin1.save/ :
     XML data file
     NEW-OLD atomic charge density approx. for the potential

     negative rho (up, down):  5.498E-08 0.000E+00

     total cpu time spent up to now is     3561.9 secs

     per-process dynamical memory:   353.4 Mb

     Self-consistent Calculation

     iteration #  1     ecut=   100.00 Ry     beta= 0.30
     Davidson diagonalization with overlap
     ethr =  1.00E-06,  avg # of iterations =  1.0

     Threshold (ethr) on eigenvalues was too large:
     Diagonalizing with lowered threshold

     Davidson diagonalization with overlap
     ethr =  3.76E-10,  avg # of iterations =  5.0

     negative rho (up, down):  3.267E-08 0.000E+00

     total cpu time spent up to now is     3583.4 secs

     total energy              =   -1939.06466762 Ry
     estimated scf accuracy    <       0.00000333 Ry

     iteration #  2     ecut=   100.00 Ry     beta= 0.30
     Davidson diagonalization with overlap
     ethr =  5.17E-10,  avg # of iterations =  5.0

     negative rho (up, down):  3.190E-08 0.000E+00

     total cpu time spent up to now is     3592.4 secs

     total energy              =   -1939.06465517 Ry
     estimated scf accuracy    <       0.00099485 Ry

     iteration #  3     ecut=   100.00 Ry     beta= 0.30
     Davidson diagonalization with overlap
     ethr =  5.17E-10,  avg # of iterations =  5.0

     negative rho (up, down):  1.197E-08 0.000E+00

     total cpu time spent up to now is     3600.8 secs

     total energy              =   -1939.06466897 Ry
     estimated scf accuracy    <       0.00000011 Ry

     iteration #  4     ecut=   100.00 Ry     beta= 0.30
     Davidson diagonalization with overlap
     ethr =  1.72E-11,  avg # of iterations =  5.0

     total cpu time spent up to now is     3610.2 secs

     total energy              =   -1939.06466898 Ry
     estimated scf accuracy    <       0.00000009 Ry

     iteration #  5     ecut=   100.00 Ry     beta= 0.30
     Davidson diagonalization with overlap
     ethr =  1.35E-11,  avg # of iterations =  1.0

     total cpu time spent up to now is     3617.4 secs

     total energy              =   -1939.06466898 Ry
     estimated scf accuracy    <          5.0E-09 Ry

     iteration #  6     ecut=   100.00 Ry     beta= 0.30
     Davidson diagonalization with overlap
     ethr =  7.80E-13,  avg # of iterations =  5.0

     total cpu time spent up to now is     3628.6 secs

     total energy              =   -1939.06466898 Ry
     estimated scf accuracy    <          5.2E-09 Ry

     iteration #  7     ecut=   100.00 Ry     beta= 0.30
     Davidson diagonalization with overlap
     ethr =  7.80E-13,  avg # of iterations =  1.0

     total cpu time spent up to now is     3635.9 secs

     total energy              =   -1939.06466898 Ry
     estimated scf accuracy    <          8.8E-10 Ry

     iteration #  8     ecut=   100.00 Ry     beta= 0.30
     Davidson diagonalization with overlap
     ethr =  1.37E-13,  avg # of iterations =  2.0

     total cpu time spent up to now is     3643.5 secs

     total energy              =   -1939.06466898 Ry
     estimated scf accuracy    <          1.1E-10 Ry

     iteration #  9     ecut=   100.00 Ry     beta= 0.30
     Davidson diagonalization with overlap
     ethr =  1.00E-13,  avg # of iterations =  1.0

     total cpu time spent up to now is     3651.0 secs

     total energy              =   -1939.06466898 Ry
     estimated scf accuracy    <          2.4E-11 Ry

     iteration # 10     ecut=   100.00 Ry     beta= 0.30
     Davidson diagonalization with overlap
     ethr =  1.00E-13,  avg # of iterations =  1.0

     total cpu time spent up to now is     3658.2 secs

     total energy              =   -1939.06466898 Ry
     estimated scf accuracy    <          2.5E-12 Ry

     iteration # 11     ecut=   100.00 Ry     beta= 0.30
     Davidson diagonalization with overlap
     ethr =  1.00E-13,  avg # of iterations =  1.0

     total cpu time spent up to now is     3665.4 secs

     End of self-consistent calculation

          k = 0.0000 0.0000 0.0000 (385710 PWs)   bands (ev):

   -23.7923 -23.5479 -23.5231 -23.5126 -23.5023 -23.4802 -23.4076 -22.9581
   -22.9377 -22.9375 -22.9308 -22.9020 -22.8401 -22.6650 -22.6569 -22.6438
   -22.6325 -22.6129 -22.4697 -21.8124 -21.8042 -21.7981 -21.7975 -21.7949
   -21.7881 -21.7878 -21.7801 -21.7722 -21.7716 -21.7164 -21.5325 -21.2428
   -21.2254 -21.2192 -21.2051 -21.1822 -21.0067 -20.4009 -20.3977 -20.3870
   -20.3773 -20.3576 -20.3084 -20.1360 -20.1306 -20.1251 -20.1233 -20.1184
   -20.1134 -20.1078 -20.1004 -20.0861 -20.0852 -20.0304 -19.7066 -19.3387
   -19.3301 -19.3146 -19.2879 -19.2866 -19.0980 -18.5677 -18.5615 -18.5594
   -18.5567 -18.5470 -18.5460 -18.5282 -18.5267 -18.5133 -18.4914 -18.4871
   -18.4368 -18.3848 -18.3817 -18.3686 -18.3541 -18.3310 -17.7308 -17.3490
   -17.3488 -17.3459 -17.3020 -17.2647 -17.1816 -16.9029 -16.8599 -16.8554
   -16.7799 -16.6739 -16.6733 -16.6650 -16.6013 -16.5863 -16.4289 -16.0976
   -16.0974 -16.0910 -16.0901 -16.0846 -16.0828 -16.0783 -16.0722 -16.0516
   -15.9379 -15.9371 -15.5475 -15.2374 -15.2307 -15.2191 -15.2158 -15.2115
   -15.2106 -15.2074 -15.1922 -15.1884 -15.0814 -15.0677 -14.8085 -14.7748
   -14.4615 -13.9810 -13.9742 -13.9728 -13.9492 -13.9478 -13.9386 -13.9373
   -13.9312 -13.9131 -13.8471 -13.8130 -13.5591 -13.4651 -13.4517 -13.4468
   -13.4421 -13.4381 -13.4352 -13.4270 -13.4235 -13.4131 -13.2174 -13.1899
   -12.9158 -12.5153 -12.5040 -12.4650 -12.4644 -12.4552 -12.4544 -12.4542
   -12.4480 -12.4469 -12.4437 -12.4389 -12.4246 -12.4227 -12.4215 -12.4072
   -12.1655 -12.1523 -11.8767 -11.7134 -11.6246 -11.6230 -11.6133 -11.5669
   -11.5527 -11.5447 -11.5414 -11.5357 -11.5221 -11.5143 -11.4532 -11.4216
   -11.3542 -11.3333 -11.3284 -11.3201 -11.3145 -11.3124 -11.3069 -11.2788
   -11.2656 -11.1765 -11.1388 -11.1212 -11.0200 -11.0020 -10.9832 -10.9080
   -10.8686 -10.8614 -10.8577 -10.8565 -10.8523 -10.8275 -10.7549 -10.6684
   -10.6542 -10.6313 -10.6280 -10.5822 -10.5713 -10.5393 -10.5294 -10.5237
   -10.5153 -10.5035 -10.4896 -10.4586 -10.4490 -10.4479 -10.4363 -10.4331
   -10.4289 -10.4158 -10.4072 -10.3847 -10.3385 -10.2363 -10.2228 -10.2096
   -10.1109 -10.0923 -10.0700 -10.0485 -10.0371 -10.0182 -10.0061  -9.9955
    -9.9770  -9.5393  -9.5293  -9.5276  -9.5234  -9.5215  -9.5199  -9.5196
    -9.5152  -9.5042  -9.5035  -9.4649  -9.4640  -9.4492  -9.2660  -9.1245
    -9.0931  -9.0837  -9.0762  -9.0602  -9.0551  -9.0535  -9.0414  -9.0351
    -8.9929  -8.9085  -8.8928  -8.8884  -8.8703  -8.8681  -8.8100  -8.6953
    -8.6099  -8.6064  -8.4575  -8.4445  -8.4437  -8.1035  -8.0840  -7.9447
    -7.9447  -7.9440  -7.9367  -7.9358  -7.9230  -7.9147  -7.9117  -7.8910
    -7.8730  -7.8718  -7.7145  -7.7055  -7.7027  -7.6985  -7.6951  -7.6904
    -7.6891  -7.6872  -7.6657  -7.6656  -7.6550  -7.4011  -7.3995  -7.3585
    -7.0698  -7.0624  -7.0526  -7.0356  -7.0140  -6.8060  -6.3678  -6.3670
    -6.3588  -6.3422  -6.3383  -6.2558  -6.0919  -6.0857  -6.0785  -6.0749
    -6.0683  -6.0663  -6.0574  -6.0517  -6.0383  -6.0324  -6.0222  -5.0240
    -4.2765  -4.2442  -4.2285  -4.2205  -3.9665  -3.1187  -2.6735  -2.6628
    -2.6549  -2.6520  -2.6415  -2.6385  -2.5870  -2.5855  -2.5684  -2.5566
    -2.5544  -2.5517  -2.5461  -2.5339  -2.5238  -2.4382  -2.4373  -2.2121
    -2.0600  -2.0490  -2.0324  -1.9953  -1.9675  -1.5658  -0.9824  -0.9752

     the Fermi energy is    -4.2239 ev

!    total energy              =   -1939.06466898 Ry
     estimated scf accuracy    <          4.9E-13 Ry
     smearing contrib. (-TS)   =      -0.01242587 Ry
     internal energy E=F+TS    =   -1939.05224311 Ry

     The total energy is F=E-TS. E is the sum of the following terms:
     one-electron contribution =  -21951.44350304 Ry
     hartree contribution      =   11035.84788466 Ry
     xc contribution           =    -689.86912870 Ry
     ewald contribution        =    9666.41250397 Ry

     convergence has been achieved in  11 iterations

     Forces acting on atoms (cartesian axes, Ry/au):

     atom    1 type  1   force =    -0.00005469   -0.00000001    0.00000000
     atom    2 type  1   force =    -0.00003686   -0.00000001   -0.00000000
     atom    3 type  1   force =    -0.00006841    0.00001215   -0.00000000
     atom    4 type  1   force =    -0.00000108   -0.00001076    0.00000000
     atom    5 type  1   force =    -0.00001043    0.00004377   -0.00000000
     atom    6 type  1   force =     0.00002679    0.00003721   -0.00000000
     atom    7 type  1   force =     0.00001785    0.00004283   -0.00000000
     atom    8 type  1   force =     0.00001883   -0.00001190   -0.00000000
     atom    9 type  1   force =    -0.00001588    0.00003134    0.00000000
     atom   10 type  1   force =    -0.00000977   -0.00002878    0.00000000
     atom   11 type  1   force =    -0.00003507    0.00001529    0.00000000
     atom   12 type  1   force =     0.00001704   -0.00001741    0.00000000
     atom   13 type  1   force =    -0.00001696   -0.00001756    0.00000000
     atom   14 type  1   force =     0.00000146   -0.00002004    0.00000000
     atom   15 type  1   force =    -0.00001456    0.00002597   -0.00000000
     atom   16 type  1   force =    -0.00001154    0.00000087    0.00000000
     atom   17 type  1   force =    -0.00000408    0.00000179    0.00000000
     atom   18 type  1   force =    -0.00003337   -0.00000631   -0.00000000
     atom   19 type  1   force =    -0.00006844   -0.00001215   -0.00000000
     atom   20 type  1   force =    -0.00000107    0.00001074    0.00000000
     atom   21 type  1   force =    -0.00001131    0.00000001    0.00000000
     atom   22 type  1   force =    -0.00002000   -0.00000001   -0.00000000
     atom   23 type  1   force =     0.00000542    0.00002999   -0.00000000
     atom   24 type  1   force =    -0.00000136    0.00003147   -0.00000000
     atom   25 type  1   force =     0.00000077   -0.00000066    0.00000000
     atom   26 type  1   force =     0.00003110    0.00003009    0.00000000
     atom   27 type  1   force =     0.00000109    0.00007345    0.00000000
     atom   28 type  1   force =     0.00001162   -0.00000048   -0.00000000
     atom   29 type  1   force =     0.00002180    0.00003464   -0.00000000
     atom   30 type  1   force =     0.00000902   -0.00003312   -0.00000000
     atom   31 type  1   force =     0.00000205   -0.00000021   -0.00000000
     atom   32 type  1   force =    -0.00003690    0.00001563   -0.00000000
     atom   33 type  1   force =    -0.00002425    0.00002226   -0.00000000
     atom   34 type  1   force =    -0.00009021   -0.00000035   -0.00000000
     atom   35 type  1   force =    -0.00003791   -0.00002335   -0.00000000
     atom   36 type  1   force =    -0.00002019    0.00002696   -0.00000000
     atom   37 type  1   force =    -0.00001044   -0.00004377    0.00000000
     atom   38 type  1   force =     0.00002679   -0.00003722    0.00000000
     atom   39 type  1   force =     0.00000542   -0.00002997   -0.00000000
     atom   40 type  1   force =    -0.00000136   -0.00003147   -0.00000000
     atom   41 type  1   force =    -0.00001299   -0.00000001   -0.00000000
     atom   42 type  1   force =     0.00002836    0.00000003   -0.00000000
     atom   43 type  1   force =    -0.00000514    0.00000437   -0.00000000
     atom   44 type  1   force =     0.00002102    0.00000571    0.00000000
     atom   45 type  1   force =     0.00002079    0.00002608   -0.00000000
     atom   46 type  1   force =    -0.00000438   -0.00003112   -0.00000000
     atom   47 type  1   force =     0.00002820   -0.00000011   -0.00000000
     atom   48 type  1   force =     0.00001212    0.00000228    0.00000000
     atom   49 type  1   force =     0.00002490    0.00001108   -0.00000001
     atom   50 type  1   force =    -0.00003320    0.00000525    0.00000000
     atom   51 type  1   force =     0.00001606    0.00000382   -0.00000000
     atom   52 type  1   force =     0.00000193   -0.00001425   -0.00000000
     atom   53 type  1   force =    -0.00003819   -0.00001832   -0.00000000
     atom   54 type  1   force =     0.00004957   -0.00002137   -0.00000000
     atom   55 type  1   force =     0.00001784   -0.00004284    0.00000000
     atom   56 type  1   force =     0.00001882    0.00001189   -0.00000000
     atom   57 type  1   force =     0.00000079    0.00000067   -0.00000000
     atom   58 type  1   force =     0.00003108   -0.00003008   -0.00000000
     atom   59 type  1   force =    -0.00000514   -0.00000442   -0.00000000
     atom   60 type  1   force =     0.00002103   -0.00000562    0.00000000
     atom   61 type  1   force =     0.00001131   -0.00000005    0.00000000
     atom   62 type  1   force =    -0.00000131    0.00000002    0.00000000
     atom   63 type  1   force =     0.00005172   -0.00000484    0.00000000
     atom   64 type  1   force =    -0.00001469   -0.00010022   -0.00000000
     atom   65 type  1   force =     0.00003949    0.00002741   -0.00000000
     atom   66 type  1   force =    -0.00002207    0.00001362    0.00000000
     atom   67 type  1   force =     0.00001687    0.00001702    0.00000000
     atom   68 type  1   force =     0.00001971   -0.00001225    0.00000000
     atom   69 type  1   force =    -0.00002145   -0.00000011   -0.00000000
     atom   70 type  1   force =     0.00005349   -0.00005415   -0.00000000
     atom   71 type  1   force =    -0.00001500   -0.00003905   -0.00000000
     atom   72 type  1   force =     0.00003486   -0.00002499    0.00000000
     atom   73 type  1   force =    -0.00001587   -0.00003133    0.00000000
     atom   74 type  1   force =    -0.00000978    0.00002874   -0.00000000
     atom   75 type  1   force =     0.00000110   -0.00007342    0.00000000
     atom   76 type  1   force =     0.00001164    0.00000047    0.00000000
     atom   77 type  1   force =     0.00002077   -0.00002612   -0.00000000
     atom   78 type  1   force =    -0.00000434    0.00003114    0.00000000
     atom   79 type  1   force =     0.00005168    0.00000482    0.00000000
     atom   80 type  1   force =    -0.00001466    0.00010024   -0.00000001
     atom   81 type  1   force =    -0.00008620    0.00000017    0.00000002
     atom   82 type  1   force =     0.00000963   -0.00000651    0.00000001
     atom   83 type  1   force =    -0.00003290    0.00002073    0.00000000
     atom   84 type  1   force =    -0.00000352   -0.00002170   -0.00000000
     atom   85 type  1   force =     0.00001486   -0.00001556    0.00000000
     atom   86 type  1   force =     0.00002124   -0.00004561   -0.00000000
     atom   87 type  1   force =     0.00001737   -0.00002140    0.00000000
     atom   88 type  1   force =     0.00002438   -0.00002345    0.00000000
     atom   89 type  1   force =    -0.00003355    0.00005768    0.00000000
     atom   90 type  1   force =    -0.00003507   -0.00001524    0.00000000
     atom   91 type  1   force =     0.00001704    0.00001735    0.00000000
     atom   92 type  1   force =     0.00002178   -0.00003459   -0.00000000
     atom   93 type  1   force =     0.00000905    0.00003308   -0.00000000
     atom   94 type  1   force =     0.00002817    0.00000011    0.00000000
     atom   95 type  1   force =     0.00001213   -0.00000227   -0.00000000
     atom   96 type  1   force =     0.00003951   -0.00002742   -0.00000000
     atom   97 type  1   force =    -0.00002209   -0.00001360   -0.00000000
     atom   98 type  1   force =     0.00000969    0.00000628   -0.00000000
     atom   99 type  1   force =    -0.00003285   -0.00002061    0.00000000
     atom  100 type  1   force =    -0.00004903   -0.00000009    0.00000000
     atom  101 type  1   force =    -0.00001533    0.00000001   -0.00000000
     atom  102 type  1   force =    -0.00002893   -0.00003286   -0.00000000
     atom  103 type  1   force =     0.00001937   -0.00001286    0.00000000
     atom  104 type  1   force =     0.00004793    0.00001278    0.00000000
     atom  105 type  1   force =    -0.00000084   -0.00001282    0.00000000
     atom  106 type  1   force =     0.00000111    0.00005394    0.00000000
     atom  107 type  1   force =     0.00000222    0.00001333    0.00000000
     atom  108 type  1   force =    -0.00001695    0.00001762    0.00000000
     atom  109 type  1   force =     0.00000144    0.00002000    0.00000000
     atom  110 type  1   force =     0.00000204    0.00000026   -0.00000000
     atom  111 type  1   force =    -0.00003691   -0.00001563   -0.00000000
     atom  112 type  1   force =     0.00002490   -0.00001108   -0.00000000
     atom  113 type  1   force =    -0.00003321   -0.00000528   -0.00000000
     atom  114 type  1   force =     0.00001686   -0.00001698    0.00000000
     atom  115 type  1   force =     0.00001976    0.00001221   -0.00000000
     atom  116 type  1   force =    -0.00000361    0.00002170   -0.00000000
     atom  117 type  1   force =     0.00001496    0.00001555   -0.00000000
     atom  118 type  1   force =    -0.00002897    0.00003287    0.00000000
     atom  119 type  1   force =     0.00001939    0.00001282   -0.00000000
     atom  120 type  1   force =    -0.00001344    0.00000002   -0.00000000
     atom  121 type  1   force =    -0.00002382   -0.00000001   -0.00000000
     atom  122 type  1   force =     0.00000828    0.00004485   -0.00000000
     atom  123 type  1   force =     0.00000513   -0.00002990   -0.00000000
     atom  124 type  1   force =    -0.00004283    0.00004234    0.00000000
     atom  125 type  1   force =     0.00001080   -0.00000605   -0.00000000
     atom  126 type  1   force =    -0.00001454   -0.00002595   -0.00000000
     atom  127 type  1   force =    -0.00001155   -0.00000089    0.00000000
     atom  128 type  1   force =    -0.00002424   -0.00002225    0.00000000
     atom  129 type  1   force =    -0.00009023    0.00000034   -0.00000000
     atom  130 type  1   force =     0.00001606   -0.00000380   -0.00000000
     atom  131 type  1   force =     0.00000193    0.00001424    0.00000000
     atom  132 type  1   force =    -0.00002152    0.00000016   -0.00000000
     atom  133 type  1   force =     0.00005355    0.00005414    0.00000000
     atom  134 type  1   force =     0.00002120    0.00004563    0.00000000
     atom  135 type  1   force =     0.00001738    0.00002139    0.00000000
     atom  136 type  1   force =     0.00004792   -0.00001275    0.00000000
     atom  137 type  1   force =    -0.00000083    0.00001281    0.00000000
     atom  138 type  1   force =     0.00000828   -0.00004484    0.00000000
     atom  139 type  1   force =     0.00000512    0.00002990   -0.00000000
     atom  140 type  1   force =     0.00002219   -0.00000001   -0.00000000
     atom  141 type  1   force =     0.00000485    0.00000001   -0.00000000
     atom  142 type  1   force =     0.00003425    0.00000166   -0.00000000
     atom  143 type  1   force =     0.00002146   -0.00000247    0.00000000
     atom  144 type  1   force =    -0.00000406   -0.00000180    0.00000000
     atom  145 type  1   force =    -0.00003339    0.00000631   -0.00000000
     atom  146 type  1   force =    -0.00003788    0.00002335   -0.00000000
     atom  147 type  1   force =    -0.00002021   -0.00002696    0.00000000
     atom  148 type  1   force =    -0.00003818    0.00001832    0.00000000
     atom  149 type  1   force =     0.00004957    0.00002137   -0.00000000
     atom  150 type  1   force =    -0.00001500    0.00003905   -0.00000000
     atom  151 type  1   force =     0.00003485    0.00002500    0.00000000
     atom  152 type  1   force =     0.00002438    0.00002345   -0.00000000
     atom  153 type  1   force =    -0.00003354   -0.00005768    0.00000000
     atom  154 type  1   force =     0.00000111   -0.00005394    0.00000000
     atom  155 type  1   force =     0.00000221   -0.00001337    0.00000000
     atom  156 type  1   force =    -0.00004281   -0.00004233   -0.00000000
     atom  157 type  1   force =     0.00001081    0.00000602   -0.00000000
     atom  158 type  1   force =     0.00003424   -0.00000167   -0.00000000
     atom  159 type  1   force =     0.00002148    0.00000247    0.00000000
     atom  160 type  1   force =     0.00006380   -0.00000001    0.00000000
     atom  161 type  1   force =     0.00006450    0.00000000   -0.00000000

     Total force =     0.000497     Total SCF correction =     0.000001
     Energy error            =      4.2E-07 Ry
     Gradient error          =      1.0E-04 Ry/Bohr

     number of scf cycles    =  27
     number of bfgs steps    =  26

     energy             old  =   -1939.0646685678 Ry
     energy             new  =   -1939.0646689842 Ry

     CASE: energy            _new < energy            _old

     new trust radius        =       0.0006660068 bohr
     new conv_thr            =            1.0E-12 Ry


ATOMIC_POSITIONS (crystal)
C                0.0368150321        0.0368150321       -0.0000000023
C                0.0738169389        0.0738169388       -0.0000000029
C                0.0365540072        0.1480479738       -0.0000000035
C                0.0736213501        0.1849745299       -0.0000000032
C                0.0365088760        0.2591966230       -0.0000000016
C                0.0736022037        0.2961518712       -0.0000000005
C                0.0367235955        0.3702308096       -0.0000000002
C                0.0737874389        0.4072816294       -0.0000000008
C                0.0371321588        0.4813932651       -0.0000000015
C                0.0741627849        0.5183540646       -0.0000000021
C                0.0374536910        0.5924830364       -0.0000000012
C                0.0746936303        0.6293046542       -0.0000000003
C                0.0377459665        0.7033622991        0.0000000003
C                0.0750518599        0.7400883728        0.0000000007
C                0.0377677294        0.8142890854        0.0000000001
C                0.0749546156        0.8509733910        0.0000000004
C                0.0373927655        0.9254257613       -0.0000000008
C                0.0742316711        0.9624971143       -0.0000000005
C                0.1480479741        0.0365540068       -0.0000000021
C                0.1849745302        0.0736213498       -0.0000000033
C                0.1477993134        0.1477993131       -0.0000000034
C                0.1848450417        0.1848450415       -0.0000000015
C                0.1477871366        0.2589620072       -0.0000000001
C                0.1846989918        0.2959654525        0.0000000011
C                0.1477161831        0.3700980463       -0.0000000001
C                0.1846781718        0.4070935035       -0.0000000005
C                0.1482293821        0.4811276605       -0.0000000016
C                0.1855071329        0.5179631753       -0.0000000002
C                0.1489782659        0.5920150712        0.0000000004
C                0.1864680346        0.6285027274        0.0000000009
C                0.1494419644        0.7025311556        0.0000000014
C                0.1872153099        0.7387160367        0.0000000016
C                0.1495036038        0.8132431291        0.0000000018
C                0.1859989413        0.8507366859        0.0000000022
C                0.1485314296        0.9251201388        0.0000000014
C                0.1853057995        0.9622796722        0.0000000005
C                0.2591966231        0.0365088757       -0.0000000029
C                0.2961518713        0.0736022035       -0.0000000025
C                0.2589620074        0.1477871365       -0.0000000009
C                0.2959654525        0.1846989918        0.0000000016
C                0.2588584225        0.2588584223        0.0000000022
C                0.2957327380        0.2957327383        0.0000000028
C                0.2586376690        0.3698751648        0.0000000012
C                0.2953448389        0.4067338194        0.0000000008
C                0.2595462354        0.4805850572        0.0000000005
C                0.2971766330        0.5171764148       -0.0000000000
C                0.2611708181        0.5907487261       -0.0000000007
C                0.3003351545        0.6255052491       -0.0000000035
C                0.2621126490        0.7006940440       -0.0000000005
C                0.2975185374        0.7390886958       -0.0000000017
C                0.2601548138        0.8134324444        0.0000000012
C                0.2967287770        0.8510089880        0.0000000011
C                0.2595545579        0.9250458161        0.0000000006
C                0.2964104047        0.9624277752       -0.0000000015
C                0.3702308097        0.0367235956       -0.0000000026
C                0.4072816294        0.0737874389       -0.0000000010
C                0.3700980465        0.1477161832        0.0000000018
C                0.4070935034        0.1846781721        0.0000000027
C                0.3698751653        0.2586376689        0.0000000028
C                0.4067338191        0.2953448392        0.0000000008
C                0.3693478495        0.3693478494        0.0000000001
C                0.4055767265        0.4055767263       -0.0000000015
C                0.3718135847        0.4790648277       -0.0000000024
C                0.4122566796        0.5110251306       -0.0000000119
C                0.3766398334        0.5861562663       -0.0000000078
C                0.4089317169        0.6282263105       -0.0000000031
C                0.3717582016        0.7017920156       -0.0000000038
C                0.4082383653        0.7400678929       -0.0000000028
C                0.3709855355        0.8140251702       -0.0000000008
C                0.4077396570        0.8514406889       -0.0000000017
C                0.3704824103        0.9255975539       -0.0000000022
C                0.4074244104        0.9626977309       -0.0000000035
C                0.4813932650        0.0371321593       -0.0000000019
C                0.5183540647        0.0741627854       -0.0000000008
C                0.4811276607        0.1482293826        0.0000000009
C                0.5179631754        0.1855071334       -0.0000000003
C                0.4805850575        0.2595462359       -0.0000000006
C                0.5171764152        0.2971766333       -0.0000000015
C                0.4790648279        0.3718135850       -0.0000000024
C                0.5110251311        0.4122566797       -0.0000000102
C                0.5222078722        0.5222078728        0.0000000327
C                0.4828727971        0.5930258259        0.0000000057
C                0.5198341278        0.6305053926       -0.0000000011
C                0.4821097157        0.7042458874       -0.0000000035
C                0.5190650752        0.7412239977       -0.0000000027
C                0.4817913657        0.8150307775       -0.0000000024
C                0.5188259283        0.8521358110       -0.0000000030
C                0.4816166888        0.9260260209       -0.0000000038
C                0.5186087728        0.9630655469       -0.0000000035
C                0.5924830360        0.0374536918       -0.0000000014
C                0.6293046540        0.0746936311       -0.0000000016
C                0.5920150712        0.1489782666       -0.0000000014
C                0.6285027276        0.1864680352       -0.0000000017
C                0.5907487260        0.2611708187       -0.0000000023
C                0.6255052496        0.3003351546       -0.0000000023
C                0.5861562670        0.3766398335       -0.0000000042
C                0.6282263116        0.4089317161        0.0000000040
C                0.5930258283        0.4828727955        0.0000000129
C                0.6305053932        0.5198341279        0.0000000068
C                0.5934731609        0.5934731591        0.0000000036
C                0.6304880431        0.6304880430        0.0000000030
C                0.5932427109        0.7042978680       -0.0000000000
C                0.6301632293        0.7412497642        0.0000000006
C                0.5929005863        0.8153163980       -0.0000000017
C                0.6298834082        0.8522631884       -0.0000000009
C                0.5926873115        0.9262943876       -0.0000000022
C                0.6296839059        0.9634013104       -0.0000000014
C                0.7033622986        0.0377459675       -0.0000000017
C                0.7400883726        0.0750518608       -0.0000000018
C                0.7025311553        0.1494419653       -0.0000000014
C                0.7387160369        0.1872153103       -0.0000000007
C                0.7006940445        0.2621126494       -0.0000000005
C                0.7390886969        0.2975185368       -0.0000000001
C                0.7017920164        0.3717582017        0.0000000024
C                0.7400678945        0.4082383644        0.0000000048
C                0.7042458882        0.4821097150        0.0000000060
C                0.7412239987        0.5190650750        0.0000000055
C                0.7042978686        0.5932427100        0.0000000050
C                0.7412497643        0.6301632292        0.0000000052
C                0.7041810459        0.7041810462        0.0000000037
C                0.7412033525        0.7412033531        0.0000000039
C                0.7040619837        0.8152356434        0.0000000019
C                0.7410073133        0.8522413946        0.0000000018
C                0.7037923472        0.9264298190       -0.0000000002
C                0.7406791459        0.9634865275       -0.0000000006
C                0.8142890846        0.0377677303       -0.0000000022
C                0.8509733908        0.0749546161       -0.0000000026
C                0.8132431292        0.1495036043       -0.0000000017
C                0.8507366865        0.1859989410       -0.0000000017
C                0.8134324450        0.2601548137       -0.0000000007
C                0.8510089891        0.2967287765       -0.0000000002
C                0.8140251709        0.3709855350        0.0000000027
C                0.8514406898        0.4077396566        0.0000000031
C                0.8150307779        0.4817913653        0.0000000049
C                0.8521358111        0.5188259282        0.0000000041
C                0.8153163978        0.5929005864        0.0000000048
C                0.8522631877        0.6298834085        0.0000000035
C                0.8152356425        0.7040619844        0.0000000042
C                0.8522413935        0.7410073141        0.0000000034
C                0.8151263721        0.8151263731        0.0000000029
C                0.8521454584        0.8521454595        0.0000000018
C                0.8148813815        0.9263294176        0.0000000000
C                0.8517505704        0.9633943400       -0.0000000017
C                0.9254257610        0.0373927659       -0.0000000028
C                0.9624971143        0.0742316712       -0.0000000028
C                0.9251201390        0.1485314296       -0.0000000027
C                0.9622796728        0.1853057993       -0.0000000030
C                0.9250458167        0.2595545574       -0.0000000016
C                0.9624277757        0.2964104044       -0.0000000008
C                0.9255975544        0.3704824099        0.0000000013
C                0.9626977310        0.4074244103        0.0000000009
C                0.9260260209        0.4816166886        0.0000000016
C                0.9630655467        0.5186087727       -0.0000000000
C                0.9262943868        0.5926873121        0.0000000011
C                0.9634013097        0.6296839062        0.0000000003
C                0.9264298178        0.7037923480        0.0000000020
C                0.9634865264        0.7406791466        0.0000000012
C                0.9263294167        0.8148813824        0.0000000012
C                0.9633943389        0.8517505714       -0.0000000006
C                0.9260159203        0.9260159211       -0.0000000021
C                0.9629966346        0.9629966353       -0.0000000024



     Writing config-only to output data dir /home/gregb26/links/scratch/qe_tmp/vacancy_relaxed/nspin1/vac_9x9_relax_nspin1.save/ :
     XML data file
     NEW-OLD atomic charge density approx. for the potential

     negative rho (up, down):  4.739E-08 0.000E+00

     total cpu time spent up to now is     3669.1 secs

     per-process dynamical memory:   353.4 Mb

     Self-consistent Calculation

     iteration #  1     ecut=   100.00 Ry     beta= 0.30
     Davidson diagonalization with overlap
     ethr =  1.00E-06,  avg # of iterations =  2.0

     Threshold (ethr) on eigenvalues was too large:
     Diagonalizing with lowered threshold

     Davidson diagonalization with overlap
     ethr =  2.08E-09,  avg # of iterations =  3.0

     negative rho (up, down):  2.788E-08 0.000E+00

     total cpu time spent up to now is     3686.5 secs

     total energy              =   -1939.06466261 Ry
     estimated scf accuracy    <       0.00001468 Ry

     iteration #  2     ecut=   100.00 Ry     beta= 0.30
     Davidson diagonalization with overlap
     ethr =  2.28E-09,  avg # of iterations =  5.0

     negative rho (up, down):  2.720E-08 0.000E+00

     total cpu time spent up to now is     3695.4 secs

     total energy              =   -1939.06460431 Ry
     estimated scf accuracy    <       0.00463464 Ry

     iteration #  3     ecut=   100.00 Ry     beta= 0.30
     Davidson diagonalization with overlap
     ethr =  2.28E-09,  avg # of iterations =  5.0

     negative rho (up, down):  1.642E-08 0.000E+00

     total cpu time spent up to now is     3703.9 secs

     total energy              =   -1939.06466913 Ry
     estimated scf accuracy    <       0.00000011 Ry

     iteration #  4     ecut=   100.00 Ry     beta= 0.30
     Davidson diagonalization with overlap
     ethr =  1.74E-11,  avg # of iterations =  6.0

     total cpu time spent up to now is     3717.3 secs

     total energy              =   -1939.06466919 Ry
     estimated scf accuracy    <       0.00000018 Ry

     iteration #  5     ecut=   100.00 Ry     beta= 0.30
     Davidson diagonalization with overlap
     ethr =  1.74E-11,  avg # of iterations =  2.0

     total cpu time spent up to now is     3725.0 secs

     total energy              =   -1939.06466920 Ry
     estimated scf accuracy    <       0.00000001 Ry

     iteration #  6     ecut=   100.00 Ry     beta= 0.30
     Davidson diagonalization with overlap
     ethr =  2.01E-12,  avg # of iterations =  5.0

     total cpu time spent up to now is     3733.4 secs

     total energy              =   -1939.06466920 Ry
     estimated scf accuracy    <          4.0E-09 Ry

     iteration #  7     ecut=   100.00 Ry     beta= 0.30
     Davidson diagonalization with overlap
     ethr =  6.14E-13,  avg # of iterations =  4.0

     total cpu time spent up to now is     3741.9 secs

     total energy              =   -1939.06466920 Ry
     estimated scf accuracy    <          1.0E-09 Ry

     iteration #  8     ecut=   100.00 Ry     beta= 0.30
     Davidson diagonalization with overlap
     ethr =  1.56E-13,  avg # of iterations =  4.0

     total cpu time spent up to now is     3750.4 secs

     total energy              =   -1939.06466920 Ry
     estimated scf accuracy    <          2.9E-10 Ry

     iteration #  9     ecut=   100.00 Ry     beta= 0.30
     Davidson diagonalization with overlap
     ethr =  1.00E-13,  avg # of iterations =  2.0

     total cpu time spent up to now is     3758.5 secs

     total energy              =   -1939.06466920 Ry
     estimated scf accuracy    <          2.9E-11 Ry

     iteration # 10     ecut=   100.00 Ry     beta= 0.30
     Davidson diagonalization with overlap
     ethr =  1.00E-13,  avg # of iterations =  1.0

     total cpu time spent up to now is     3765.8 secs

     total energy              =   -1939.06466920 Ry
     estimated scf accuracy    <          6.2E-12 Ry

     iteration # 11     ecut=   100.00 Ry     beta= 0.30
     Davidson diagonalization with overlap
     ethr =  1.00E-13,  avg # of iterations =  1.0

     total cpu time spent up to now is     3773.6 secs

     total energy              =   -1939.06466920 Ry
     estimated scf accuracy    <          1.6E-12 Ry

     iteration # 12     ecut=   100.00 Ry     beta= 0.30
     Davidson diagonalization with overlap
     ethr =  1.00E-13,  avg # of iterations =  1.0

     total cpu time spent up to now is     3780.8 secs

     End of self-consistent calculation

          k = 0.0000 0.0000 0.0000 (385710 PWs)   bands (ev):

   -23.7923 -23.5479 -23.5232 -23.5126 -23.5024 -23.4802 -23.4075 -22.9581
   -22.9377 -22.9376 -22.9308 -22.9019 -22.8401 -22.6650 -22.6569 -22.6438
   -22.6325 -22.6128 -22.4696 -21.8124 -21.8042 -21.7981 -21.7974 -21.7949
   -21.7881 -21.7878 -21.7801 -21.7722 -21.7715 -21.7163 -21.5325 -21.2428
   -21.2254 -21.2192 -21.2051 -21.1821 -21.0067 -20.4008 -20.3977 -20.3870
   -20.3773 -20.3576 -20.3085 -20.1359 -20.1306 -20.1251 -20.1233 -20.1184
   -20.1134 -20.1078 -20.1003 -20.0861 -20.0852 -20.0303 -19.7066 -19.3387
   -19.3301 -19.3146 -19.2879 -19.2865 -19.0980 -18.5677 -18.5615 -18.5595
   -18.5566 -18.5470 -18.5461 -18.5282 -18.5267 -18.5132 -18.4913 -18.4869
   -18.4368 -18.3848 -18.3817 -18.3685 -18.3541 -18.3309 -17.7307 -17.3490
   -17.3488 -17.3459 -17.3020 -17.2647 -17.1817 -16.9029 -16.8598 -16.8553
   -16.7798 -16.6738 -16.6732 -16.6649 -16.6013 -16.5863 -16.4289 -16.0977
   -16.0974 -16.0910 -16.0901 -16.0846 -16.0828 -16.0782 -16.0721 -16.0515
   -15.9378 -15.9370 -15.5475 -15.2374 -15.2306 -15.2191 -15.2158 -15.2115
   -15.2106 -15.2074 -15.1921 -15.1884 -15.0813 -15.0677 -14.8085 -14.7748
   -14.4616 -13.9810 -13.9742 -13.9727 -13.9492 -13.9477 -13.9386 -13.9373
   -13.9311 -13.9131 -13.8471 -13.8129 -13.5590 -13.4651 -13.4518 -13.4468
   -13.4421 -13.4380 -13.4352 -13.4270 -13.4235 -13.4131 -13.2174 -13.1898
   -12.9160 -12.5153 -12.5040 -12.4650 -12.4644 -12.4552 -12.4544 -12.4542
   -12.4479 -12.4469 -12.4437 -12.4388 -12.4245 -12.4226 -12.4214 -12.4072
   -12.1655 -12.1523 -11.8767 -11.7134 -11.6246 -11.6230 -11.6132 -11.5669
   -11.5527 -11.5447 -11.5413 -11.5357 -11.5220 -11.5142 -11.4533 -11.4215
   -11.3541 -11.3333 -11.3284 -11.3201 -11.3145 -11.3124 -11.3069 -11.2787
   -11.2655 -11.1765 -11.1387 -11.1211 -11.0200 -11.0020 -10.9832 -10.9080
   -10.8686 -10.8614 -10.8577 -10.8565 -10.8523 -10.8274 -10.7549 -10.6683
   -10.6542 -10.6313 -10.6280 -10.5820 -10.5713 -10.5393 -10.5293 -10.5237
   -10.5152 -10.5034 -10.4896 -10.4585 -10.4490 -10.4479 -10.4364 -10.4330
   -10.4289 -10.4158 -10.4071 -10.3846 -10.3385 -10.2364 -10.2229 -10.2096
   -10.1108 -10.0922 -10.0699 -10.0484 -10.0370 -10.0181 -10.0061  -9.9954
    -9.9770  -9.5394  -9.5293  -9.5276  -9.5233  -9.5215  -9.5199  -9.5196
    -9.5152  -9.5042  -9.5034  -9.4649  -9.4639  -9.4491  -9.2660  -9.1246
    -9.0931  -9.0837  -9.0761  -9.0601  -9.0551  -9.0535  -9.0414  -9.0351
    -8.9927  -8.9085  -8.8928  -8.8884  -8.8703  -8.8680  -8.8104  -8.6953
    -8.6098  -8.6062  -8.4575  -8.4445  -8.4436  -8.1035  -8.0842  -7.9452
    -7.9447  -7.9440  -7.9367  -7.9358  -7.9231  -7.9146  -7.9117  -7.8913
    -7.8731  -7.8717  -7.7145  -7.7056  -7.7027  -7.6985  -7.6952  -7.6904
    -7.6891  -7.6872  -7.6656  -7.6655  -7.6549  -7.4012  -7.3995  -7.3586
    -7.0698  -7.0624  -7.0526  -7.0355  -7.0139  -6.8060  -6.3678  -6.3670
    -6.3588  -6.3421  -6.3383  -6.2557  -6.0919  -6.0858  -6.0785  -6.0750
    -6.0683  -6.0664  -6.0574  -6.0516  -6.0382  -6.0323  -6.0220  -5.0241
    -4.2765  -4.2442  -4.2285  -4.2205  -3.9665  -3.1158  -2.6735  -2.6628
    -2.6549  -2.6521  -2.6416  -2.6385  -2.5871  -2.5856  -2.5684  -2.5566
    -2.5544  -2.5518  -2.5461  -2.5339  -2.5238  -2.4381  -2.4372  -2.2121
    -2.0600  -2.0491  -2.0325  -1.9953  -1.9675  -1.5659  -0.9825  -0.9753

     the Fermi energy is    -4.2239 ev

!    total energy              =   -1939.06466920 Ry
     estimated scf accuracy    <          5.6E-13 Ry
     smearing contrib. (-TS)   =      -0.01242651 Ry
     internal energy E=F+TS    =   -1939.05224269 Ry

     The total energy is F=E-TS. E is the sum of the following terms:
     one-electron contribution =  -21951.43255368 Ry
     hartree contribution      =   11035.84264413 Ry
     xc contribution           =    -689.86869211 Ry
     ewald contribution        =    9666.40635897 Ry

     convergence has been achieved in  12 iterations

     Forces acting on atoms (cartesian axes, Ry/au):

     atom    1 type  1   force =    -0.00001850    0.00000000    0.00000000
     atom    2 type  1   force =    -0.00004972   -0.00000000    0.00000000
     atom    3 type  1   force =    -0.00002231   -0.00000704   -0.00000000
     atom    4 type  1   force =    -0.00001025   -0.00000388    0.00000000
     atom    5 type  1   force =     0.00002415    0.00001983   -0.00000000
     atom    6 type  1   force =     0.00001215    0.00003444   -0.00000000
     atom    7 type  1   force =     0.00000622    0.00001935    0.00000000
     atom    8 type  1   force =     0.00001083    0.00002941    0.00000000
     atom    9 type  1   force =    -0.00001767   -0.00002579    0.00000000
     atom   10 type  1   force =    -0.00002709    0.00001267    0.00000000
     atom   11 type  1   force =    -0.00002952   -0.00001762    0.00000000
     atom   12 type  1   force =    -0.00001389   -0.00000337    0.00000000
     atom   13 type  1   force =    -0.00001451   -0.00000217    0.00000000
     atom   14 type  1   force =     0.00001798    0.00000016    0.00000000
     atom   15 type  1   force =     0.00000936    0.00000871   -0.00000000
     atom   16 type  1   force =     0.00001158    0.00000660    0.00000000
     atom   17 type  1   force =     0.00001016   -0.00000594    0.00000000
     atom   18 type  1   force =    -0.00003907    0.00000264   -0.00000000
     atom   19 type  1   force =    -0.00002231    0.00000704    0.00000000
     atom   20 type  1   force =    -0.00001026    0.00000388    0.00000000
     atom   21 type  1   force =     0.00000063   -0.00000000    0.00000000
     atom   22 type  1   force =    -0.00002222    0.00000000   -0.00000000
     atom   23 type  1   force =    -0.00000818    0.00001441   -0.00000000
     atom   24 type  1   force =    -0.00000481    0.00001146   -0.00000000
     atom   25 type  1   force =     0.00001043    0.00001112   -0.00000000
     atom   26 type  1   force =     0.00000542    0.00003313    0.00000000
     atom   27 type  1   force =     0.00001324    0.00000336    0.00000000
     atom   28 type  1   force =     0.00003478    0.00001608   -0.00000000
     atom   29 type  1   force =     0.00000086   -0.00001597   -0.00000000
     atom   30 type  1   force =     0.00000240    0.00000032   -0.00000000
     atom   31 type  1   force =     0.00000202   -0.00000297   -0.00000000
     atom   32 type  1   force =    -0.00001111    0.00000950   -0.00000000
     atom   33 type  1   force =    -0.00005021    0.00000859   -0.00000000
     atom   34 type  1   force =    -0.00000945    0.00000140   -0.00000000
     atom   35 type  1   force =    -0.00003456   -0.00000277   -0.00000000
     atom   36 type  1   force =    -0.00002432   -0.00000483   -0.00000000
     atom   37 type  1   force =     0.00002415   -0.00001984    0.00000000
     atom   38 type  1   force =     0.00001216   -0.00003443    0.00000000
     atom   39 type  1   force =    -0.00000819   -0.00001441    0.00000000
     atom   40 type  1   force =    -0.00000481   -0.00001147   -0.00000000
     atom   41 type  1   force =     0.00000810    0.00000001   -0.00000000
     atom   42 type  1   force =     0.00001073   -0.00000002   -0.00000000
     atom   43 type  1   force =     0.00002775    0.00001110    0.00000000
     atom   44 type  1   force =     0.00001899    0.00000727   -0.00000000
     atom   45 type  1   force =     0.00001959   -0.00001709   -0.00000000
     atom   46 type  1   force =     0.00002087   -0.00000851    0.00000000
     atom   47 type  1   force =     0.00002127   -0.00001797   -0.00000000
     atom   48 type  1   force =     0.00001439    0.00000287    0.00000000
     atom   49 type  1   force =    -0.00000073    0.00000740   -0.00000000
     atom   50 type  1   force =    -0.00000543    0.00001993   -0.00000000
     atom   51 type  1   force =    -0.00003056    0.00001375   -0.00000000
     atom   52 type  1   force =    -0.00001025   -0.00001599   -0.00000000
     atom   53 type  1   force =    -0.00001946   -0.00001628   -0.00000000
     atom   54 type  1   force =     0.00001353   -0.00001953   -0.00000000
     atom   55 type  1   force =     0.00000621   -0.00001935    0.00000000
     atom   56 type  1   force =     0.00001084   -0.00002940    0.00000000
     atom   57 type  1   force =     0.00001041   -0.00001112   -0.00000000
     atom   58 type  1   force =     0.00000543   -0.00003315   -0.00000000
     atom   59 type  1   force =     0.00002773   -0.00001107   -0.00000000
     atom   60 type  1   force =     0.00001901   -0.00000729    0.00000000
     atom   61 type  1   force =     0.00000256    0.00000001   -0.00000000
     atom   62 type  1   force =     0.00004218   -0.00000000   -0.00000000
     atom   63 type  1   force =    -0.00002541   -0.00000360   -0.00000000
     atom   64 type  1   force =    -0.00000840   -0.00007331   -0.00000000
     atom   65 type  1   force =     0.00001444    0.00003226   -0.00000000
     atom   66 type  1   force =     0.00002469    0.00001468    0.00000000
     atom   67 type  1   force =     0.00000254    0.00000890    0.00000000
     atom   68 type  1   force =     0.00001109    0.00000174    0.00000000
     atom   69 type  1   force =     0.00000514   -0.00001976   -0.00000000
     atom   70 type  1   force =     0.00002137   -0.00002722   -0.00000000
     atom   71 type  1   force =     0.00002743   -0.00002817   -0.00000000
     atom   72 type  1   force =     0.00001756   -0.00003089    0.00000000
     atom   73 type  1   force =    -0.00001767    0.00002578    0.00000000
     atom   74 type  1   force =    -0.00002710   -0.00001265    0.00000000
     atom   75 type  1   force =     0.00001323   -0.00000336   -0.00000000
     atom   76 type  1   force =     0.00003479   -0.00001608    0.00000000
     atom   77 type  1   force =     0.00001958    0.00001710   -0.00000000
     atom   78 type  1   force =     0.00002086    0.00000852    0.00000000
     atom   79 type  1   force =    -0.00002541    0.00000360    0.00000000
     atom   80 type  1   force =    -0.00000841    0.00007331   -0.00000001
     atom   81 type  1   force =    -0.00003880   -0.00000008    0.00000002
     atom   82 type  1   force =     0.00000964    0.00000674    0.00000001
     atom   83 type  1   force =    -0.00002668    0.00000668    0.00000000
     atom   84 type  1   force =    -0.00000753   -0.00001248   -0.00000000
     atom   85 type  1   force =    -0.00000474   -0.00001170    0.00000000
     atom   86 type  1   force =     0.00000067   -0.00003442   -0.00000000
     atom   87 type  1   force =     0.00001870   -0.00000065    0.00000000
     atom   88 type  1   force =    -0.00001023   -0.00000148    0.00000000
     atom   89 type  1   force =     0.00000399    0.00001142    0.00000000
     atom   90 type  1   force =    -0.00002951    0.00001760   -0.00000000
     atom   91 type  1   force =    -0.00001389    0.00000338    0.00000000
     atom   92 type  1   force =     0.00000086    0.00001597    0.00000000
     atom   93 type  1   force =     0.00000240   -0.00000031   -0.00000000
     atom   94 type  1   force =     0.00002127    0.00001795   -0.00000000
     atom   95 type  1   force =     0.00001439   -0.00000286   -0.00000000
     atom   96 type  1   force =     0.00001443   -0.00003226   -0.00000000
     atom   97 type  1   force =     0.00002471   -0.00001467   -0.00000000
     atom   98 type  1   force =     0.00000961   -0.00000664    0.00000001
     atom   99 type  1   force =    -0.00002671   -0.00000674    0.00000000
     atom  100 type  1   force =    -0.00003865    0.00000005    0.00000000
     atom  101 type  1   force =    -0.00002782   -0.00000002   -0.00000000
     atom  102 type  1   force =    -0.00002053   -0.00000951   -0.00000000
     atom  103 type  1   force =    -0.00000679    0.00000790    0.00000000
     atom  104 type  1   force =     0.00001902    0.00002239    0.00000000
     atom  105 type  1   force =     0.00003033    0.00003173   -0.00000000
     atom  106 type  1   force =    -0.00002909    0.00003917    0.00000000
     atom  107 type  1   force =    -0.00001234    0.00001761    0.00000000
     atom  108 type  1   force =    -0.00001451    0.00000216    0.00000000
     atom  109 type  1   force =     0.00001797   -0.00000015    0.00000000
     atom  110 type  1   force =     0.00000202    0.00000295   -0.00000000
     atom  111 type  1   force =    -0.00001111   -0.00000949   -0.00000000
     atom  112 type  1   force =    -0.00000074   -0.00000741   -0.00000000
     atom  113 type  1   force =    -0.00000542   -0.00001989   -0.00000000
     atom  114 type  1   force =     0.00000252   -0.00000893   -0.00000000
     atom  115 type  1   force =     0.00001108   -0.00000170    0.00000000
     atom  116 type  1   force =    -0.00000750    0.00001248   -0.00000000
     atom  117 type  1   force =    -0.00000478    0.00001170   -0.00000000
     atom  118 type  1   force =    -0.00002051    0.00000954   -0.00000000
     atom  119 type  1   force =    -0.00000679   -0.00000788   -0.00000000
     atom  120 type  1   force =     0.00000075   -0.00000001   -0.00000000
     atom  121 type  1   force =    -0.00000180    0.00000000   -0.00000000
     atom  122 type  1   force =     0.00001474    0.00000852    0.00000000
     atom  123 type  1   force =     0.00000687    0.00000457    0.00000000
     atom  124 type  1   force =    -0.00002574   -0.00001007    0.00000000
     atom  125 type  1   force =     0.00000062    0.00000938    0.00000000
     atom  126 type  1   force =     0.00000937   -0.00000871   -0.00000000
     atom  127 type  1   force =     0.00001158   -0.00000659    0.00000000
     atom  128 type  1   force =    -0.00005022   -0.00000860   -0.00000000
     atom  129 type  1   force =    -0.00000945   -0.00000138    0.00000000
     atom  130 type  1   force =    -0.00003055   -0.00001377   -0.00000000
     atom  131 type  1   force =    -0.00001027    0.00001600    0.00000000
     atom  132 type  1   force =     0.00000516    0.00001974    0.00000000
     atom  133 type  1   force =     0.00002135    0.00002723    0.00000000
     atom  134 type  1   force =     0.00000068    0.00003441   -0.00000000
     atom  135 type  1   force =     0.00001870    0.00000065   -0.00000000
     atom  136 type  1   force =     0.00001902   -0.00002240   -0.00000000
     atom  137 type  1   force =     0.00003034   -0.00003173    0.00000000
     atom  138 type  1   force =     0.00001474   -0.00000854   -0.00000000
     atom  139 type  1   force =     0.00000687   -0.00000457    0.00000000
     atom  140 type  1   force =     0.00000469   -0.00000000   -0.00000000
     atom  141 type  1   force =     0.00001123   -0.00000001   -0.00000000
     atom  142 type  1   force =     0.00001861   -0.00002592   -0.00000000
     atom  143 type  1   force =     0.00001475   -0.00001989   -0.00000000
     atom  144 type  1   force =     0.00001016    0.00000594    0.00000000
     atom  145 type  1   force =    -0.00003907   -0.00000264   -0.00000000
     atom  146 type  1   force =    -0.00003456    0.00000276   -0.00000000
     atom  147 type  1   force =    -0.00002433    0.00000483   -0.00000000
     atom  148 type  1   force =    -0.00001945    0.00001627    0.00000000
     atom  149 type  1   force =     0.00001352    0.00001954    0.00000000
     atom  150 type  1   force =     0.00002744    0.00002817   -0.00000000
     atom  151 type  1   force =     0.00001755    0.00003089   -0.00000000
     atom  152 type  1   force =    -0.00001023    0.00000148    0.00000000
     atom  153 type  1   force =     0.00000399   -0.00001140    0.00000000
     atom  154 type  1   force =    -0.00002910   -0.00003919    0.00000000
     atom  155 type  1   force =    -0.00001233   -0.00001760    0.00000000
     atom  156 type  1   force =    -0.00002574    0.00001006   -0.00000000
     atom  157 type  1   force =     0.00000063   -0.00000938   -0.00000000
     atom  158 type  1   force =     0.00001860    0.00002593   -0.00000000
     atom  159 type  1   force =     0.00001476    0.00001987    0.00000000
     atom  160 type  1   force =     0.00006239    0.00000001    0.00000000
     atom  161 type  1   force =     0.00003570   -0.00000001    0.00000000

     Total force =     0.000339     Total SCF correction =     0.000001
     Energy error            =      2.1E-07 Ry
     Gradient error          =      7.3E-05 Ry/Bohr

     bfgs converged in  28 scf cycles and  27 bfgs steps
     (criteria: energy <  1.0E-05 Ry, force <  1.0E-04 Ry/Bohr)

     End of BFGS Geometry Optimization

     Final energy             =   -1939.0646691987 Ry

     File /home/gregb26/links/scratch/qe_tmp/vacancy_relaxed/nspin1/vac_9x9_relax_nspin1.bfgs deleted, as requested
Begin final coordinates

ATOMIC_POSITIONS (crystal)
C                0.0368150321        0.0368150321       -0.0000000023
C                0.0738169389        0.0738169388       -0.0000000029
C                0.0365540072        0.1480479738       -0.0000000035
C                0.0736213501        0.1849745299       -0.0000000032
C                0.0365088760        0.2591966230       -0.0000000016
C                0.0736022037        0.2961518712       -0.0000000005
C                0.0367235955        0.3702308096       -0.0000000002
C                0.0737874389        0.4072816294       -0.0000000008
C                0.0371321588        0.4813932651       -0.0000000015
C                0.0741627849        0.5183540646       -0.0000000021
C                0.0374536910        0.5924830364       -0.0000000012
C                0.0746936303        0.6293046542       -0.0000000003
C                0.0377459665        0.7033622991        0.0000000003
C                0.0750518599        0.7400883728        0.0000000007
C                0.0377677294        0.8142890854        0.0000000001
C                0.0749546156        0.8509733910        0.0000000004
C                0.0373927655        0.9254257613       -0.0000000008
C                0.0742316711        0.9624971143       -0.0000000005
C                0.1480479741        0.0365540068       -0.0000000021
C                0.1849745302        0.0736213498       -0.0000000033
C                0.1477993134        0.1477993131       -0.0000000034
C                0.1848450417        0.1848450415       -0.0000000015
C                0.1477871366        0.2589620072       -0.0000000001
C                0.1846989918        0.2959654525        0.0000000011
C                0.1477161831        0.3700980463       -0.0000000001
C                0.1846781718        0.4070935035       -0.0000000005
C                0.1482293821        0.4811276605       -0.0000000016
C                0.1855071329        0.5179631753       -0.0000000002
C                0.1489782659        0.5920150712        0.0000000004
C                0.1864680346        0.6285027274        0.0000000009
C                0.1494419644        0.7025311556        0.0000000014
C                0.1872153099        0.7387160367        0.0000000016
C                0.1495036038        0.8132431291        0.0000000018
C                0.1859989413        0.8507366859        0.0000000022
C                0.1485314296        0.9251201388        0.0000000014
C                0.1853057995        0.9622796722        0.0000000005
C                0.2591966231        0.0365088757       -0.0000000029
C                0.2961518713        0.0736022035       -0.0000000025
C                0.2589620074        0.1477871365       -0.0000000009
C                0.2959654525        0.1846989918        0.0000000016
C                0.2588584225        0.2588584223        0.0000000022
C                0.2957327380        0.2957327383        0.0000000028
C                0.2586376690        0.3698751648        0.0000000012
C                0.2953448389        0.4067338194        0.0000000008
C                0.2595462354        0.4805850572        0.0000000005
C                0.2971766330        0.5171764148       -0.0000000000
C                0.2611708181        0.5907487261       -0.0000000007
C                0.3003351545        0.6255052491       -0.0000000035
C                0.2621126490        0.7006940440       -0.0000000005
C                0.2975185374        0.7390886958       -0.0000000017
C                0.2601548138        0.8134324444        0.0000000012
C                0.2967287770        0.8510089880        0.0000000011
C                0.2595545579        0.9250458161        0.0000000006
C                0.2964104047        0.9624277752       -0.0000000015
C                0.3702308097        0.0367235956       -0.0000000026
C                0.4072816294        0.0737874389       -0.0000000010
C                0.3700980465        0.1477161832        0.0000000018
C                0.4070935034        0.1846781721        0.0000000027
C                0.3698751653        0.2586376689        0.0000000028
C                0.4067338191        0.2953448392        0.0000000008
C                0.3693478495        0.3693478494        0.0000000001
C                0.4055767265        0.4055767263       -0.0000000015
C                0.3718135847        0.4790648277       -0.0000000024
C                0.4122566796        0.5110251306       -0.0000000119
C                0.3766398334        0.5861562663       -0.0000000078
C                0.4089317169        0.6282263105       -0.0000000031
C                0.3717582016        0.7017920156       -0.0000000038
C                0.4082383653        0.7400678929       -0.0000000028
C                0.3709855355        0.8140251702       -0.0000000008
C                0.4077396570        0.8514406889       -0.0000000017
C                0.3704824103        0.9255975539       -0.0000000022
C                0.4074244104        0.9626977309       -0.0000000035
C                0.4813932650        0.0371321593       -0.0000000019
C                0.5183540647        0.0741627854       -0.0000000008
C                0.4811276607        0.1482293826        0.0000000009
C                0.5179631754        0.1855071334       -0.0000000003
C                0.4805850575        0.2595462359       -0.0000000006
C                0.5171764152        0.2971766333       -0.0000000015
C                0.4790648279        0.3718135850       -0.0000000024
C                0.5110251311        0.4122566797       -0.0000000102
C                0.5222078722        0.5222078728        0.0000000327
C                0.4828727971        0.5930258259        0.0000000057
C                0.5198341278        0.6305053926       -0.0000000011
C                0.4821097157        0.7042458874       -0.0000000035
C                0.5190650752        0.7412239977       -0.0000000027
C                0.4817913657        0.8150307775       -0.0000000024
C                0.5188259283        0.8521358110       -0.0000000030
C                0.4816166888        0.9260260209       -0.0000000038
C                0.5186087728        0.9630655469       -0.0000000035
C                0.5924830360        0.0374536918       -0.0000000014
C                0.6293046540        0.0746936311       -0.0000000016
C                0.5920150712        0.1489782666       -0.0000000014
C                0.6285027276        0.1864680352       -0.0000000017
C                0.5907487260        0.2611708187       -0.0000000023
C                0.6255052496        0.3003351546       -0.0000000023
C                0.5861562670        0.3766398335       -0.0000000042
C                0.6282263116        0.4089317161        0.0000000040
C                0.5930258283        0.4828727955        0.0000000129
C                0.6305053932        0.5198341279        0.0000000068
C                0.5934731609        0.5934731591        0.0000000036
C                0.6304880431        0.6304880430        0.0000000030
C                0.5932427109        0.7042978680       -0.0000000000
C                0.6301632293        0.7412497642        0.0000000006
C                0.5929005863        0.8153163980       -0.0000000017
C                0.6298834082        0.8522631884       -0.0000000009
C                0.5926873115        0.9262943876       -0.0000000022
C                0.6296839059        0.9634013104       -0.0000000014
C                0.7033622986        0.0377459675       -0.0000000017
C                0.7400883726        0.0750518608       -0.0000000018
C                0.7025311553        0.1494419653       -0.0000000014
C                0.7387160369        0.1872153103       -0.0000000007
C                0.7006940445        0.2621126494       -0.0000000005
C                0.7390886969        0.2975185368       -0.0000000001
C                0.7017920164        0.3717582017        0.0000000024
C                0.7400678945        0.4082383644        0.0000000048
C                0.7042458882        0.4821097150        0.0000000060
C                0.7412239987        0.5190650750        0.0000000055
C                0.7042978686        0.5932427100        0.0000000050
C                0.7412497643        0.6301632292        0.0000000052
C                0.7041810459        0.7041810462        0.0000000037
C                0.7412033525        0.7412033531        0.0000000039
C                0.7040619837        0.8152356434        0.0000000019
C                0.7410073133        0.8522413946        0.0000000018
C                0.7037923472        0.9264298190       -0.0000000002
C                0.7406791459        0.9634865275       -0.0000000006
C                0.8142890846        0.0377677303       -0.0000000022
C                0.8509733908        0.0749546161       -0.0000000026
C                0.8132431292        0.1495036043       -0.0000000017
C                0.8507366865        0.1859989410       -0.0000000017
C                0.8134324450        0.2601548137       -0.0000000007
C                0.8510089891        0.2967287765       -0.0000000002
C                0.8140251709        0.3709855350        0.0000000027
C                0.8514406898        0.4077396566        0.0000000031
C                0.8150307779        0.4817913653        0.0000000049
C                0.8521358111        0.5188259282        0.0000000041
C                0.8153163978        0.5929005864        0.0000000048
C                0.8522631877        0.6298834085        0.0000000035
C                0.8152356425        0.7040619844        0.0000000042
C                0.8522413935        0.7410073141        0.0000000034
C                0.8151263721        0.8151263731        0.0000000029
C                0.8521454584        0.8521454595        0.0000000018
C                0.8148813815        0.9263294176        0.0000000000
C                0.8517505704        0.9633943400       -0.0000000017
C                0.9254257610        0.0373927659       -0.0000000028
C                0.9624971143        0.0742316712       -0.0000000028
C                0.9251201390        0.1485314296       -0.0000000027
C                0.9622796728        0.1853057993       -0.0000000030
C                0.9250458167        0.2595545574       -0.0000000016
C                0.9624277757        0.2964104044       -0.0000000008
C                0.9255975544        0.3704824099        0.0000000013
C                0.9626977310        0.4074244103        0.0000000009
C                0.9260260209        0.4816166886        0.0000000016
C                0.9630655467        0.5186087727       -0.0000000000
C                0.9262943868        0.5926873121        0.0000000011
C                0.9634013097        0.6296839062        0.0000000003
C                0.9264298178        0.7037923480        0.0000000020
C                0.9634865264        0.7406791466        0.0000000012
C                0.9263294167        0.8148813824        0.0000000012
C                0.9633943389        0.8517505714       -0.0000000006
C                0.9260159203        0.9260159211       -0.0000000021
C                0.9629966346        0.9629966353       -0.0000000024
End final coordinates



     Writing all to output data dir /home/gregb26/links/scratch/qe_tmp/vacancy_relaxed/nspin1/vac_9x9_relax_nspin1.save/ :
     XML data file, charge density, pseudopotentials, collected wavefunctions

     init_run     :      6.56s CPU      6.67s WALL (       1 calls)
     electrons    :   3601.61s CPU   3688.44s WALL (      28 calls)
     update_pot   :      4.40s CPU      4.55s WALL (      27 calls)
     forces       :     76.91s CPU     77.97s WALL (      28 calls)

     Called by init_run:
     wfcinit      :      4.49s CPU      4.57s WALL (       1 calls)
     potinit      :      0.25s CPU      0.25s WALL (       1 calls)
     hinit0       :      0.74s CPU      0.75s WALL (       1 calls)

     Called by electrons:
     c_bands      :   3192.71s CPU   3262.11s WALL (     453 calls)
     sum_band     :    344.22s CPU    354.85s WALL (     453 calls)
     v_of_rho     :     49.90s CPU     51.31s WALL (     468 calls)
     mix_rho      :     10.66s CPU     10.92s WALL (     453 calls)

     Called by c_bands:
     init_us_2    :     13.74s CPU     14.09s WALL (     935 calls)
     regterg      :   3121.36s CPU   3189.66s WALL (     453 calls)

     Called by *egterg:
     rdiaghg      :     51.24s CPU     52.12s WALL (    1914 calls)
     h_psi        :   2191.24s CPU   2247.28s WALL (    1955 calls)
     g_psi        :      2.11s CPU      2.13s WALL (    1501 calls)

     Called by h_psi:
     h_psi:calbec :    427.61s CPU    431.15s WALL (    1955 calls)
     vloc_psi     :   1528.35s CPU   1579.31s WALL (    1955 calls)
                                        0.00s GPU  (    1955 calls)
     add_vuspsi   :    232.86s CPU    234.38s WALL (    1955 calls)

     General routines
     calbec       :    461.98s CPU    465.84s WALL (    2067 calls)
     fft          :     33.75s CPU     35.32s WALL (    4008 calls)
     ffts         :      2.97s CPU      3.13s WALL (     453 calls)
     fftw         :   1800.55s CPU   1861.01s WALL (  445998 calls)

     Parallel routines

     PWSCF        :   3697.08s CPU   3788.51s WALL


   This run was terminated on:  10:19: 8  22Sep2026            

=------------------------------------------------------------------------------=
   JOB DONE.
=------------------------------------------------------------------------------=
