
     Program PWSCF v.7.5 starts on 23Sep2026 at  9:27: 0 

     This program is part of the open-source Quantum ESPRESSO suite
     for quantum simulation of materials; please cite
         "P. Giannozzi et al., J. Phys.:Condens. Matter 21 395502 (2009);
         "P. Giannozzi et al., J. Phys.:Condens. Matter 29 465901 (2017);
         "P. Giannozzi et al., J. Chem. Phys. 152 154105 (2020);
          URL http://www.quantum-espresso.org", 
     in publications or presentations arising from this work. More details at
     http://www.quantum-espresso.org/quote

     Parallel version (MPI & OpenMP), running on      64 processor cores
     Number of MPI processes:                64
     Threads/MPI process:                     1

     MPI processes distributed on    19 nodes
     614003 MiB available memory on the printing compute node when the environment starts

     Waiting for input...
     Reading input from standard input

     Current dimensions of program PWSCF are:
     Max number of different atomic species (ntypx) = 10
     Max number of k-points (npk) =  40000
     Max angular momentum in pseudopotentials (lmaxx) =  4

     gamma-point specific algorithms are used

     R & G space division:  proc/nbgrp/npool/nimage =      64
     Subspace diagonalization in iterative solution of the eigenvalue problem:
     one sub-group per band group will be used
     ELPA distributed-memory algorithm (size of sub-group:  2*  2 procs)


     Parallelization info
     --------------------
     sticks:   dense  smooth     PW     G-vecs:    dense   smooth      PW
     Min         336     336     83                42864    42864    5352
     Max         338     338     86                42878    42878    5366
     Sum       21511   21511   5389              2743625  2743625  343019

     Using Slab Decomposition



     bravais-lattice index     =            0
     lattice parameter (alat)  =      27.9587  a.u.
     unit-cell volume          =   20308.8852 (a.u.)^3
     number of atoms/cell      =           71
     number of atomic types    =            2
     number of electrons       =       284.00
     number of Kohn-Sham states=          172
     kinetic-energy cutoff     =     100.0000  Ry
     charge density cutoff     =     400.0000  Ry
     scf convergence threshold =      1.0E-10
     mixing beta               =       0.3000
     number of iterations used =            8  plain     mixing
     energy convergence thresh.=      1.0E-05
     force convergence thresh. =      1.0E-04
     Exchange-correlation= PBE
                           (   1   4   3   4   0   0   0)
     nstep                     =          200


     celldm(1)=  27.958708  celldm(2)=   0.000000  celldm(3)=   0.000000
     celldm(4)=   0.000000  celldm(5)=   0.000000  celldm(6)=   0.000000

     crystal axes: (cart. coord. in units of alat)
               a(1) = (   0.866025  -0.500000   0.000000 )  
               a(2) = (   0.866025   0.500000   0.000000 )  
               a(3) = (   0.000000   0.000000   1.073011 )  

     reciprocal axes: (cart. coord. in units 2 pi/alat)
               b(1) = (  0.577350 -1.000000  0.000000 )  
               b(2) = (  0.577350  1.000000 -0.000000 )  
               b(3) = ( -0.000000  0.000000  0.931957 )  


     PseudoPot. # 1 for C  read from file:
     /home/gregb26/links/projects/rrg-cotemich-ac/gregb26/abinit_processing/pseudo/C.upf
     MD5 check sum: 34a24e64c0a39f27c6c36b90a16ac686
     Pseudo is Norm-conserving + core correction, Zval =  4.0
     Generated using ONCVPSP code by D. R. Hamann
     Using radial grid of 1248 points,  4 beta functions with: 
                l(1) =   0
                l(2) =   0
                l(3) =   1
                l(4) =   1

     PseudoPot. # 2 for C  read from file:
     /home/gregb26/links/projects/rrg-cotemich-ac/gregb26/abinit_processing/pseudo/C.upf
     MD5 check sum: 34a24e64c0a39f27c6c36b90a16ac686
     Pseudo is Norm-conserving + core correction, Zval =  4.0
     Generated using ONCVPSP code by D. R. Hamann
     Using radial grid of 1248 points,  4 beta functions with: 
                l(1) =   0
                l(2) =   0
                l(3) =   1
                l(4) =   1

     atomic species   valence    mass     pseudopotential
     C                 4.00    12.01100     C ( 1.00)
     C1                4.00    12.01100     C ( 1.00)

     Starting magnetic structure 
     atomic species   magnetization
     C               0.000
     C1              0.500

     No symmetry found



   Cartesian axes

     site n.     atom                  positions (alat units)
         1        C      tau(   1) = (   0.0962250  -0.0000000   0.0000000  )
         2        C      tau(   2) = (   0.1924501  -0.0000000   0.0000000  )
         3        C      tau(   3) = (   0.2405626   0.0833333   0.0000000  )
         4        C      tau(   4) = (   0.3367877   0.0833333   0.0000000  )
         5        C      tau(   5) = (   0.3849002   0.1666667   0.0000000  )
         6        C      tau(   6) = (   0.4811252   0.1666667   0.0000000  )
         7        C      tau(   7) = (   0.5292377   0.2500000   0.0000000  )
         8        C      tau(   8) = (   0.6254628   0.2500000   0.0000000  )
         9        C      tau(   9) = (   0.6735753   0.3333333   0.0000000  )
        10        C      tau(  10) = (   0.7698004   0.3333333   0.0000000  )
        11        C      tau(  11) = (   0.8179129   0.4166667   0.0000000  )
        12        C      tau(  12) = (   0.9141379   0.4166667   0.0000000  )
        13        C      tau(  13) = (   0.2405626  -0.0833333   0.0000000  )
        14        C      tau(  14) = (   0.3367877  -0.0833333   0.0000000  )
        15        C      tau(  15) = (   0.3849002  -0.0000000   0.0000000  )
        16        C      tau(  16) = (   0.4811252   0.0000000   0.0000000  )
        17        C      tau(  17) = (   0.5292377   0.0833333   0.0000000  )
        18        C      tau(  18) = (   0.6254628   0.0833333   0.0000000  )
        19        C      tau(  19) = (   0.6735753   0.1666667   0.0000000  )
        20        C      tau(  20) = (   0.7698004   0.1666667   0.0000000  )
        21        C      tau(  21) = (   0.8179129   0.2500000   0.0000000  )
        22        C      tau(  22) = (   0.9141379   0.2500000   0.0000000  )
        23        C      tau(  23) = (   0.9622504   0.3333333   0.0000000  )
        24        C      tau(  24) = (   1.0584755   0.3333333   0.0000000  )
        25        C      tau(  25) = (   0.3849002  -0.1666667   0.0000000  )
        26        C      tau(  26) = (   0.4811252  -0.1666667   0.0000000  )
        27        C      tau(  27) = (   0.5292377  -0.0833333   0.0000000  )
        28        C      tau(  28) = (   0.6254628  -0.0833333   0.0000000  )
        29        C1     tau(  29) = (   0.6753314   0.0010138   0.0000000  )
        30        C1     tau(  30) = (   0.8161568   0.0823195   0.0000000  )
        31        C      tau(  31) = (   0.9141379   0.0833333   0.0000000  )
        32        C      tau(  32) = (   0.9622504   0.1666667   0.0000000  )
        33        C      tau(  33) = (   1.0584755   0.1666667   0.0000000  )
        34        C      tau(  34) = (   1.1065880   0.2500000   0.0000000  )
        35        C      tau(  35) = (   1.2028131   0.2500000   0.0000000  )
        36        C      tau(  36) = (   0.5292377  -0.2500000   0.0000000  )
        37        C      tau(  37) = (   0.6254628  -0.2500000   0.0000000  )
        38        C      tau(  38) = (   0.6735753  -0.1666667   0.0000000  )
        39        C      tau(  39) = (   0.7698004  -0.1666667   0.0000000  )
        40        C1     tau(  40) = (   0.8179129  -0.0833333   0.0000000  )
        41        C      tau(  41) = (   0.9141379  -0.0833333   0.0000000  )
        42        C      tau(  42) = (   0.9622504   0.0000000   0.0000000  )
        43        C      tau(  43) = (   1.0584755  -0.0000000   0.0000000  )
        44        C      tau(  44) = (   1.1065880   0.0833333   0.0000000  )
        45        C      tau(  45) = (   1.2028131   0.0833333   0.0000000  )
        46        C      tau(  46) = (   1.2509256   0.1666667   0.0000000  )
        47        C      tau(  47) = (   1.3471506   0.1666667   0.0000000  )
        48        C      tau(  48) = (   0.6735753  -0.3333333   0.0000000  )
        49        C      tau(  49) = (   0.7698004  -0.3333333   0.0000000  )
        50        C      tau(  50) = (   0.8179129  -0.2500000   0.0000000  )
        51        C      tau(  51) = (   0.9141379  -0.2500000   0.0000000  )
        52        C      tau(  52) = (   0.9622504  -0.1666667   0.0000000  )
        53        C      tau(  53) = (   1.0584755  -0.1666667   0.0000000  )
        54        C      tau(  54) = (   1.1065880  -0.0833333   0.0000000  )
        55        C      tau(  55) = (   1.2028131  -0.0833333   0.0000000  )
        56        C      tau(  56) = (   1.2509256  -0.0000000   0.0000000  )
        57        C      tau(  57) = (   1.3471506   0.0000000   0.0000000  )
        58        C      tau(  58) = (   1.3952632   0.0833333   0.0000000  )
        59        C      tau(  59) = (   1.4914882   0.0833333   0.0000000  )
        60        C      tau(  60) = (   0.8179129  -0.4166667   0.0000000  )
        61        C      tau(  61) = (   0.9141379  -0.4166667   0.0000000  )
        62        C      tau(  62) = (   0.9622504  -0.3333333   0.0000000  )
        63        C      tau(  63) = (   1.0584755  -0.3333333   0.0000000  )
        64        C      tau(  64) = (   1.1065880  -0.2500000   0.0000000  )
        65        C      tau(  65) = (   1.2028131  -0.2500000   0.0000000  )
        66        C      tau(  66) = (   1.2509256  -0.1666667   0.0000000  )
        67        C      tau(  67) = (   1.3471506  -0.1666667   0.0000000  )
        68        C      tau(  68) = (   1.3952632  -0.0833333   0.0000000  )
        69        C      tau(  69) = (   1.4914882  -0.0833333   0.0000000  )
        70        C      tau(  70) = (   1.5396007   0.0000000   0.0000000  )
        71        C      tau(  71) = (   1.6358258   0.0000000   0.0000000  )

     number of k points=     1  Marzari-Vanderbilt smearing, width (Ry)=  0.0100
                       cart. coord. in units 2pi/alat
        k(    1) = (   0.0000000   0.0000000   0.0000000), wk =   1.0000000

     Dense  grid:  1371813 G-vectors     FFT dimensions: ( 180, 180, 192)

     Estimated max dynamical RAM per process >     101.27 MB

     Estimated total dynamical RAM >       6.33 GB
 ----2D----2D----2D----2D----2D----2D----2D----2D----2D----2D----2D----2D
  The code is running with the 2D cutoff
  Please refer to:
  Sohier, T., Calandra, M., & Mauri, F. (2017), 
  Density functional perturbation theory for gated two-dimensional heterostructures:
  Theoretical developments and application to flexural phonons in graphene.
  Physical Review B, 96(7), 75448. https://doi.org/10.1103/PhysRevB.96.075448
 ----2D----2D----2D----2D----2D----2D----2D----2D----2D----2D----2D----2D
     Generating pointlists ...
     new r_m :   0.0397 (alat units)  1.1098 (a.u.) for type    1
     new r_m :   0.0397 (alat units)  1.1098 (a.u.) for type    2

     Initial potential from superposition of free atoms

     starting charge     283.9968, renormalised to     284.0000

     negative rho (up, down):  2.786E-05 2.670E-05
     Starting wfcs are  284 randomized atomic wfcs

     total cpu time spent up to now is        3.3 secs

     per-process dynamical memory:   180.6 Mb

     Self-consistent Calculation

     iteration #  1     ecut=   100.00 Ry     beta= 0.30
     Davidson diagonalization with overlap
     ethr =  1.00E-02,  avg # of iterations =  2.0

     negative rho (up, down):  1.861E-07 1.644E-07

     total cpu time spent up to now is        6.0 secs

     total energy              =    -855.41228732 Ry
     estimated scf accuracy    <       5.98613525 Ry

     total magnetization       =     3.32 Bohr mag/cell
     absolute magnetization    =     4.33 Bohr mag/cell

     iteration #  2     ecut=   100.00 Ry     beta= 0.30
     Davidson diagonalization with overlap
     ethr =  2.11E-03,  avg # of iterations =  1.0

     negative rho (up, down):  9.729E-08 8.566E-08

     total cpu time spent up to now is        7.8 secs

     total energy              =    -854.31379218 Ry
     estimated scf accuracy    <       3.40697839 Ry

     total magnetization       =     2.17 Bohr mag/cell
     absolute magnetization    =     3.46 Bohr mag/cell

     iteration #  3     ecut=   100.00 Ry     beta= 0.30
     Davidson diagonalization with overlap
     ethr =  1.20E-03,  avg # of iterations =  3.0

     total cpu time spent up to now is        9.9 secs

     total energy              =    -854.50237918 Ry
     estimated scf accuracy    <       6.68265382 Ry

     total magnetization       =    -0.00 Bohr mag/cell
     absolute magnetization    =     1.63 Bohr mag/cell

     iteration #  4     ecut=   100.00 Ry     beta= 0.30
     Davidson diagonalization with overlap
     ethr =  1.20E-03,  avg # of iterations =  2.0

     total cpu time spent up to now is       11.9 secs

     total energy              =    -854.64255265 Ry
     estimated scf accuracy    <       0.98954545 Ry

     total magnetization       =     3.27 Bohr mag/cell
     absolute magnetization    =     4.27 Bohr mag/cell

     iteration #  5     ecut=   100.00 Ry     beta= 0.30
     Davidson diagonalization with overlap
     ethr =  3.48E-04,  avg # of iterations =  2.0

     total cpu time spent up to now is       13.8 secs

     total energy              =    -854.68303704 Ry
     estimated scf accuracy    <       0.11179033 Ry

     total magnetization       =     2.85 Bohr mag/cell
     absolute magnetization    =     4.19 Bohr mag/cell

     iteration #  6     ecut=   100.00 Ry     beta= 0.30
     Davidson diagonalization with overlap
     ethr =  3.94E-05,  avg # of iterations = 28.5

     total cpu time spent up to now is       19.4 secs

     total energy              =    -854.70008255 Ry
     estimated scf accuracy    <       0.10664176 Ry

     total magnetization       =     2.21 Bohr mag/cell
     absolute magnetization    =     3.80 Bohr mag/cell

     iteration #  7     ecut=   100.00 Ry     beta= 0.30
     Davidson diagonalization with overlap
     ethr =  3.75E-05,  avg # of iterations =  1.0

     total cpu time spent up to now is       21.2 secs

     total energy              =    -854.70470419 Ry
     estimated scf accuracy    <       0.02105063 Ry

     total magnetization       =     2.50 Bohr mag/cell
     absolute magnetization    =     4.23 Bohr mag/cell

     iteration #  8     ecut=   100.00 Ry     beta= 0.30
     Davidson diagonalization with overlap
     ethr =  7.41E-06,  avg # of iterations =  3.5

     total cpu time spent up to now is       23.3 secs

     total energy              =    -854.70640569 Ry
     estimated scf accuracy    <       0.03943493 Ry

     total magnetization       =     2.75 Bohr mag/cell
     absolute magnetization    =     4.70 Bohr mag/cell

     iteration #  9     ecut=   100.00 Ry     beta= 0.30
     Davidson diagonalization with overlap
     ethr =  7.41E-06,  avg # of iterations =  1.5

     total cpu time spent up to now is       25.3 secs

     total energy              =    -854.70935070 Ry
     estimated scf accuracy    <       0.01544487 Ry

     total magnetization       =     2.27 Bohr mag/cell
     absolute magnetization    =     4.57 Bohr mag/cell

     iteration # 10     ecut=   100.00 Ry     beta= 0.30
     Davidson diagonalization with overlap
     ethr =  5.44E-06,  avg # of iterations =  6.5

     total cpu time spent up to now is       27.4 secs

     total energy              =    -854.70981142 Ry
     estimated scf accuracy    <       0.00562396 Ry

     total magnetization       =     2.31 Bohr mag/cell
     absolute magnetization    =     4.77 Bohr mag/cell

     iteration # 11     ecut=   100.00 Ry     beta= 0.30
     Davidson diagonalization with overlap
     c_bands:  1 eigenvalues not converged
     ethr =  1.98E-06,  avg # of iterations = 10.5

     negative rho (up, down):  1.137E-07 2.332E-08

     total cpu time spent up to now is       29.7 secs

     total energy              =    -854.71028855 Ry
     estimated scf accuracy    <       0.00406327 Ry

     total magnetization       =     2.31 Bohr mag/cell
     absolute magnetization    =     4.84 Bohr mag/cell

     iteration # 12     ecut=   100.00 Ry     beta= 0.30
     Davidson diagonalization with overlap
     c_bands:  1 eigenvalues not converged
     ethr =  1.43E-06,  avg # of iterations = 10.5

     negative rho (up, down):  7.390E-06 4.974E-06

     total cpu time spent up to now is       32.0 secs

     total energy              =    -854.71105005 Ry
     estimated scf accuracy    <       0.00140428 Ry

     total magnetization       =     2.27 Bohr mag/cell
     absolute magnetization    =     5.03 Bohr mag/cell

     iteration # 13     ecut=   100.00 Ry     beta= 0.30
     Davidson diagonalization with overlap
     ethr =  4.94E-07,  avg # of iterations =  4.5

     negative rho (up, down):  8.286E-06 5.472E-06

     total cpu time spent up to now is       34.4 secs

     total energy              =    -854.71183769 Ry
     estimated scf accuracy    <       0.00120576 Ry

     total magnetization       =     2.15 Bohr mag/cell
     absolute magnetization    =     5.37 Bohr mag/cell

     iteration # 14     ecut=   100.00 Ry     beta= 0.30
     Davidson diagonalization with overlap
     ethr =  4.25E-07,  avg # of iterations =  3.5

     negative rho (up, down):  6.455E-06 4.012E-06

     total cpu time spent up to now is       36.7 secs

     total energy              =    -854.71249951 Ry
     estimated scf accuracy    <       0.00040569 Ry

     total magnetization       =     2.06 Bohr mag/cell
     absolute magnetization    =     5.73 Bohr mag/cell

     iteration # 15     ecut=   100.00 Ry     beta= 0.30
     Davidson diagonalization with overlap
     ethr =  1.43E-07,  avg # of iterations =  4.0

     negative rho (up, down):  3.037E-07 1.388E-08

     total cpu time spent up to now is       39.4 secs

     total energy              =    -854.71284520 Ry
     estimated scf accuracy    <       0.00011153 Ry

     total magnetization       =     2.00 Bohr mag/cell
     absolute magnetization    =     5.99 Bohr mag/cell

     iteration # 16     ecut=   100.00 Ry     beta= 0.30
     Davidson diagonalization with overlap
     ethr =  3.93E-08,  avg # of iterations =  4.5

     total cpu time spent up to now is       41.9 secs

     total energy              =    -854.71289509 Ry
     estimated scf accuracy    <       0.00002044 Ry

     total magnetization       =     2.00 Bohr mag/cell
     absolute magnetization    =     6.09 Bohr mag/cell

     iteration # 17     ecut=   100.00 Ry     beta= 0.30
     Davidson diagonalization with overlap
     ethr =  7.20E-09,  avg # of iterations =  5.5

     total cpu time spent up to now is       45.3 secs

     total energy              =    -854.71293959 Ry
     estimated scf accuracy    <       0.00000461 Ry

     total magnetization       =     1.99 Bohr mag/cell
     absolute magnetization    =     6.19 Bohr mag/cell

     iteration # 18     ecut=   100.00 Ry     beta= 0.30
     Davidson diagonalization with overlap
     ethr =  1.62E-09,  avg # of iterations =  5.0

     total cpu time spent up to now is       48.1 secs

     total energy              =    -854.71294587 Ry
     estimated scf accuracy    <       0.00000240 Ry

     total magnetization       =     1.99 Bohr mag/cell
     absolute magnetization    =     6.21 Bohr mag/cell

     iteration # 19     ecut=   100.00 Ry     beta= 0.30
     Davidson diagonalization with overlap
     ethr =  8.45E-10,  avg # of iterations =  4.5

     negative rho (up, down):  1.976E-07 3.226E-07

     total cpu time spent up to now is       50.6 secs

     total energy              =    -854.71294645 Ry
     estimated scf accuracy    <       0.00000238 Ry

     total magnetization       =     1.99 Bohr mag/cell
     absolute magnetization    =     6.21 Bohr mag/cell

     iteration # 20     ecut=   100.00 Ry     beta= 0.30
     Davidson diagonalization with overlap
     ethr =  8.39E-10,  avg # of iterations =  4.0

     negative rho (up, down):  3.747E-07 4.150E-07

     total cpu time spent up to now is       53.1 secs

     total energy              =    -854.71294840 Ry
     estimated scf accuracy    <       0.00000029 Ry

     total magnetization       =     1.99 Bohr mag/cell
     absolute magnetization    =     6.22 Bohr mag/cell

     iteration # 21     ecut=   100.00 Ry     beta= 0.30
     Davidson diagonalization with overlap
     ethr =  1.00E-10,  avg # of iterations =  4.5

     negative rho (up, down):  3.820E-07 3.944E-07

     total cpu time spent up to now is       55.8 secs

     total energy              =    -854.71294889 Ry
     estimated scf accuracy    <       0.00000023 Ry

     total magnetization       =     1.99 Bohr mag/cell
     absolute magnetization    =     6.22 Bohr mag/cell

     iteration # 22     ecut=   100.00 Ry     beta= 0.30
     Davidson diagonalization with overlap
     ethr =  8.02E-11,  avg # of iterations =  3.5

     negative rho (up, down):  4.438E-07 4.236E-07

     total cpu time spent up to now is       57.9 secs

     total energy              =    -854.71294895 Ry
     estimated scf accuracy    <       0.00000011 Ry

     total magnetization       =     1.99 Bohr mag/cell
     absolute magnetization    =     6.22 Bohr mag/cell

     iteration # 23     ecut=   100.00 Ry     beta= 0.30
     Davidson diagonalization with overlap
     ethr =  3.94E-11,  avg # of iterations =  9.0

     negative rho (up, down):  2.398E-07 2.196E-07

     total cpu time spent up to now is       60.6 secs

     total energy              =    -854.71294902 Ry
     estimated scf accuracy    <       0.00000005 Ry

     total magnetization       =     1.99 Bohr mag/cell
     absolute magnetization    =     6.22 Bohr mag/cell

     iteration # 24     ecut=   100.00 Ry     beta= 0.30
     Davidson diagonalization with overlap
     ethr =  1.84E-11,  avg # of iterations =  3.0

     negative rho (up, down):  8.093E-08 7.087E-08

     total cpu time spent up to now is       62.7 secs

     total energy              =    -854.71294905 Ry
     estimated scf accuracy    <       0.00000004 Ry

     total magnetization       =     1.99 Bohr mag/cell
     absolute magnetization    =     6.22 Bohr mag/cell

     iteration # 25     ecut=   100.00 Ry     beta= 0.30
     Davidson diagonalization with overlap
     ethr =  1.37E-11,  avg # of iterations =  4.0

     negative rho (up, down):  6.814E-08 5.920E-08

     total cpu time spent up to now is       64.9 secs

     total energy              =    -854.71294906 Ry
     estimated scf accuracy    <       0.00000004 Ry

     total magnetization       =     1.99 Bohr mag/cell
     absolute magnetization    =     6.22 Bohr mag/cell

     iteration # 26     ecut=   100.00 Ry     beta= 0.30
     Davidson diagonalization with overlap
     ethr =  1.37E-11,  avg # of iterations =  1.0

     negative rho (up, down):  1.040E-07 8.878E-08

     total cpu time spent up to now is       66.7 secs

     total energy              =    -854.71294902 Ry
     estimated scf accuracy    <       0.00000004 Ry

     total magnetization       =     1.99 Bohr mag/cell
     absolute magnetization    =     6.22 Bohr mag/cell

     iteration # 27     ecut=   100.00 Ry     beta= 0.30
     Davidson diagonalization with overlap
     ethr =  1.37E-11,  avg # of iterations =  2.5

     negative rho (up, down):  8.716E-08 7.184E-08

     total cpu time spent up to now is       68.6 secs

     total energy              =    -854.71294899 Ry
     estimated scf accuracy    <       0.00000003 Ry

     total magnetization       =     1.99 Bohr mag/cell
     absolute magnetization    =     6.22 Bohr mag/cell

     iteration # 28     ecut=   100.00 Ry     beta= 0.30
     Davidson diagonalization with overlap
     ethr =  1.18E-11,  avg # of iterations =  4.0

     negative rho (up, down):  7.140E-08 5.427E-08

     total cpu time spent up to now is       70.7 secs

     total energy              =    -854.71294897 Ry
     estimated scf accuracy    <       0.00000003 Ry

     total magnetization       =     1.99 Bohr mag/cell
     absolute magnetization    =     6.22 Bohr mag/cell

     iteration # 29     ecut=   100.00 Ry     beta= 0.30
     Davidson diagonalization with overlap
     ethr =  1.02E-11,  avg # of iterations =  4.0

     total cpu time spent up to now is       72.9 secs

     total energy              =    -854.71294888 Ry
     estimated scf accuracy    <       0.00000002 Ry

     total magnetization       =     1.99 Bohr mag/cell
     absolute magnetization    =     6.22 Bohr mag/cell

     iteration # 30     ecut=   100.00 Ry     beta= 0.30
     Davidson diagonalization with overlap
     ethr =  7.43E-12,  avg # of iterations =  5.0

     total cpu time spent up to now is       75.5 secs

     total energy              =    -854.71294894 Ry
     estimated scf accuracy    <          3.8E-09 Ry

     total magnetization       =     1.99 Bohr mag/cell
     absolute magnetization    =     6.22 Bohr mag/cell

     iteration # 31     ecut=   100.00 Ry     beta= 0.30
     Davidson diagonalization with overlap
     ethr =  1.35E-12,  avg # of iterations =  4.5

     total cpu time spent up to now is       78.4 secs

     total energy              =    -854.71294895 Ry
     estimated scf accuracy    <          1.5E-09 Ry

     total magnetization       =     1.99 Bohr mag/cell
     absolute magnetization    =     6.22 Bohr mag/cell

     iteration # 32     ecut=   100.00 Ry     beta= 0.30
     Davidson diagonalization with overlap
     ethr =  5.32E-13,  avg # of iterations =  4.5

     total cpu time spent up to now is       81.1 secs

     total energy              =    -854.71294894 Ry
     estimated scf accuracy    <          1.2E-09 Ry

     total magnetization       =     1.99 Bohr mag/cell
     absolute magnetization    =     6.22 Bohr mag/cell

     iteration # 33     ecut=   100.00 Ry     beta= 0.30
     Davidson diagonalization with overlap
     ethr =  4.33E-13,  avg # of iterations =  6.0

     total cpu time spent up to now is       84.1 secs

     total energy              =    -854.71294895 Ry
     estimated scf accuracy    <          3.1E-10 Ry

     total magnetization       =     1.99 Bohr mag/cell
     absolute magnetization    =     6.22 Bohr mag/cell

     iteration # 34     ecut=   100.00 Ry     beta= 0.30
     Davidson diagonalization with overlap
     ethr =  1.09E-13,  avg # of iterations =  5.5

     Magnetic moment per site  (integrated on atomic sphere of radius R)
     atom   1 (R=0.040)  charge=  1.7120  magn=  0.0374
     atom   2 (R=0.040)  charge=  1.7102  magn= -0.0176
     atom   3 (R=0.040)  charge=  1.7120  magn=  0.0374
     atom   4 (R=0.040)  charge=  1.7116  magn= -0.0344
     atom   5 (R=0.040)  charge=  1.7118  magn=  0.0371
     atom   6 (R=0.040)  charge=  1.7112  magn= -0.0341
     atom   7 (R=0.040)  charge=  1.7124  magn=  0.0384
     atom   8 (R=0.040)  charge=  1.7100  magn= -0.0182
     atom   9 (R=0.040)  charge=  1.7124  magn=  0.0384
     atom  10 (R=0.040)  charge=  1.7112  magn= -0.0341
     atom  11 (R=0.040)  charge=  1.7118  magn=  0.0371
     atom  12 (R=0.040)  charge=  1.7116  magn= -0.0344
     atom  13 (R=0.040)  charge=  1.7120  magn=  0.0365
     atom  14 (R=0.040)  charge=  1.7116  magn= -0.0350
     atom  15 (R=0.040)  charge=  1.7119  magn=  0.0374
     atom  16 (R=0.040)  charge=  1.7102  magn= -0.0176
     atom  17 (R=0.040)  charge=  1.7091  magn=  0.0412
     atom  18 (R=0.040)  charge=  1.7057  magn= -0.0267
     atom  19 (R=0.040)  charge=  1.7124  magn=  0.0417
     atom  20 (R=0.040)  charge=  1.7057  magn= -0.0267
     atom  21 (R=0.040)  charge=  1.7091  magn=  0.0412
     atom  22 (R=0.040)  charge=  1.7102  magn= -0.0176
     atom  23 (R=0.040)  charge=  1.7119  magn=  0.0374
     atom  24 (R=0.040)  charge=  1.7116  magn= -0.0350
     atom  25 (R=0.040)  charge=  1.7115  magn=  0.0377
     atom  26 (R=0.040)  charge=  1.7108  magn= -0.0362
     atom  27 (R=0.040)  charge=  1.7088  magn=  0.0379
     atom  28 (R=0.040)  charge=  1.6902  magn= -0.0384
     atom  29 (R=0.040)  charge=  1.5655  magn=  0.1043
     atom  30 (R=0.040)  charge=  1.5655  magn=  0.1043
     atom  31 (R=0.040)  charge=  1.6902  magn= -0.0384
     atom  32 (R=0.040)  charge=  1.7088  magn=  0.0379
     atom  33 (R=0.040)  charge=  1.7108  magn= -0.0362
     atom  34 (R=0.040)  charge=  1.7115  magn=  0.0377
     atom  35 (R=0.040)  charge=  1.7102  magn= -0.0192
     atom  36 (R=0.040)  charge=  1.7123  magn=  0.0383
     atom  37 (R=0.040)  charge=  1.7103  magn= -0.0198
     atom  38 (R=0.040)  charge=  1.7121  magn=  0.0497
     atom  39 (R=0.040)  charge=  1.7054  magn= -0.0329
     atom  40 (R=0.040)  charge=  1.6133  magn=  0.3597
     atom  41 (R=0.040)  charge=  1.7054  magn= -0.0329
     atom  42 (R=0.040)  charge=  1.7121  magn=  0.0497
     atom  43 (R=0.040)  charge=  1.7103  magn= -0.0198
     atom  44 (R=0.040)  charge=  1.7123  magn=  0.0383
     atom  45 (R=0.040)  charge=  1.7115  magn= -0.0349
     atom  46 (R=0.040)  charge=  1.7123  magn=  0.0369
     atom  47 (R=0.040)  charge=  1.7115  magn= -0.0349
     atom  48 (R=0.040)  charge=  1.7122  magn=  0.0389
     atom  49 (R=0.040)  charge=  1.7113  magn= -0.0334
     atom  50 (R=0.040)  charge=  1.7106  magn=  0.0541
     atom  51 (R=0.040)  charge=  1.7110  magn= -0.0224
     atom  52 (R=0.040)  charge=  1.7106  magn=  0.0541
     atom  53 (R=0.040)  charge=  1.7113  magn= -0.0334
     atom  54 (R=0.040)  charge=  1.7122  magn=  0.0389
     atom  55 (R=0.040)  charge=  1.7115  magn= -0.0350
     atom  56 (R=0.040)  charge=  1.7120  magn=  0.0372
     atom  57 (R=0.040)  charge=  1.7103  magn= -0.0179
     atom  58 (R=0.040)  charge=  1.7120  magn=  0.0372
     atom  59 (R=0.040)  charge=  1.7115  magn= -0.0350
     atom  60 (R=0.040)  charge=  1.7119  magn=  0.0386
     atom  61 (R=0.040)  charge=  1.7118  magn= -0.0353
     atom  62 (R=0.040)  charge=  1.7116  magn=  0.0376
     atom  63 (R=0.040)  charge=  1.7118  magn= -0.0353
     atom  64 (R=0.040)  charge=  1.7119  magn=  0.0386
     atom  65 (R=0.040)  charge=  1.7103  magn= -0.0180
     atom  66 (R=0.040)  charge=  1.7123  magn=  0.0383
     atom  67 (R=0.040)  charge=  1.7114  magn= -0.0347
     atom  68 (R=0.040)  charge=  1.7120  magn=  0.0367
     atom  69 (R=0.040)  charge=  1.7114  magn= -0.0347
     atom  70 (R=0.040)  charge=  1.7123  magn=  0.0383
     atom  71 (R=0.040)  charge=  1.7103  magn= -0.0180

     total cpu time spent up to now is       87.0 secs

     End of self-consistent calculation

 ------ SPIN UP ------------


          k = 0.0000 0.0000 0.0000 (171510 PWs)   bands (ev):

   -23.8183 -23.2239 -23.2201 -23.2132 -23.1809 -23.1601 -22.8307 -21.9223
   -21.9181 -21.9113 -21.8470 -21.8415 -21.6683 -21.2864 -21.2757 -21.2614
   -21.1758 -21.1720 -20.6671 -19.4543 -19.4541 -19.4513 -19.4418 -19.4312
   -19.4311 -19.4146 -19.3864 -19.3720 -19.2172 -19.2055 -18.8571 -18.5642
   -18.5511 -17.9386 -17.4877 -17.4754 -17.3602 -16.8943 -16.8922 -16.8677
   -16.4790 -15.7720 -15.7605 -15.7547 -15.7453 -15.7407 -15.7398 -15.7250
   -15.6975 -15.6883 -15.4418 -15.4204 -14.7671 -14.7548 -14.5033 -13.9592
   -13.9328 -13.9279 -13.7794 -13.7714 -13.0410 -12.4109 -12.4079 -12.4039
   -12.4010 -12.3992 -12.3946 -12.3819 -12.3572 -12.3093 -12.2654 -12.1866
   -12.1824 -12.0930 -12.0832 -12.0745 -11.9052 -11.6305 -11.6180 -11.1898
   -11.1832 -11.1791 -11.1463 -11.1244 -10.8606 -10.7886 -10.7714 -10.7712
   -10.7641 -10.7231 -10.7195 -10.6938 -10.4511 -10.4438 -10.1943 -10.1241
   -10.1223 -10.1178 -10.0630  -9.8354  -9.8247  -9.6675  -9.6623  -9.6585
    -9.6519  -9.6357  -9.6239  -9.5998  -9.5916  -9.4213  -8.9747  -8.9363
    -8.9316  -8.9302  -8.9201  -8.8813  -8.8704  -8.5198  -8.4936  -8.4715
    -8.4701  -8.4248  -8.3036  -7.5680  -7.5554  -7.0089  -7.0049  -7.0044
    -6.9969  -6.9804  -6.9770  -6.9512  -6.9503  -6.9281  -6.8718  -6.8568
    -6.7695  -6.6338  -6.6110  -5.4519  -4.4057  -4.3988  -4.3984  -4.1657
    -4.1451  -3.7648  -2.5915  -2.5803  -2.4930  -1.8223  -1.8199  -1.8124
    -1.7991  -1.7891  -1.7862  -1.7784  -1.7720  -1.7248  -1.6531  -1.6310
    -0.9823  -0.4156  -0.1387  -0.1273  -0.1263  -0.1249  -0.0866  -0.0753
     0.0486   0.5757   0.6224   0.6284

 ------ SPIN DOWN ----------


          k = 0.0000 0.0000 0.0000 (171510 PWs)   bands (ev):

   -23.7984 -23.2089 -23.2021 -23.1983 -23.1601 -23.1279 -22.7804 -21.9102
   -21.8915 -21.8832 -21.8322 -21.8128 -21.6315 -21.2656 -21.2487 -21.2426
   -21.1588 -21.1262 -20.5868 -19.4395 -19.4322 -19.4307 -19.4237 -19.4214
   -19.4130 -19.3867 -19.3601 -19.3481 -19.1868 -19.1300 -18.8268 -18.5354
   -18.5044 -17.8077 -17.4543 -17.4500 -17.3544 -16.9387 -16.7892 -16.7671
   -16.4268 -15.7539 -15.7440 -15.7387 -15.7287 -15.7192 -15.7076 -15.7056
   -15.6750 -15.6571 -15.4040 -15.3175 -14.7428 -14.7338 -14.4220 -13.9263
   -13.9120 -13.9057 -13.7536 -13.7118 -12.9427 -12.4003 -12.4000 -12.3941
   -12.3914 -12.3874 -12.3835 -12.3574 -12.3334 -12.2773 -12.2419 -12.1577
   -12.1563 -12.0740 -12.0484 -12.0413 -11.8684 -11.6016 -11.5483 -11.1568
   -11.1479 -11.1469 -11.1079 -11.0786 -10.8087 -10.7608 -10.7574 -10.7516
   -10.7215 -10.7055 -10.7024 -10.6584 -10.4275 -10.4244 -10.1143 -10.1079
   -10.0978 -10.0731 -10.0204  -9.8070  -9.7941  -9.6476  -9.6373  -9.6132
    -9.6082  -9.6025  -9.5818  -9.5767  -9.5561  -9.3516  -8.9209  -8.9012
    -8.8998  -8.8940  -8.8769  -8.8548  -8.8214  -8.5096  -8.4764  -8.4517
    -8.4285  -8.3064  -7.7488  -7.5271  -7.5153  -6.9689  -6.9618  -6.9554
    -6.9524  -6.9483  -6.9463  -6.9175  -6.9156  -6.9038  -6.8129  -6.7840
    -6.7251  -6.5760  -6.4932  -5.2088  -4.4078  -4.0877  -4.0619  -3.6923
    -3.6808  -2.5604  -2.5337  -2.5301  -2.4483  -1.7742  -1.7711  -1.7628
    -1.7552  -1.7524  -1.7445  -1.7399  -1.7334  -1.7004  -1.5518  -1.3940
    -0.9740  -0.3161  -0.1329  -0.1216  -0.1189  -0.1163  -0.0797  -0.0666
     0.0741   0.6402   0.6550   0.6700

     the Fermi energy is    -4.2841 ev

!    total energy              =    -854.71294895 Ry
     estimated scf accuracy    <          4.7E-11 Ry
     smearing contrib. (-TS)   =       0.00155482 Ry
     internal energy E=F+TS    =    -854.71450377 Ry

     The total energy is F=E-TS. E is the sum of the following terms:
     one-electron contribution =   -9611.11450000 Ry
     hartree contribution      =    4832.01901511 Ry
     xc contribution           =    -303.91882539 Ry
     ewald contribution        =    4228.29980650 Ry

     total magnetization       =     1.99 Bohr mag/cell
     absolute magnetization    =     6.22 Bohr mag/cell

     convergence has been achieved in  34 iterations

     Forces acting on atoms (cartesian axes, Ry/au):

     atom    1 type  1   force =     0.00073286    0.00161158   -0.00000000
     atom    2 type  1   force =     0.00037843   -0.00065568    0.00000001
     atom    3 type  1   force =    -0.00176200    0.00017120    0.00000002
     atom    4 type  1   force =     0.00266376   -0.00164252    0.00000001
     atom    5 type  1   force =    -0.00000401   -0.00239241    0.00000001
     atom    6 type  1   force =     0.00300876    0.00510599    0.00000001
     atom    7 type  1   force =    -0.01243842    0.00302882    0.00000002
     atom    8 type  1   force =     0.01584666   -0.02744731   -0.00000000
     atom    9 type  1   force =     0.00359622    0.01228645   -0.00000000
     atom   10 type  1   force =    -0.00592677   -0.00005263    0.00000000
     atom   11 type  1   force =     0.00207404   -0.00119279    0.00000000
     atom   12 type  1   force =     0.00009060   -0.00312828    0.00000001
     atom   13 type  1   force =    -0.00082839    0.00143486   -0.00000001
     atom   14 type  1   force =     0.00179505   -0.00030867   -0.00000003
     atom   15 type  1   force =    -0.00522665    0.00130823    0.00000001
     atom   16 type  1   force =     0.00690051    0.00043477    0.00000000
     atom   17 type  1   force =    -0.01417349   -0.01101914   -0.00000002
     atom   18 type  1   force =     0.06405786   -0.03792710   -0.00000002
     atom   19 type  1   force =    -0.02780045    0.04815113   -0.00000002
     atom   20 type  1   force =     0.00081472   -0.07444017    0.00000000
     atom   21 type  1   force =     0.01663036    0.00676533    0.00000002
     atom   22 type  1   force =    -0.00382682   -0.00575857    0.00000000
     atom   23 type  1   force =     0.00148050    0.00518079    0.00000000
     atom   24 type  1   force =    -0.00063031   -0.00170892    0.00000004
     atom   25 type  1   force =    -0.00076202    0.00505685   -0.00000001
     atom   26 type  1   force =     0.00557998   -0.00988640    0.00000001
     atom   27 type  1   force =    -0.00855337    0.02257772    0.00000000
     atom   28 type  1   force =     0.08989628    0.03445161    0.00000000
     atom   29 type  2   force =    -0.06174154    0.05003091    0.00000001
     atom   30 type  2   force =    -0.01245562    0.07848036    0.00000000
     atom   31 type  1   force =    -0.07478464   -0.06062744   -0.00000001
     atom   32 type  1   force =    -0.01527588    0.01869642    0.00000001
     atom   33 type  1   force =     0.00577197   -0.00977583   -0.00000000
     atom   34 type  1   force =    -0.00399827    0.00318839    0.00000002
     atom   35 type  1   force =     0.00402734   -0.00697569    0.00000001
     atom   36 type  1   force =    -0.01143778   -0.00031927    0.00000001
     atom   37 type  1   force =     0.01364209    0.02436176    0.00000000
     atom   38 type  1   force =    -0.02366374   -0.03287546    0.00000000
     atom   39 type  1   force =     0.01703519    0.05128282    0.00000002
     atom   40 type  2   force =     0.04656135   -0.08063851    0.00000000
     atom   41 type  1   force =    -0.05293028    0.01088713   -0.00000000
     atom   42 type  1   force =     0.04030315    0.00405541    0.00000004
     atom   43 type  1   force =    -0.02791909    0.00036643    0.00000001
     atom   44 type  1   force =     0.00599556    0.00974591    0.00000001
     atom   45 type  1   force =    -0.00465553   -0.00280058   -0.00000002
     atom   46 type  1   force =    -0.00344487    0.00596664   -0.00000004
     atom   47 type  1   force =     0.00475311    0.00263141   -0.00000000
     atom   48 type  1   force =     0.00416830   -0.00970880   -0.00000001
     atom   49 type  1   force =    -0.00376416   -0.00359075    0.00000001
     atom   50 type  1   force =     0.01007868   -0.00445295   -0.00000000
     atom   51 type  1   force =    -0.00220454    0.00381826   -0.00000003
     atom   52 type  1   force =    -0.00118250   -0.01095432   -0.00000003
     atom   53 type  1   force =     0.00499156    0.00146437   -0.00000002
     atom   54 type  1   force =     0.00632393   -0.00846432   -0.00000000
     atom   55 type  1   force =    -0.00536685    0.00120216   -0.00000000
     atom   56 type  1   force =    -0.00065036    0.00102920    0.00000001
     atom   57 type  1   force =     0.00041145   -0.00071272    0.00000001
     atom   58 type  1   force =    -0.00056610    0.00107792    0.00000000
     atom   59 type  1   force =     0.00164225    0.00524894    0.00000001
     atom   60 type  1   force =     0.00061752    0.00180397   -0.00000000
     atom   61 type  1   force =     0.00117803    0.00048668   -0.00000000
     atom   62 type  1   force =     0.00137788   -0.00238653    0.00000001
     atom   63 type  1   force =    -0.00101050   -0.00077690    0.00000001
     atom   64 type  1   force =    -0.00187089    0.00036721    0.00000000
     atom   65 type  1   force =     0.00312345    0.00456517   -0.00000004
     atom   66 type  1   force =    -0.00405299   -0.00458606    0.00000000
     atom   67 type  1   force =     0.00576055   -0.00509173   -0.00000000
     atom   68 type  1   force =    -0.00041332    0.00071585    0.00000000
     atom   69 type  1   force =     0.00152941   -0.00753469   -0.00000002
     atom   70 type  1   force =     0.00599829    0.00121694   -0.00000002
     atom   71 type  1   force =    -0.00551550   -0.00042243   -0.00000001

     Total force =     0.264059     Total SCF correction =     0.000007

     BFGS Geometry Optimization
     Energy error            =      7.0E-02 Ry
     Gradient error          =      9.0E-02 Ry/Bohr

     number of scf cycles    =   1
     number of bfgs steps    =   0

     energy             new  =    -854.7129489544 Ry

     new trust radius        =       0.0962726745 bohr
     new conv_thr            =            1.0E-10 Ry


ATOMIC_POSITIONS (crystal)
C                0.0555130477        0.0556283306       -0.0000000000
C                0.1111423774        0.1110954742        0.0000000003
C                0.0555130467        0.2221919601        0.0000000007
C                0.1112248663        0.2777740366        0.0000000005
C                0.0556410421        0.3888032366        0.0000000004
C                0.1109906161        0.4446892017        0.0000000003
C                0.0551903690        0.5554070328        0.0000000005
C                0.1124200553        0.6104566374       -0.0000000000
C                0.0551903679        0.7227359344       -0.0000000001
C                0.1109906049        0.7776535071        0.0000000002
C                0.0556410470        0.8888890556        0.0000000001
C                0.1112248714        0.9443344260        0.0000000003
C                0.2221537951        0.0555897697       -0.0000000004
C                0.2778258858        0.1111371388       -0.0000000010
C                0.2220675000        0.2221610827        0.0000000002
C                0.2779047235        0.2779358245        0.0000000001
C                0.2223236600        0.3882020828       -0.0000000005
C                0.2804571191        0.4444107061       -0.0000000007
C                0.2199259170        0.5567036962       -0.0000000007
C                0.2804571060        0.6084654311        0.0000000000
C                0.2223236652        0.7228076165        0.0000000008
C                0.2779047208        0.7774927865        0.0000000000
C                0.2220674932        0.8891047629        0.0000000001
C                0.2778258849        0.9443703054        0.0000000014
C                0.3886922847        0.0557206882       -0.0000000004
C                0.4449132787        0.1108727311        0.0000000004
C                0.3879047229        0.2228531323        0.0000000001
C                0.4450685801        0.2808663774        0.0000000000
C1               0.3858244625        0.3914310737        0.0000000003
C1               0.3858246696        0.5560776584        0.0000000001
C                0.4450685972        0.6073983371       -0.0000000003
C                0.3879047248        0.7225754891        0.0000000004
C                0.4449132886        0.7775473172       -0.0000000001
C                0.3886922849        0.8889203636        0.0000000006
C                0.4447771091        0.9442781099        0.0000000002
C                0.5553307838        0.0553079447        0.0000000004
C                0.6105214740        0.1122641694        0.0000000001
C                0.5562427546        0.2205577057        0.0000000000
C                0.6096286553        0.2799637904        0.0000000007
C1               0.5594012526        0.3869661855        0.0000000001
C                0.6096286947        0.4437408289       -0.0000000001
C                0.5562427699        0.5565328701        0.0000000012
C                0.6105214728        0.6105476852        0.0000000004
C                0.5553307824        0.7226946132        0.0000000002
C                0.6111151424        0.7775814720       -0.0000000007
C                0.5552710096        0.8890311610       -0.0000000012
C                0.6111151458        0.9446367144       -0.0000000001
C                0.7226555531        0.0552943763       -0.0000000003
C                0.7778284777        0.1109049505        0.0000000003
C                0.7225896168        0.2222710791       -0.0000000000
C                0.7775956860        0.2778688215       -0.0000000011
C                0.7225896070        0.3884726668       -0.0000000011
C                0.7778284778        0.4445998968       -0.0000000008
C                0.7226555557        0.5553834019       -0.0000000001
C                0.7776239539        0.6110432828       -0.0000000001
C                0.7221719807        0.7222456035        0.0000000002
C                0.7778117660        0.7777607824        0.0000000003
C                0.7221719783        0.8889157529        0.0000000000
C                0.7776239515        0.9446660961        0.0000000004
C                0.8888371181        0.0556328298       -0.0000000001
C                0.9444513638        0.1111528446       -0.0000000001
C                0.8890027014        0.2221653163        0.0000000004
C                0.9444513649        0.2777291236        0.0000000002
C                0.8888371211        0.3888633887        0.0000000000
C                0.9443456615        0.4446722267       -0.0000000012
C                0.8889692241        0.5553078311        0.0000000001
C                0.9447455164        0.6110479512       -0.0000000001
C                0.8888547499        0.7222392908        0.0000000001
C                0.9447455205        0.7775398669       -0.0000000008
C                0.8889692280        0.8890562805       -0.0000000006
C                0.9443456581        0.9443154397       -0.0000000004



     Writing config-only to output data dir /home/gregb26/links/scratch/qe_tmp/vacancy_relaxed/series/6x6/nspin2/vac_6x6_relax_nspin2.save/ :
     XML data file
     NEW-OLD atomic charge density approx. for the potential

     negative rho (up, down):  7.075E-06 7.113E-06
     Generating pointlists ...
     new r_m :   0.0376 (alat units)  1.0524 (a.u.) for type    1
     new r_m :   0.0376 (alat units)  1.0524 (a.u.) for type    2

     total cpu time spent up to now is       88.2 secs

     per-process dynamical memory:   217.7 Mb

     Self-consistent Calculation

     iteration #  1     ecut=   100.00 Ry     beta= 0.30
     Davidson diagonalization with overlap
     c_bands:  1 eigenvalues not converged
     c_bands:  1 eigenvalues not converged
     ethr =  1.00E-06,  avg # of iterations = 20.0
     Minimization algorithm failed to find Fermi energy: reverting to bisection
     Possible cause: smearing is larger than the electronic band-gap.

     negative rho (up, down):  5.629E-06 4.619E-06

     total cpu time spent up to now is       94.8 secs

     total energy              =    -854.72284403 Ry
     estimated scf accuracy    <       0.03722079 Ry

     total magnetization       =     2.07 Bohr mag/cell
     absolute magnetization    =     6.11 Bohr mag/cell

     iteration #  2     ecut=   100.00 Ry     beta= 0.30
     Davidson diagonalization with overlap
     ethr =  1.31E-05,  avg # of iterations =  5.0

     negative rho (up, down):  5.224E-06 4.283E-06

     total cpu time spent up to now is       97.0 secs

     total energy              =    -854.71389341 Ry
     estimated scf accuracy    <       0.29438303 Ry

     total magnetization       =     1.07 Bohr mag/cell
     absolute magnetization    =     4.92 Bohr mag/cell

     iteration #  3     ecut=   100.00 Ry     beta= 0.30
     Davidson diagonalization with overlap
     ethr =  1.31E-05,  avg # of iterations =  2.5
     Minimization algorithm failed to find Fermi energy: reverting to bisection
     Possible cause: smearing is larger than the electronic band-gap.

     negative rho (up, down):  2.982E-06 2.453E-06

     total cpu time spent up to now is       99.1 secs

     total energy              =    -854.72902761 Ry
     estimated scf accuracy    <       0.00953276 Ry

     total magnetization       =     2.04 Bohr mag/cell
     absolute magnetization    =     6.07 Bohr mag/cell

     iteration #  4     ecut=   100.00 Ry     beta= 0.30
     Davidson diagonalization with overlap
     ethr =  3.36E-06,  avg # of iterations =  2.0

     negative rho (up, down):  1.164E-06 9.581E-07

     total cpu time spent up to now is      101.0 secs

     total energy              =    -854.72941239 Ry
     estimated scf accuracy    <       0.00099422 Ry

     total magnetization       =     1.97 Bohr mag/cell
     absolute magnetization    =     6.02 Bohr mag/cell

     iteration #  5     ecut=   100.00 Ry     beta= 0.30
     Davidson diagonalization with overlap
     ethr =  3.50E-07,  avg # of iterations =  3.5

     negative rho (up, down):  5.744E-07 4.713E-07

     total cpu time spent up to now is      103.3 secs

     total energy              =    -854.72958795 Ry
     estimated scf accuracy    <       0.00014143 Ry

     total magnetization       =     1.97 Bohr mag/cell
     absolute magnetization    =     6.02 Bohr mag/cell

     iteration #  6     ecut=   100.00 Ry     beta= 0.30
     Davidson diagonalization with overlap
     ethr =  4.98E-08,  avg # of iterations =  5.0

     negative rho (up, down):  2.048E-07 1.671E-07

     total cpu time spent up to now is      105.5 secs

     total energy              =    -854.72962250 Ry
     estimated scf accuracy    <       0.00003846 Ry

     total magnetization       =     1.98 Bohr mag/cell
     absolute magnetization    =     6.02 Bohr mag/cell

     iteration #  7     ecut=   100.00 Ry     beta= 0.30
     Davidson diagonalization with overlap
     ethr =  1.35E-08,  avg # of iterations =  4.0

     negative rho (up, down):  6.326E-08 5.116E-08

     total cpu time spent up to now is      107.7 secs

     total energy              =    -854.72963658 Ry
     estimated scf accuracy    <       0.00000752 Ry

     total magnetization       =     1.98 Bohr mag/cell
     absolute magnetization    =     6.02 Bohr mag/cell

     iteration #  8     ecut=   100.00 Ry     beta= 0.30
     Davidson diagonalization with overlap
     ethr =  2.65E-09,  avg # of iterations =  4.5

     negative rho (up, down):  1.484E-08 1.186E-08

     total cpu time spent up to now is      110.1 secs

     total energy              =    -854.72964154 Ry
     estimated scf accuracy    <       0.00000263 Ry

     total magnetization       =     1.98 Bohr mag/cell
     absolute magnetization    =     6.02 Bohr mag/cell

     iteration #  9     ecut=   100.00 Ry     beta= 0.30
     Davidson diagonalization with overlap
     ethr =  9.24E-10,  avg # of iterations =  4.0

     total cpu time spent up to now is      112.4 secs

     total energy              =    -854.72964343 Ry
     estimated scf accuracy    <       0.00000138 Ry

     total magnetization       =     1.98 Bohr mag/cell
     absolute magnetization    =     6.02 Bohr mag/cell

     iteration # 10     ecut=   100.00 Ry     beta= 0.30
     Davidson diagonalization with overlap
     ethr =  4.87E-10,  avg # of iterations =  4.0

     total cpu time spent up to now is      114.6 secs

     total energy              =    -854.72964448 Ry
     estimated scf accuracy    <       0.00000075 Ry

     total magnetization       =     1.98 Bohr mag/cell
     absolute magnetization    =     6.02 Bohr mag/cell

     iteration # 11     ecut=   100.00 Ry     beta= 0.30
     Davidson diagonalization with overlap
     ethr =  2.65E-10,  avg # of iterations =  4.0

     total cpu time spent up to now is      116.7 secs

     total energy              =    -854.72964510 Ry
     estimated scf accuracy    <       0.00000018 Ry

     total magnetization       =     1.98 Bohr mag/cell
     absolute magnetization    =     6.02 Bohr mag/cell

     iteration # 12     ecut=   100.00 Ry     beta= 0.30
     Davidson diagonalization with overlap
     ethr =  6.49E-11,  avg # of iterations =  5.0

     total cpu time spent up to now is      119.7 secs

     total energy              =    -854.72964541 Ry
     estimated scf accuracy    <       0.00000007 Ry

     total magnetization       =     1.98 Bohr mag/cell
     absolute magnetization    =     6.02 Bohr mag/cell

     iteration # 13     ecut=   100.00 Ry     beta= 0.30
     Davidson diagonalization with overlap
     ethr =  2.31E-11,  avg # of iterations =  6.0

     total cpu time spent up to now is      122.6 secs

     total energy              =    -854.72964553 Ry
     estimated scf accuracy    <       0.00000003 Ry

     total magnetization       =     1.98 Bohr mag/cell
     absolute magnetization    =     6.02 Bohr mag/cell

     iteration # 14     ecut=   100.00 Ry     beta= 0.30
     Davidson diagonalization with overlap
     ethr =  9.94E-12,  avg # of iterations =  6.0

     total cpu time spent up to now is      125.6 secs

     total energy              =    -854.72964558 Ry
     estimated scf accuracy    <          6.5E-09 Ry

     total magnetization       =     1.98 Bohr mag/cell
     absolute magnetization    =     6.02 Bohr mag/cell

     iteration # 15     ecut=   100.00 Ry     beta= 0.30
     Davidson diagonalization with overlap
     ethr =  2.28E-12,  avg # of iterations =  6.0

     total cpu time spent up to now is      128.9 secs

     total energy              =    -854.72964559 Ry
     estimated scf accuracy    <          2.0E-09 Ry

     total magnetization       =     1.98 Bohr mag/cell
     absolute magnetization    =     6.02 Bohr mag/cell

     iteration # 16     ecut=   100.00 Ry     beta= 0.30
     Davidson diagonalization with overlap
     ethr =  6.89E-13,  avg # of iterations =  5.0

     total cpu time spent up to now is      131.8 secs

     total energy              =    -854.72964559 Ry
     estimated scf accuracy    <          1.9E-09 Ry

     total magnetization       =     1.98 Bohr mag/cell
     absolute magnetization    =     6.02 Bohr mag/cell

     iteration # 17     ecut=   100.00 Ry     beta= 0.30
     Davidson diagonalization with overlap
     ethr =  6.57E-13,  avg # of iterations =  2.0

     total cpu time spent up to now is      133.8 secs

     total energy              =    -854.72964559 Ry
     estimated scf accuracy    <          1.4E-09 Ry

     total magnetization       =     1.98 Bohr mag/cell
     absolute magnetization    =     6.02 Bohr mag/cell

     iteration # 18     ecut=   100.00 Ry     beta= 0.30
     Davidson diagonalization with overlap
     ethr =  4.95E-13,  avg # of iterations =  4.0

     total cpu time spent up to now is      136.4 secs

     total energy              =    -854.72964559 Ry
     estimated scf accuracy    <          1.4E-10 Ry

     total magnetization       =     1.98 Bohr mag/cell
     absolute magnetization    =     6.02 Bohr mag/cell

     iteration # 19     ecut=   100.00 Ry     beta= 0.30
     Davidson diagonalization with overlap
     ethr =  1.00E-13,  avg # of iterations =  5.0

     Magnetic moment per site  (integrated on atomic sphere of radius R)
     atom   1 (R=0.038)  charge=  1.5032  magn=  0.0356
     atom   2 (R=0.038)  charge=  1.5028  magn= -0.0155
     atom   3 (R=0.038)  charge=  1.5032  magn=  0.0356
     atom   4 (R=0.038)  charge=  1.5040  magn= -0.0298
     atom   5 (R=0.038)  charge=  1.5025  magn=  0.0359
     atom   6 (R=0.038)  charge=  1.5028  magn= -0.0290
     atom   7 (R=0.038)  charge=  1.5036  magn=  0.0348
     atom   8 (R=0.038)  charge=  1.5104  magn= -0.0145
     atom   9 (R=0.038)  charge=  1.5036  magn=  0.0348
     atom  10 (R=0.038)  charge=  1.5028  magn= -0.0290
     atom  11 (R=0.038)  charge=  1.5025  magn=  0.0359
     atom  12 (R=0.038)  charge=  1.5040  magn= -0.0298
     atom  13 (R=0.038)  charge=  1.5032  magn=  0.0356
     atom  14 (R=0.038)  charge=  1.5042  magn= -0.0304
     atom  15 (R=0.038)  charge=  1.5032  magn=  0.0356
     atom  16 (R=0.038)  charge=  1.5097  magn= -0.0145
     atom  17 (R=0.038)  charge=  1.4893  magn=  0.0386
     atom  18 (R=0.038)  charge=  1.5125  magn= -0.0247
     atom  19 (R=0.038)  charge=  1.5121  magn=  0.0344
     atom  20 (R=0.038)  charge=  1.5125  magn= -0.0247
     atom  21 (R=0.038)  charge=  1.4893  magn=  0.0386
     atom  22 (R=0.038)  charge=  1.5097  magn= -0.0145
     atom  23 (R=0.038)  charge=  1.5032  magn=  0.0356
     atom  24 (R=0.038)  charge=  1.5042  magn= -0.0304
     atom  25 (R=0.038)  charge=  1.5017  magn=  0.0359
     atom  26 (R=0.038)  charge=  1.4999  magn= -0.0307
     atom  27 (R=0.038)  charge=  1.4837  magn=  0.0353
     atom  28 (R=0.038)  charge=  1.4779  magn= -0.0355
     atom  29 (R=0.038)  charge=  1.4294  magn=  0.0667
     atom  30 (R=0.038)  charge=  1.4294  magn=  0.0667
     atom  31 (R=0.038)  charge=  1.4779  magn= -0.0355
     atom  32 (R=0.038)  charge=  1.4837  magn=  0.0353
     atom  33 (R=0.038)  charge=  1.4999  magn= -0.0307
     atom  34 (R=0.038)  charge=  1.5017  magn=  0.0359
     atom  35 (R=0.038)  charge=  1.5018  magn= -0.0161
     atom  36 (R=0.038)  charge=  1.5043  magn=  0.0335
     atom  37 (R=0.038)  charge=  1.5068  magn= -0.0163
     atom  38 (R=0.038)  charge=  1.5098  magn=  0.0433
     atom  39 (R=0.038)  charge=  1.5035  magn= -0.0327
     atom  40 (R=0.038)  charge=  1.4694  magn=  0.3004
     atom  41 (R=0.038)  charge=  1.5035  magn= -0.0327
     atom  42 (R=0.038)  charge=  1.5098  magn=  0.0433
     atom  43 (R=0.038)  charge=  1.5068  magn= -0.0163
     atom  44 (R=0.038)  charge=  1.5043  magn=  0.0335
     atom  45 (R=0.038)  charge=  1.5038  magn= -0.0303
     atom  46 (R=0.038)  charge=  1.5038  magn=  0.0334
     atom  47 (R=0.038)  charge=  1.5038  magn= -0.0303
     atom  48 (R=0.038)  charge=  1.5028  magn=  0.0363
     atom  49 (R=0.038)  charge=  1.5037  magn= -0.0292
     atom  50 (R=0.038)  charge=  1.4953  magn=  0.0518
     atom  51 (R=0.038)  charge=  1.5068  magn= -0.0190
     atom  52 (R=0.038)  charge=  1.4953  magn=  0.0518
     atom  53 (R=0.038)  charge=  1.5037  magn= -0.0292
     atom  54 (R=0.038)  charge=  1.5028  magn=  0.0363
     atom  55 (R=0.038)  charge=  1.5037  magn= -0.0301
     atom  56 (R=0.038)  charge=  1.5030  magn=  0.0347
     atom  57 (R=0.038)  charge=  1.5017  magn= -0.0154
     atom  58 (R=0.038)  charge=  1.5030  magn=  0.0347
     atom  59 (R=0.038)  charge=  1.5037  magn= -0.0301
     atom  60 (R=0.038)  charge=  1.5032  magn=  0.0361
     atom  61 (R=0.038)  charge=  1.5040  magn= -0.0307
     atom  62 (R=0.038)  charge=  1.5031  magn=  0.0365
     atom  63 (R=0.038)  charge=  1.5040  magn= -0.0307
     atom  64 (R=0.038)  charge=  1.5032  magn=  0.0361
     atom  65 (R=0.038)  charge=  1.5026  magn= -0.0153
     atom  66 (R=0.038)  charge=  1.5034  magn=  0.0350
     atom  67 (R=0.038)  charge=  1.5038  magn= -0.0299
     atom  68 (R=0.038)  charge=  1.5030  magn=  0.0356
     atom  69 (R=0.038)  charge=  1.5038  magn= -0.0299
     atom  70 (R=0.038)  charge=  1.5034  magn=  0.0350
     atom  71 (R=0.038)  charge=  1.5026  magn= -0.0153

     total cpu time spent up to now is      139.7 secs

     End of self-consistent calculation

 ------ SPIN UP ------------


          k = 0.0000 0.0000 0.0000 (171510 PWs)   bands (ev):

   -23.8109 -23.2117 -23.2080 -23.2042 -23.1689 -23.1682 -22.8601 -21.9324
   -21.9171 -21.8842 -21.8664 -21.8433 -21.6834 -21.3153 -21.2435 -21.2391
   -21.2220 -21.2018 -20.7408 -19.4825 -19.4732 -19.4654 -19.4488 -19.4388
   -19.4213 -19.4044 -19.3922 -19.3183 -19.2947 -19.2794 -18.8242 -18.6100
   -18.5570 -18.1126 -17.5129 -17.4600 -17.3583 -16.9394 -16.9087 -16.8556
   -16.4352 -15.8399 -15.8229 -15.7591 -15.7487 -15.7388 -15.7305 -15.7290
   -15.6851 -15.6819 -15.4302 -15.4292 -14.7786 -14.7464 -14.4217 -14.0270
   -13.9969 -13.9881 -13.7385 -13.7213 -13.0102 -12.4861 -12.4495 -12.4304
   -12.4103 -12.3861 -12.3820 -12.3342 -12.3303 -12.3096 -12.3034 -12.2046
   -12.1887 -12.1282 -12.0820 -12.0642 -11.9016 -11.6143 -11.5810 -11.1813
   -11.1749 -11.1735 -11.1393 -11.1325 -10.9133 -10.8434 -10.8260 -10.8205
   -10.7874 -10.7116 -10.6926 -10.6843 -10.4597 -10.4298 -10.2193 -10.1932
   -10.1520 -10.1476  -9.9877  -9.9123  -9.8300  -9.7519  -9.6783  -9.6680
    -9.6270  -9.6253  -9.6150  -9.6133  -9.6024  -9.4346  -9.0027  -8.9700
    -8.9374  -8.9296  -8.9262  -8.8916  -8.8822  -8.5959  -8.5589  -8.5397
    -8.4805  -8.3486  -7.8640  -7.6209  -7.5571  -7.0391  -7.0375  -7.0250
    -7.0215  -6.9899  -6.9811  -6.9662  -6.9544  -6.9142  -6.9134  -6.8283
    -6.7524  -6.6675  -6.6222  -5.5279  -4.4218  -4.4076  -4.3828  -4.1381
    -3.8769  -3.6443  -2.6355  -2.5682  -2.4820  -1.9226  -1.9042  -1.8117
    -1.8091  -1.7878  -1.7766  -1.7615  -1.7246  -1.7224  -1.4863  -1.4742
    -0.9786  -0.3107  -0.1309  -0.1255  -0.1221  -0.1189  -0.0851  -0.0759
     0.0446   0.5372   0.5792   0.6100

 ------ SPIN DOWN ----------


          k = 0.0000 0.0000 0.0000 (171510 PWs)   bands (ev):

   -23.7861 -23.1915 -23.1850 -23.1840 -23.1446 -23.1316 -22.8068 -21.9009
   -21.8853 -21.8676 -21.8276 -21.8267 -21.6424 -21.2755 -21.2217 -21.2142
   -21.1855 -21.1815 -20.6649 -19.4515 -19.4446 -19.4334 -19.4192 -19.4164
   -19.4020 -19.3799 -19.3695 -19.2673 -19.2602 -19.2500 -18.7938 -18.5810
   -18.5105 -17.9984 -17.4783 -17.4338 -17.3532 -16.9443 -16.8123 -16.7854
   -16.3932 -15.8119 -15.7986 -15.7306 -15.7305 -15.7208 -15.7085 -15.7069
   -15.6594 -15.6557 -15.4030 -15.3413 -14.7547 -14.7246 -14.3480 -13.9921
   -13.9715 -13.9692 -13.6981 -13.6828 -12.9227 -12.4610 -12.4355 -12.4184
   -12.3927 -12.3731 -12.3686 -12.3192 -12.3105 -12.2798 -12.2609 -12.1849
   -12.1632 -12.1007 -12.0525 -12.0389 -11.8557 -11.5547 -11.5443 -11.1360
   -11.1305 -11.1276 -11.0964 -11.0804 -10.8704 -10.8275 -10.8074 -10.7595
   -10.7515 -10.6859 -10.6756 -10.6750 -10.4321 -10.4103 -10.1821 -10.1431
   -10.1088 -10.1049  -9.9713  -9.8891  -9.7905  -9.7341  -9.6138  -9.6057
    -9.6037  -9.5977  -9.5852  -9.5783  -9.5667  -9.3603  -8.9197  -8.9140
    -8.9102  -8.9005  -8.8886  -8.8659  -8.8471  -8.5808  -8.5332  -8.5127
    -8.3765  -8.3332  -7.5938  -7.5335  -7.3508  -6.9810  -6.9772  -6.9654
    -6.9529  -6.9482  -6.9343  -6.9340  -6.8803  -6.8701  -6.8576  -6.8018
    -6.6980  -6.6207  -6.5471  -5.3478  -4.4050  -4.0979  -4.0760  -3.5874
    -3.5586  -2.6843  -2.5725  -2.5208  -2.4265  -1.8777  -1.8545  -1.7882
    -1.7627  -1.7384  -1.7313  -1.6999  -1.6638  -1.6571  -1.3985  -1.3018
    -0.9690  -0.2192  -0.1228  -0.1146  -0.1112  -0.1106  -0.0775  -0.0657
     0.0664   0.5676   0.6076   0.7093

     the Fermi energy is    -4.2805 ev

!    total energy              =    -854.72964559 Ry
     estimated scf accuracy    <          5.3E-11 Ry
     smearing contrib. (-TS)   =       0.00250221 Ry
     internal energy E=F+TS    =    -854.73214781 Ry

     The total energy is F=E-TS. E is the sum of the following terms:
     one-electron contribution =   -9612.17516852 Ry
     hartree contribution      =    4832.52820294 Ry
     xc contribution           =    -304.02310670 Ry
     ewald contribution        =    4228.93792447 Ry

     total magnetization       =     1.98 Bohr mag/cell
     absolute magnetization    =     6.02 Bohr mag/cell

     convergence has been achieved in  19 iterations

     Forces acting on atoms (cartesian axes, Ry/au):

     atom    1 type  1   force =    -0.00000290    0.00438954   -0.00000000
     atom    2 type  1   force =    -0.00040225    0.00069698   -0.00000008
     atom    3 type  1   force =    -0.00379987    0.00219703    0.00000001
     atom    4 type  1   force =     0.00264588   -0.00327170    0.00000001
     atom    5 type  1   force =     0.00050088    0.00234455   -0.00000003
     atom    6 type  1   force =    -0.00048496   -0.01320010   -0.00000001
     atom    7 type  1   force =     0.01104947    0.00007226   -0.00000003
     atom    8 type  1   force =    -0.02192042    0.03796734    0.00000004
     atom    9 type  1   force =    -0.00558733   -0.00953322   -0.00000001
     atom   10 type  1   force =     0.01167400   -0.00618078   -0.00000002
     atom   11 type  1   force =    -0.00228054    0.00073874   -0.00000001
     atom   12 type  1   force =     0.00150997   -0.00392709    0.00000000
     atom   13 type  1   force =     0.00049938   -0.00086437    0.00000000
     atom   14 type  1   force =    -0.00157172   -0.00257492   -0.00000002
     atom   15 type  1   force =    -0.00062025    0.00459742   -0.00000001
     atom   16 type  1   force =    -0.00969750    0.00473380   -0.00000001
     atom   17 type  1   force =     0.02374657    0.00589017   -0.00000001
     atom   18 type  1   force =    -0.04485386    0.05964738    0.00000002
     atom   19 type  1   force =     0.02523651   -0.04371048    0.00000006
     atom   20 type  1   force =    -0.02922982    0.06866349   -0.00000001
     atom   21 type  1   force =    -0.01697475   -0.01762146   -0.00000002
     atom   22 type  1   force =     0.00074946    0.01076478    0.00000004
     atom   23 type  1   force =    -0.00367112    0.00283569    0.00000001
     atom   24 type  1   force =     0.00301569    0.00007333   -0.00000003
     atom   25 type  1   force =    -0.00197854   -0.00226835    0.00000000
     atom   26 type  1   force =     0.00629385    0.01489432   -0.00000000
     atom   27 type  1   force =     0.04532803   -0.00747583   -0.00000003
     atom   28 type  1   force =    -0.02096139   -0.00039547   -0.00000001
     atom   29 type  2   force =     0.02509394   -0.01796827    0.00000001
     atom   30 type  2   force =     0.00301416   -0.03071995   -0.00000003
     atom   31 type  1   force =     0.01082401    0.01795359    0.00000000
     atom   32 type  1   force =    -0.01618995   -0.04299295    0.00000000
     atom   33 type  1   force =    -0.01604622    0.00199645    0.00000001
     atom   34 type  1   force =     0.00295365    0.00057957   -0.00000000
     atom   35 type  1   force =    -0.00471466    0.00816601   -0.00000000
     atom   36 type  1   force =     0.01403974    0.00757576    0.00000001
     atom   37 type  1   force =    -0.02008024   -0.02879994    0.00000000
     atom   38 type  1   force =     0.03618100    0.04779040    0.00000002
     atom   39 type  1   force =    -0.00932916   -0.05487611   -0.00000002
     atom   40 type  2   force =     0.00360159   -0.00623523    0.00000000
     atom   41 type  1   force =     0.05219278   -0.01935963   -0.00000002
     atom   42 type  1   force =    -0.05947708   -0.00743796   -0.00000000
     atom   43 type  1   force =     0.03498145    0.00299007    0.00000001
     atom   44 type  1   force =    -0.01358047   -0.00837108   -0.00000001
     atom   45 type  1   force =     0.00867657    0.00032541    0.00000001
     atom   46 type  1   force =     0.00331157   -0.00573526    0.00000002
     atom   47 type  1   force =    -0.00462054   -0.00735133    0.00000000
     atom   48 type  1   force =    -0.00097142    0.01193511    0.00000001
     atom   49 type  1   force =     0.00520000   -0.00409956   -0.00000001
     atom   50 type  1   force =    -0.00761758    0.02026270    0.00000002
     atom   51 type  1   force =     0.00428047   -0.00741306    0.00000000
     atom   52 type  1   force =    -0.01373830    0.01672704    0.00000000
     atom   53 type  1   force =     0.00095042   -0.00655359    0.00000002
     atom   54 type  1   force =    -0.00984993    0.00680897    0.00000001
     atom   55 type  1   force =     0.00282354   -0.00680807   -0.00000001
     atom   56 type  1   force =    -0.00209679    0.00481173   -0.00000000
     atom   57 type  1   force =    -0.00003458    0.00005974   -0.00000001
     atom   58 type  1   force =    -0.00311844    0.00422165    0.00000000
     atom   59 type  1   force =     0.00448399   -0.00584972    0.00000000
     atom   60 type  1   force =    -0.00550543    0.00065512    0.00000000
     atom   61 type  1   force =     0.00538566   -0.00254294    0.00000003
     atom   62 type  1   force =     0.00051347   -0.00088884   -0.00000001
     atom   63 type  1   force =    -0.00049099   -0.00593559    0.00000002
     atom   64 type  1   force =     0.00218527    0.00509561   -0.00000000
     atom   65 type  1   force =    -0.00267162   -0.00503280    0.00000003
     atom   66 type  1   force =    -0.00165937    0.00581327   -0.00000001
     atom   67 type  1   force =    -0.00013999   -0.00029086    0.00000000
     atom   68 type  1   force =     0.00121605   -0.00210559    0.00000000
     atom   69 type  1   force =     0.00032127   -0.00002414    0.00000000
     atom   70 type  1   force =    -0.00420485    0.00434395    0.00000000
     atom   71 type  1   force =     0.00569452   -0.00020272    0.00000002

     Total force =     0.209393     Total SCF correction =     0.000006
     Energy error            =      1.7E-02 Ry
     Gradient error          =      6.9E-02 Ry/Bohr

     number of scf cycles    =   2
     number of bfgs steps    =   1

     energy             old  =    -854.7129489544 Ry
     energy             new  =    -854.7296455938 Ry

     CASE: energy            _new < energy            _old

     new trust radius        =       0.0391212077 bohr
     new conv_thr            =            1.0E-10 Ry


ATOMIC_POSITIONS (crystal)
C                0.0554070391        0.0557381460       -0.0000000001
C                0.1111251108        0.1111041100       -0.0000000015
C                0.0554070458        0.2221881499        0.0000000012
C                0.1113493611        0.2777336184        0.0000000007
C                0.0556049448        0.3888525566       -0.0000000001
C                0.1112710131        0.4444119254        0.0000000002
C                0.0552879403        0.5555357132       -0.0000000001
C                0.1114287850        0.6109522731        0.0000000009
C                0.0552879442        0.7225096777       -0.0000000004
C                0.1112710156        0.7776503676       -0.0000000002
C                0.0556049494        0.8888758428       -0.0000000001
C                0.1113493568        0.9442503464        0.0000000003
C                0.2221714108        0.0555809687       -0.0000000005
C                0.2778702422        0.1110607360       -0.0000000016
C                0.2219341716        0.2222503141       -0.0000000000
C                0.2776844041        0.2779362942       -0.0000000001
C                0.2225157436        0.3885627864       -0.0000000009
C                0.2788420330        0.4451792405       -0.0000000002
C                0.2209658550        0.5561837306        0.0000000004
C                0.2788421196        0.6093118553       -0.0000000002
C                0.2225157760        0.7222547948        0.0000000004
C                0.2776844143        0.7777126310        0.0000000009
C                0.2219341709        0.8891488606        0.0000000002
C                0.2778702478        0.9444023417        0.0000000011
C                0.3886928442        0.0556637752       -0.0000000003
C                0.4447155781        0.1112664193        0.0000000005
C                0.3885489060        0.2233621637       -0.0000000005
C                0.4448805923        0.2809764864       -0.0000000003
C1               0.3861744895        0.3914173916        0.0000000005
C1               0.3861748128        0.5557412102       -0.0000000005
C                0.4448806629        0.6074761812       -0.0000000003
C                0.3885489013        0.7214222780        0.0000000005
C                0.4447155852        0.7773513214        0.0000000001
C                0.3886928371        0.8889767229        0.0000000006
C                0.4445704677        0.9443814300        0.0000000002
C                0.5553140822        0.0556352674        0.0000000008
C                0.6108398332        0.1114871503        0.0000000001
C                0.5557149151        0.2219168269        0.0000000005
C                0.6105717141        0.2788643264        0.0000000004
C1               0.5600850798        0.3866243238        0.0000000002
C                0.6105718324        0.4438972609       -0.0000000005
C                0.5557149355        0.5557016143        0.0000000013
C                0.6108398287        0.6110063437        0.0000000007
C                0.5553140877        0.7223839916        0.0000000000
C                0.6112229187        0.7776784467       -0.0000000006
C                0.5554096133        0.8889618652       -0.0000000010
C                0.6112229144        0.9444319593       -0.0000000001
C                0.7224250080        0.0555213241       -0.0000000001
C                0.7779976064        0.1108533707       -0.0000000000
C                0.7220720511        0.2226406330        0.0000000004
C                0.7777986648        0.2777673425       -0.0000000012
C                0.7220720825        0.3886206644       -0.0000000012
C                0.7779976189        0.4444823370       -0.0000000004
C                0.7224250138        0.5553870086        0.0000000002
C                0.7777974443        0.6109160114       -0.0000000002
C                0.7220276294        0.7223310663        0.0000000002
C                0.7778143018        0.7777595125        0.0000000001
C                0.7220276321        0.8889746432        0.0000000001
C                0.7777974488        0.9446198646        0.0000000005
C                0.8887426882        0.0555849604       -0.0000000000
C                0.9445816848        0.1111711709        0.0000000006
C                0.8890444464        0.2221444498        0.0000000003
C                0.9445816807        0.2775804706        0.0000000006
C                0.8887426854        0.3890056922        0.0000000000
C                0.9444129122        0.4445508861       -0.0000000007
C                0.8888244757        0.5553872261       -0.0000000002
C                0.9447889558        0.6110313361       -0.0000000000
C                0.8889146625        0.7222093422        0.0000000002
C                0.9447889511        0.7775130357       -0.0000000009
C                0.8888244729        0.8891216389       -0.0000000006
C                0.9444129109        0.9443695311        0.0000000001



     Writing config-only to output data dir /home/gregb26/links/scratch/qe_tmp/vacancy_relaxed/series/6x6/nspin2/vac_6x6_relax_nspin2.save/ :
     XML data file
     NEW-OLD atomic charge density approx. for the potential

     negative rho (up, down):  2.812E-06 2.841E-06
     Generating pointlists ...

     total cpu time spent up to now is      140.9 secs

     per-process dynamical memory:   204.9 Mb

     Self-consistent Calculation

     iteration #  1     ecut=   100.00 Ry     beta= 0.30
     Davidson diagonalization with overlap
     ethr =  1.00E-06,  avg # of iterations =  7.0

     negative rho (up, down):  1.973E-06 1.875E-06

     total cpu time spent up to now is      145.7 secs

     total energy              =    -854.74041800 Ry
     estimated scf accuracy    <       0.00699106 Ry

     total magnetization       =     1.90 Bohr mag/cell
     absolute magnetization    =     5.98 Bohr mag/cell

     iteration #  2     ecut=   100.00 Ry     beta= 0.30
     Davidson diagonalization with overlap
     ethr =  2.46E-06,  avg # of iterations =  5.0

     negative rho (up, down):  1.718E-06 1.633E-06

     total cpu time spent up to now is      147.9 secs

     total energy              =    -854.74078845 Ry
     estimated scf accuracy    <       0.01428070 Ry

     total magnetization       =     2.05 Bohr mag/cell
     absolute magnetization    =     6.03 Bohr mag/cell

     iteration #  3     ecut=   100.00 Ry     beta= 0.30
     Davidson diagonalization with overlap
     ethr =  2.46E-06,  avg # of iterations =  2.0

     negative rho (up, down):  9.693E-07 9.257E-07

     total cpu time spent up to now is      149.9 secs

     total energy              =    -854.74142105 Ry
     estimated scf accuracy    <       0.00100758 Ry

     total magnetization       =     1.95 Bohr mag/cell
     absolute magnetization    =     6.00 Bohr mag/cell

     iteration #  4     ecut=   100.00 Ry     beta= 0.30
     Davidson diagonalization with overlap
     ethr =  3.55E-07,  avg # of iterations =  2.0

     negative rho (up, down):  3.833E-07 3.679E-07

     total cpu time spent up to now is      151.7 secs

     total energy              =    -854.74145622 Ry
     estimated scf accuracy    <       0.00051783 Ry

     total magnetization       =     1.98 Bohr mag/cell
     absolute magnetization    =     6.01 Bohr mag/cell

     iteration #  5     ecut=   100.00 Ry     beta= 0.30
     Davidson diagonalization with overlap
     ethr =  1.82E-07,  avg # of iterations =  2.0

     negative rho (up, down):  2.036E-07 1.965E-07

     total cpu time spent up to now is      153.6 secs

     total energy              =    -854.74148691 Ry
     estimated scf accuracy    <       0.00034215 Ry

     total magnetization       =     1.95 Bohr mag/cell
     absolute magnetization    =     5.99 Bohr mag/cell

     iteration #  6     ecut=   100.00 Ry     beta= 0.30
     Davidson diagonalization with overlap
     ethr =  1.20E-07,  avg # of iterations =  1.5
     Minimization algorithm failed to find Fermi energy: reverting to bisection
     Possible cause: smearing is larger than the electronic band-gap.

     negative rho (up, down):  7.804E-08 7.633E-08

     total cpu time spent up to now is      155.3 secs

     total energy              =    -854.74153531 Ry
     estimated scf accuracy    <       0.00019735 Ry

     total magnetization       =     1.98 Bohr mag/cell
     absolute magnetization    =     6.01 Bohr mag/cell

     iteration #  7     ecut=   100.00 Ry     beta= 0.30
     Davidson diagonalization with overlap
     ethr =  6.95E-08,  avg # of iterations =  1.0

     negative rho (up, down):  2.184E-08 2.135E-08

     total cpu time spent up to now is      157.1 secs

     total energy              =    -854.74154218 Ry
     estimated scf accuracy    <       0.00004325 Ry

     total magnetization       =     1.98 Bohr mag/cell
     absolute magnetization    =     6.00 Bohr mag/cell

     iteration #  8     ecut=   100.00 Ry     beta= 0.30
     Davidson diagonalization with overlap
     ethr =  1.52E-08,  avg # of iterations =  3.0

     total cpu time spent up to now is      159.0 secs

     total energy              =    -854.74154623 Ry
     estimated scf accuracy    <       0.00000881 Ry

     total magnetization       =     1.98 Bohr mag/cell
     absolute magnetization    =     6.00 Bohr mag/cell

     iteration #  9     ecut=   100.00 Ry     beta= 0.30
     Davidson diagonalization with overlap
     ethr =  3.10E-09,  avg # of iterations =  4.5

     total cpu time spent up to now is      161.1 secs

     total energy              =    -854.74154837 Ry
     estimated scf accuracy    <       0.00000235 Ry

     total magnetization       =     1.98 Bohr mag/cell
     absolute magnetization    =     5.99 Bohr mag/cell

     iteration # 10     ecut=   100.00 Ry     beta= 0.30
     Davidson diagonalization with overlap
     ethr =  8.28E-10,  avg # of iterations =  4.5

     total cpu time spent up to now is      163.3 secs

     total energy              =    -854.74154937 Ry
     estimated scf accuracy    <       0.00000415 Ry

     total magnetization       =     1.98 Bohr mag/cell
     absolute magnetization    =     5.99 Bohr mag/cell

     iteration # 11     ecut=   100.00 Ry     beta= 0.30
     Davidson diagonalization with overlap
     ethr =  8.28E-10,  avg # of iterations =  2.0
     Minimization algorithm failed to find Fermi energy: reverting to bisection
     Possible cause: smearing is larger than the electronic band-gap.

     total cpu time spent up to now is      165.3 secs

     total energy              =    -854.74154955 Ry
     estimated scf accuracy    <       0.00000352 Ry

     total magnetization       =     1.98 Bohr mag/cell
     absolute magnetization    =     5.99 Bohr mag/cell

     iteration # 12     ecut=   100.00 Ry     beta= 0.30
     Davidson diagonalization with overlap
     ethr =  8.28E-10,  avg # of iterations =  2.0
     Minimization algorithm failed to find Fermi energy: reverting to bisection
     Possible cause: smearing is larger than the electronic band-gap.

     total cpu time spent up to now is      167.0 secs

     total energy              =    -854.74154983 Ry
     estimated scf accuracy    <       0.00000022 Ry

     total magnetization       =     1.98 Bohr mag/cell
     absolute magnetization    =     5.99 Bohr mag/cell

     iteration # 13     ecut=   100.00 Ry     beta= 0.30
     Davidson diagonalization with overlap
     ethr =  7.85E-11,  avg # of iterations =  4.5

     total cpu time spent up to now is      169.7 secs

     total energy              =    -854.74154998 Ry
     estimated scf accuracy    <       0.00000002 Ry

     total magnetization       =     1.98 Bohr mag/cell
     absolute magnetization    =     5.99 Bohr mag/cell

     iteration # 14     ecut=   100.00 Ry     beta= 0.30
     Davidson diagonalization with overlap
     ethr =  7.50E-12,  avg # of iterations =  5.5

     total cpu time spent up to now is      172.7 secs

     total energy              =    -854.74155002 Ry
     estimated scf accuracy    <       0.00000002 Ry

     total magnetization       =     1.98 Bohr mag/cell
     absolute magnetization    =     5.99 Bohr mag/cell

     iteration # 15     ecut=   100.00 Ry     beta= 0.30
     Davidson diagonalization with overlap
     ethr =  5.59E-12,  avg # of iterations =  4.0

     total cpu time spent up to now is      175.4 secs

     total energy              =    -854.74155004 Ry
     estimated scf accuracy    <          2.9E-09 Ry

     total magnetization       =     1.98 Bohr mag/cell
     absolute magnetization    =     5.98 Bohr mag/cell

     iteration # 16     ecut=   100.00 Ry     beta= 0.30
     Davidson diagonalization with overlap
     ethr =  1.02E-12,  avg # of iterations =  5.0
     Minimization algorithm failed to find Fermi energy: reverting to bisection
     Possible cause: smearing is larger than the electronic band-gap.

     total cpu time spent up to now is      178.1 secs

     total energy              =    -854.74155005 Ry
     estimated scf accuracy    <          1.4E-09 Ry

     total magnetization       =     1.98 Bohr mag/cell
     absolute magnetization    =     5.98 Bohr mag/cell

     iteration # 17     ecut=   100.00 Ry     beta= 0.30
     Davidson diagonalization with overlap
     ethr =  4.92E-13,  avg # of iterations =  5.0

     total cpu time spent up to now is      181.1 secs

     total energy              =    -854.74155005 Ry
     estimated scf accuracy    <          7.6E-10 Ry

     total magnetization       =     1.98 Bohr mag/cell
     absolute magnetization    =     5.98 Bohr mag/cell

     iteration # 18     ecut=   100.00 Ry     beta= 0.30
     Davidson diagonalization with overlap
     ethr =  2.68E-13,  avg # of iterations =  5.0

     total cpu time spent up to now is      184.2 secs

     total energy              =    -854.74155005 Ry
     estimated scf accuracy    <          3.3E-10 Ry

     total magnetization       =     1.98 Bohr mag/cell
     absolute magnetization    =     5.98 Bohr mag/cell

     iteration # 19     ecut=   100.00 Ry     beta= 0.30
     Davidson diagonalization with overlap
     ethr =  1.17E-13,  avg # of iterations =  5.0

     Magnetic moment per site  (integrated on atomic sphere of radius R)
     atom   1 (R=0.038)  charge=  1.5035  magn=  0.0338
     atom   2 (R=0.038)  charge=  1.5028  magn= -0.0153
     atom   3 (R=0.038)  charge=  1.5035  magn=  0.0338
     atom   4 (R=0.038)  charge=  1.5040  magn= -0.0297
     atom   5 (R=0.038)  charge=  1.5024  magn=  0.0344
     atom   6 (R=0.038)  charge=  1.5016  magn= -0.0293
     atom   7 (R=0.038)  charge=  1.5048  magn=  0.0334
     atom   8 (R=0.038)  charge=  1.5055  magn= -0.0150
     atom   9 (R=0.038)  charge=  1.5048  magn=  0.0334
     atom  10 (R=0.038)  charge=  1.5016  magn= -0.0293
     atom  11 (R=0.038)  charge=  1.5024  magn=  0.0344
     atom  12 (R=0.038)  charge=  1.5040  magn= -0.0297
     atom  13 (R=0.038)  charge=  1.5033  magn=  0.0337
     atom  14 (R=0.038)  charge=  1.5039  magn= -0.0298
     atom  15 (R=0.038)  charge=  1.5042  magn=  0.0337
     atom  16 (R=0.038)  charge=  1.5041  magn= -0.0147
     atom  17 (R=0.038)  charge=  1.4942  magn=  0.0370
     atom  18 (R=0.038)  charge=  1.5126  magn= -0.0245
     atom  19 (R=0.038)  charge=  1.5137  magn=  0.0347
     atom  20 (R=0.038)  charge=  1.5126  magn= -0.0245
     atom  21 (R=0.038)  charge=  1.4942  magn=  0.0370
     atom  22 (R=0.038)  charge=  1.5041  magn= -0.0147
     atom  23 (R=0.038)  charge=  1.5042  magn=  0.0337
     atom  24 (R=0.038)  charge=  1.5039  magn= -0.0298
     atom  25 (R=0.038)  charge=  1.5011  magn=  0.0341
     atom  26 (R=0.038)  charge=  1.4971  magn= -0.0309
     atom  27 (R=0.038)  charge=  1.4841  magn=  0.0353
     atom  28 (R=0.038)  charge=  1.4860  magn= -0.0335
     atom  29 (R=0.038)  charge=  1.4171  magn=  0.0707
     atom  30 (R=0.038)  charge=  1.4171  magn=  0.0706
     atom  31 (R=0.038)  charge=  1.4860  magn= -0.0335
     atom  32 (R=0.038)  charge=  1.4841  magn=  0.0353
     atom  33 (R=0.038)  charge=  1.4971  magn= -0.0309
     atom  34 (R=0.038)  charge=  1.5011  magn=  0.0341
     atom  35 (R=0.038)  charge=  1.5015  magn= -0.0163
     atom  36 (R=0.038)  charge=  1.5045  magn=  0.0333
     atom  37 (R=0.038)  charge=  1.5010  magn= -0.0168
     atom  38 (R=0.038)  charge=  1.5040  magn=  0.0446
     atom  39 (R=0.038)  charge=  1.5108  magn= -0.0300
     atom  40 (R=0.038)  charge=  1.4626  magn=  0.3166
     atom  41 (R=0.038)  charge=  1.5108  magn= -0.0300
     atom  42 (R=0.038)  charge=  1.5040  magn=  0.0446
     atom  43 (R=0.038)  charge=  1.5010  magn= -0.0168
     atom  44 (R=0.038)  charge=  1.5045  magn=  0.0333
     atom  45 (R=0.038)  charge=  1.5033  magn= -0.0300
     atom  46 (R=0.038)  charge=  1.5035  magn=  0.0331
     atom  47 (R=0.038)  charge=  1.5033  magn= -0.0300
     atom  48 (R=0.038)  charge=  1.5034  magn=  0.0351
     atom  49 (R=0.038)  charge=  1.5025  magn= -0.0286
     atom  50 (R=0.038)  charge=  1.4991  magn=  0.0514
     atom  51 (R=0.038)  charge=  1.5051  magn= -0.0194
     atom  52 (R=0.038)  charge=  1.4991  magn=  0.0514
     atom  53 (R=0.038)  charge=  1.5025  magn= -0.0286
     atom  54 (R=0.038)  charge=  1.5034  magn=  0.0351
     atom  55 (R=0.038)  charge=  1.5031  magn= -0.0301
     atom  56 (R=0.038)  charge=  1.5029  magn=  0.0328
     atom  57 (R=0.038)  charge=  1.5009  magn= -0.0153
     atom  58 (R=0.038)  charge=  1.5029  magn=  0.0328
     atom  59 (R=0.038)  charge=  1.5031  magn= -0.0301
     atom  60 (R=0.038)  charge=  1.5035  magn=  0.0348
     atom  61 (R=0.038)  charge=  1.5041  magn= -0.0306
     atom  62 (R=0.038)  charge=  1.5040  magn=  0.0347
     atom  63 (R=0.038)  charge=  1.5041  magn= -0.0306
     atom  64 (R=0.038)  charge=  1.5035  magn=  0.0348
     atom  65 (R=0.038)  charge=  1.5026  magn= -0.0154
     atom  66 (R=0.038)  charge=  1.5034  magn=  0.0339
     atom  67 (R=0.038)  charge=  1.5033  magn= -0.0297
     atom  68 (R=0.038)  charge=  1.5028  magn=  0.0333
     atom  69 (R=0.038)  charge=  1.5033  magn= -0.0297
     atom  70 (R=0.038)  charge=  1.5034  magn=  0.0339
     atom  71 (R=0.038)  charge=  1.5026  magn= -0.0154

     total cpu time spent up to now is      187.4 secs

     End of self-consistent calculation

 ------ SPIN UP ------------


          k = 0.0000 0.0000 0.0000 (171510 PWs)   bands (ev):

   -23.8108 -23.2115 -23.2065 -23.2035 -23.1749 -23.1612 -22.8668 -21.9218
   -21.9196 -21.8781 -21.8776 -21.8508 -21.6790 -21.2957 -21.2505 -21.2446
   -21.2331 -21.1978 -20.7268 -19.4571 -19.4434 -19.4402 -19.4346 -19.4289
   -19.4249 -19.4206 -19.4074 -19.3529 -19.2840 -19.2818 -18.8332 -18.6021
   -18.5625 -18.0440 -17.5035 -17.4599 -17.3562 -16.9415 -16.8983 -16.8610
   -16.4462 -15.7858 -15.7757 -15.7711 -15.7544 -15.7436 -15.7312 -15.7266
   -15.7112 -15.7077 -15.4439 -15.4314 -14.7813 -14.7497 -14.4404 -14.0124
   -13.9733 -13.9711 -13.7518 -13.7442 -12.9942 -12.4455 -12.4273 -12.4108
   -12.4036 -12.3821 -12.3811 -12.3532 -12.3420 -12.3302 -12.3019 -12.2192
   -12.2106 -12.1312 -12.0926 -12.0722 -11.9006 -11.6072 -11.6012 -11.1810
   -11.1730 -11.1707 -11.1361 -11.1334 -10.9071 -10.8328 -10.8252 -10.7894
   -10.7663 -10.7251 -10.7030 -10.6909 -10.4636 -10.4342 -10.1805 -10.1699
   -10.1394 -10.1345 -10.0433  -9.8875  -9.8471  -9.7052  -9.6740  -9.6670
    -9.6648  -9.6454  -9.6237  -9.6208  -9.6106  -9.4304  -8.9828  -8.9517
    -8.9427  -8.9250  -8.9168  -8.9035  -8.8977  -8.5550  -8.5474  -8.5058
    -8.4677  -8.4476  -7.9009  -7.6260  -7.5353  -7.0213  -7.0079  -7.0012
    -6.9780  -6.9766  -6.9662  -6.9581  -6.9538  -6.9423  -6.9109  -6.8783
    -6.7564  -6.6773  -6.6306  -5.4660  -4.4182  -4.4012  -4.3976  -4.1430
    -3.8917  -3.6980  -2.6164  -2.5587  -2.4841  -1.8733  -1.8576  -1.8153
    -1.8075  -1.7814  -1.7738  -1.7662  -1.7508  -1.7494  -1.5455  -1.5378
    -0.9794  -0.3153  -0.1329  -0.1237  -0.1226  -0.1203  -0.0846  -0.0768
     0.0455   0.5547   0.5928   0.6069

 ------ SPIN DOWN ----------


          k = 0.0000 0.0000 0.0000 (171510 PWs)   bands (ev):

   -23.7878 -23.1941 -23.1861 -23.1856 -23.1379 -23.1379 -22.8113 -21.8937
   -21.8864 -21.8623 -21.8413 -21.8347 -21.6401 -21.2555 -21.2317 -21.2293
   -21.1851 -21.1820 -20.6513 -19.4318 -19.4230 -19.4183 -19.4086 -19.4064
   -19.4020 -19.3991 -19.3810 -19.3273 -19.2589 -19.2075 -18.8039 -18.5750
   -18.5163 -17.9230 -17.4676 -17.4340 -17.3526 -16.9585 -16.8070 -16.7743
   -16.4008 -15.7627 -15.7521 -15.7443 -15.7380 -15.7292 -15.7105 -15.6986
   -15.6833 -15.6820 -15.4160 -15.3357 -14.7572 -14.7282 -14.3645 -13.9796
   -13.9546 -13.9449 -13.7286 -13.6869 -12.9037 -12.4221 -12.4151 -12.4008
   -12.3903 -12.3689 -12.3668 -12.3421 -12.3163 -12.2902 -12.2735 -12.1966
   -12.1848 -12.0984 -12.0635 -12.0496 -11.8587 -11.5757 -11.5362 -11.1422
   -11.1327 -11.1316 -11.0908 -11.0862 -10.8621 -10.8154 -10.7728 -10.7599
   -10.7330 -10.7042 -10.6827 -10.6798 -10.4360 -10.4142 -10.1689 -10.1239
   -10.1013 -10.0615 -10.0280  -9.8617  -9.8095  -9.6907  -9.6491  -9.6188
    -9.6115  -9.6049  -9.5906  -9.5865  -9.5798  -9.3600  -8.9156  -8.9021
    -8.8998  -8.8913  -8.8902  -8.8814  -8.8551  -8.5402  -8.5272  -8.4760
    -8.4331  -8.3630  -7.6081  -7.5120  -7.3583  -6.9652  -6.9624  -6.9456
    -6.9427  -6.9306  -6.9258  -6.9143  -6.9129  -6.8943  -6.8531  -6.8185
    -6.7077  -6.6295  -6.5457  -5.2688  -4.4100  -4.0962  -4.0745  -3.6305
    -3.5553  -2.5848  -2.5537  -2.5133  -2.4356  -1.8300  -1.8081  -1.7729
    -1.7548  -1.7457  -1.7318  -1.7232  -1.6987  -1.6979  -1.4658  -1.3360
    -0.9703  -0.2249  -0.1261  -0.1160  -0.1131  -0.1081  -0.0770  -0.0670
     0.0696   0.5908   0.6333   0.6778

     the Fermi energy is    -4.2840 ev

!    total energy              =    -854.74155005 Ry
     estimated scf accuracy    <          9.2E-11 Ry
     smearing contrib. (-TS)   =       0.00246554 Ry
     internal energy E=F+TS    =    -854.74401560 Ry

     The total energy is F=E-TS. E is the sum of the following terms:
     one-electron contribution =   -9612.12858437 Ry
     hartree contribution      =    4832.51727928 Ry
     xc contribution           =    -304.01397482 Ry
     ewald contribution        =    4228.88126432 Ry

     total magnetization       =     1.98 Bohr mag/cell
     absolute magnetization    =     5.98 Bohr mag/cell

     convergence has been achieved in  19 iterations

     Forces acting on atoms (cartesian axes, Ry/au):

     atom    1 type  1   force =     0.00058168   -0.00047384   -0.00000001
     atom    2 type  1   force =    -0.00061692    0.00106819    0.00000002
     atom    3 type  1   force =     0.00011985   -0.00074051   -0.00000001
     atom    4 type  1   force =    -0.00154318    0.00195885   -0.00000001
     atom    5 type  1   force =     0.00224328   -0.00228646    0.00000001
     atom    6 type  1   force =     0.00151064   -0.00400899   -0.00000000
     atom    7 type  1   force =    -0.00042115    0.00052335    0.00000000
     atom    8 type  1   force =     0.00119500   -0.00206957   -0.00000001
     atom    9 type  1   force =    -0.00024265    0.00062666   -0.00000001
     atom   10 type  1   force =     0.00271572   -0.00331404    0.00000000
     atom   11 type  1   force =     0.00085892   -0.00308616    0.00000000
     atom   12 type  1   force =    -0.00092501    0.00231567    0.00000001
     atom   13 type  1   force =     0.00048835   -0.00084566   -0.00000001
     atom   14 type  1   force =    -0.00119198   -0.00124445    0.00000001
     atom   15 type  1   force =     0.00194910   -0.00022431    0.00000001
     atom   16 type  1   force =     0.00955235   -0.00284723   -0.00000001
     atom   17 type  1   force =    -0.00074253    0.00754846    0.00000001
     atom   18 type  1   force =    -0.00927665    0.00168595    0.00000000
     atom   19 type  1   force =    -0.00875061    0.01515590    0.00000002
     atom   20 type  1   force =     0.00317283    0.00887102    0.00000000
     atom   21 type  1   force =    -0.00616454    0.00441446   -0.00000000
     atom   22 type  1   force =    -0.00231118   -0.00969682   -0.00000001
     atom   23 type  1   force =    -0.00077995   -0.00179996    0.00000001
     atom   24 type  1   force =     0.00167356    0.00041001   -0.00000000
     atom   25 type  1   force =     0.00274265    0.00319066   -0.00000001
     atom   26 type  1   force =     0.01066268    0.00842404   -0.00000000
     atom   27 type  1   force =     0.01055202    0.00302252    0.00000001
     atom   28 type  1   force =    -0.00160051    0.00276967   -0.00000001
     atom   29 type  2   force =     0.01099331    0.02262361   -0.00000001
     atom   30 type  2   force =    -0.02508315    0.00177445    0.00000001
     atom   31 type  1   force =    -0.00159907    0.00276827    0.00000000
     atom   32 type  1   force =    -0.00789359   -0.00762720   -0.00000001
     atom   33 type  1   force =    -0.01262707   -0.00502259   -0.00000000
     atom   34 type  1   force =    -0.00413445   -0.00077987   -0.00000000
     atom   35 type  1   force =     0.00000358   -0.00000633    0.00000000
     atom   36 type  1   force =    -0.00139010    0.00080574    0.00000000
     atom   37 type  1   force =     0.00739563    0.01357574    0.00000001
     atom   38 type  1   force =     0.00202023   -0.00223176   -0.00000000
     atom   39 type  1   force =     0.00568127   -0.01655083    0.00000000
     atom   40 type  2   force =     0.00770233   -0.01331756    0.00000000
     atom   41 type  1   force =     0.01149380   -0.01319963    0.00000001
     atom   42 type  1   force =     0.00092512   -0.00286549   -0.00000001
     atom   43 type  1   force =    -0.01545441    0.00038319   -0.00000001
     atom   44 type  1   force =    -0.00000245    0.00160682   -0.00000001
     atom   45 type  1   force =    -0.00107461    0.00117887    0.00000001
     atom   46 type  1   force =     0.00029766   -0.00051546   -0.00000001
     atom   47 type  1   force =    -0.00048370    0.00152002   -0.00000001
     atom   48 type  1   force =     0.00028421   -0.00096007    0.00000001
     atom   49 type  1   force =     0.00226384    0.00410648    0.00000000
     atom   50 type  1   force =     0.00052950   -0.01042422   -0.00000001
     atom   51 type  1   force =    -0.00180967    0.00313371    0.00000002
     atom   52 type  1   force =     0.00876572   -0.00567067    0.00000000
     atom   53 type  1   force =    -0.00468787    0.00009193    0.00000001
     atom   54 type  1   force =     0.00068946   -0.00072619   -0.00000000
     atom   55 type  1   force =    -0.00105564   -0.00046731    0.00000000
     atom   56 type  1   force =     0.00076817   -0.00074971   -0.00000001
     atom   57 type  1   force =    -0.00072669    0.00125862   -0.00000000
     atom   58 type  1   force =     0.00026530   -0.00103998    0.00000000
     atom   59 type  1   force =     0.00093246    0.00068040   -0.00000000
     atom   60 type  1   force =     0.00072984   -0.00078923    0.00000002
     atom   61 type  1   force =    -0.00016363   -0.00049471   -0.00000001
     atom   62 type  1   force =     0.00074881   -0.00129671   -0.00000000
     atom   63 type  1   force =     0.00051005   -0.00010580   -0.00000001
     atom   64 type  1   force =     0.00031910   -0.00102645   -0.00000000
     atom   65 type  1   force =    -0.00050927    0.00034916    0.00000000
     atom   66 type  1   force =     0.00005532   -0.00005430   -0.00000002
     atom   67 type  1   force =    -0.00124316    0.00053855    0.00000000
     atom   68 type  1   force =     0.00098570   -0.00170727   -0.00000001
     atom   69 type  1   force =     0.00015512    0.00134582   -0.00000000
     atom   70 type  1   force =     0.00001948   -0.00007491    0.00000000
     atom   71 type  1   force =    -0.00004824    0.00061545   -0.00000001

     Total force =     0.066901     Total SCF correction =     0.000008
     Energy error            =      1.2E-02 Ry
     Gradient error          =      2.5E-02 Ry/Bohr

     number of scf cycles    =   3
     number of bfgs steps    =   2

     energy             old  =    -854.7296455938 Ry
     energy             new  =    -854.7415500543 Ry

     CASE: energy            _new < energy            _old

     new trust radius        =       0.0263028084 bohr
     new conv_thr            =            1.0E-10 Ry


ATOMIC_POSITIONS (crystal)
C                0.0554118946        0.0557597457       -0.0000000004
C                0.1110686382        0.1111323406       -0.0000000012
C                0.0554119038        0.2221617071        0.0000000010
C                0.1112741032        0.2777639767        0.0000000006
C                0.0557315738        0.3888254654        0.0000000001
C                0.1115154644        0.4442354541       -0.0000000000
C                0.0552752401        0.5555731822       -0.0000000001
C                0.1113263636        0.6110034881        0.0000000009
C                0.0552752355        0.7224849179       -0.0000000009
C                0.1115154996        0.7775823169       -0.0000000001
C                0.0557315946        0.8887763096        0.0000000000
C                0.1112740998        0.9442952343        0.0000000007
C                0.2222162268        0.0555585658       -0.0000000010
C                0.2779021067        0.1109715566       -0.0000000014
C                0.2219507549        0.2223033889        0.0000000003
C                0.2779472507        0.2780386800       -0.0000000005
C                0.2222649127        0.3888987756       -0.0000000007
C                0.2782554587        0.4452196930       -0.0000000001
C                0.2204114551        0.5564609201        0.0000000013
C                0.2782556665        0.6098576148       -0.0000000003
C                0.2222650856        0.7221695533        0.0000000003
C                0.2779472703        0.7773473573        0.0000000007
C                0.2219507566        0.8890792163        0.0000000006
C                0.2779021120        0.9444596491        0.0000000009
C                0.3886294929        0.0558314724       -0.0000000005
C                0.4445939998        0.1118961677        0.0000000005
C                0.3887941407        0.2238310140       -0.0000000003
C                0.4447110114        0.2811275269       -0.0000000005
C1               0.3855928106        0.3925027698        0.0000000003
C1               0.3855939249        0.5552369876       -0.0000000003
C                0.4447111778        0.6074945990       -0.0000000002
C                0.3887941398        0.7207081884        0.0000000002
C                0.4445940170        0.7768431258        0.0000000001
C                0.3886294852        0.8888723801        0.0000000004
C                0.4445291033        0.9444021099        0.0000000004
C                0.5552461781        0.0557065416        0.0000000010
C                0.6105560048        0.1119933357        0.0000000003
C                0.5557320369        0.2221608946        0.0000000005
C                0.6115012236        0.2781559325        0.0000000004
C1               0.5609756917        0.3861794657        0.0000000003
C                0.6115015348        0.4436760195       -0.0000000004
C                0.5557321136        0.5554404825        0.0000000011
C                0.6105560023        0.6107839984        0.0000000005
C                0.5552461881        0.7223806308       -0.0000000003
C                0.6111809032        0.7777180665       -0.0000000003
C                0.5554620389        0.8889356557       -0.0000000013
C                0.6111808979        0.9444343500       -0.0000000003
C                0.7224215261        0.0555393651        0.0000000001
C                0.7779333882        0.1110392852        0.0000000001
C                0.7223587548        0.2223501254        0.0000000002
C                0.7776866265        0.2778233504       -0.0000000007
C                0.7223588561        0.3886245266       -0.0000000011
C                0.7779334397        0.4443606173       -0.0000000001
C                0.7224215359        0.5553724534        0.0000000002
C                0.7778294487        0.6108452172       -0.0000000002
C                0.7220377594        0.7223398592        0.0000000000
C                0.7777530064        0.7777901588       -0.0000000000
C                0.7220377608        0.8889557281        0.0000000002
C                0.7778294590        0.9446586445        0.0000000004
C                0.8887649849        0.0555616081        0.0000000006
C                0.9446268641        0.1111542323        0.0000000006
C                0.8891205984        0.2221063800        0.0000000001
C                0.9446268604        0.2775522186        0.0000000004
C                0.8887649837        0.3890067687       -0.0000000000
C                0.9444026933        0.4445290634       -0.0000000006
C                0.8887956846        0.5554002000       -0.0000000008
C                0.9447577495        0.6110196566       -0.0000000000
C                0.8890126810        0.7221603350       -0.0000000001
C                0.9447577439        0.7775559161       -0.0000000009
C                0.8887956771        0.8891374657       -0.0000000005
C                0.9444026884        0.9444015557       -0.0000000000



     Writing config-only to output data dir /home/gregb26/links/scratch/qe_tmp/vacancy_relaxed/series/6x6/nspin2/vac_6x6_relax_nspin2.save/ :
     XML data file
     NEW-OLD atomic charge density approx. for the potential

     negative rho (up, down):  1.839E-06 1.856E-06
     Generating pointlists ...

     total cpu time spent up to now is      188.6 secs

     per-process dynamical memory:   204.9 Mb

     Self-consistent Calculation

     iteration #  1     ecut=   100.00 Ry     beta= 0.30
     Davidson diagonalization with overlap
     ethr =  1.00E-06,  avg # of iterations =  6.0
     Minimization algorithm failed to find Fermi energy: reverting to bisection
     Possible cause: smearing is larger than the electronic band-gap.

     negative rho (up, down):  1.411E-06 1.185E-06

     total cpu time spent up to now is      192.7 secs

     total energy              =    -854.74437069 Ry
     estimated scf accuracy    <       0.00245113 Ry

     total magnetization       =     2.01 Bohr mag/cell
     absolute magnetization    =     5.97 Bohr mag/cell

     iteration #  2     ecut=   100.00 Ry     beta= 0.30
     Davidson diagonalization with overlap
     ethr =  8.63E-07,  avg # of iterations = 16.0

     negative rho (up, down):  1.297E-06 1.089E-06

     total cpu time spent up to now is      195.6 secs

     total energy              =    -854.74359580 Ry
     estimated scf accuracy    <       0.01673678 Ry

     total magnetization       =     1.87 Bohr mag/cell
     absolute magnetization    =     5.89 Bohr mag/cell

     iteration #  3     ecut=   100.00 Ry     beta= 0.30
     Davidson diagonalization with overlap
     ethr =  8.63E-07,  avg # of iterations =  2.0

     negative rho (up, down):  7.580E-07 6.362E-07

     total cpu time spent up to now is      197.5 secs

     total energy              =    -854.74485819 Ry
     estimated scf accuracy    <       0.00129309 Ry

     total magnetization       =     2.02 Bohr mag/cell
     absolute magnetization    =     5.96 Bohr mag/cell

     iteration #  4     ecut=   100.00 Ry     beta= 0.30
     Davidson diagonalization with overlap
     ethr =  4.55E-07,  avg # of iterations =  1.0
     Minimization algorithm failed to find Fermi energy: reverting to bisection
     Possible cause: smearing is larger than the electronic band-gap.

     negative rho (up, down):  3.290E-07 2.762E-07

     total cpu time spent up to now is      199.2 secs

     total energy              =    -854.74488867 Ry
     estimated scf accuracy    <       0.00044793 Ry

     total magnetization       =     2.01 Bohr mag/cell
     absolute magnetization    =     5.95 Bohr mag/cell

     iteration #  5     ecut=   100.00 Ry     beta= 0.30
     Davidson diagonalization with overlap
     ethr =  1.58E-07,  avg # of iterations =  2.0
     Minimization algorithm failed to find Fermi energy: reverting to bisection
     Possible cause: smearing is larger than the electronic band-gap.

     negative rho (up, down):  8.048E-08 6.737E-08

     total cpu time spent up to now is      201.0 secs

     total energy              =    -854.74491530 Ry
     estimated scf accuracy    <       0.00011158 Ry

     total magnetization       =     2.01 Bohr mag/cell
     absolute magnetization    =     5.94 Bohr mag/cell

     iteration #  6     ecut=   100.00 Ry     beta= 0.30
     Davidson diagonalization with overlap
     ethr =  3.93E-08,  avg # of iterations =  2.0

     total cpu time spent up to now is      202.9 secs

     total energy              =    -854.74493046 Ry
     estimated scf accuracy    <       0.00001432 Ry

     total magnetization       =     2.00 Bohr mag/cell
     absolute magnetization    =     5.93 Bohr mag/cell

     iteration #  7     ecut=   100.00 Ry     beta= 0.30
     Davidson diagonalization with overlap
     ethr =  5.04E-09,  avg # of iterations =  4.5

     total cpu time spent up to now is      205.1 secs

     total energy              =    -854.74493710 Ry
     estimated scf accuracy    <       0.00000759 Ry

     total magnetization       =     2.01 Bohr mag/cell
     absolute magnetization    =     5.92 Bohr mag/cell

     iteration #  8     ecut=   100.00 Ry     beta= 0.30
     Davidson diagonalization with overlap
     ethr =  2.67E-09,  avg # of iterations =  2.5
     Minimization algorithm failed to find Fermi energy: reverting to bisection
     Possible cause: smearing is larger than the electronic band-gap.

     total cpu time spent up to now is      207.1 secs

     total energy              =    -854.74493981 Ry
     estimated scf accuracy    <       0.00000622 Ry

     total magnetization       =     2.01 Bohr mag/cell
     absolute magnetization    =     5.92 Bohr mag/cell

     iteration #  9     ecut=   100.00 Ry     beta= 0.30
     Davidson diagonalization with overlap
     ethr =  2.19E-09,  avg # of iterations =  3.0

     negative rho (up, down):  1.076E-08 8.236E-09

     total cpu time spent up to now is      209.2 secs

     total energy              =    -854.74494120 Ry
     estimated scf accuracy    <       0.00000326 Ry

     total magnetization       =     2.01 Bohr mag/cell
     absolute magnetization    =     5.91 Bohr mag/cell

     iteration # 10     ecut=   100.00 Ry     beta= 0.30
     Davidson diagonalization with overlap
     ethr =  1.15E-09,  avg # of iterations =  2.5

     total cpu time spent up to now is      211.2 secs

     total energy              =    -854.74494198 Ry
     estimated scf accuracy    <       0.00000063 Ry

     total magnetization       =     2.01 Bohr mag/cell
     absolute magnetization    =     5.91 Bohr mag/cell

     iteration # 11     ecut=   100.00 Ry     beta= 0.30
     Davidson diagonalization with overlap
     ethr =  2.23E-10,  avg # of iterations =  4.5

     total cpu time spent up to now is      213.7 secs

     total energy              =    -854.74494236 Ry
     estimated scf accuracy    <       0.00000013 Ry

     total magnetization       =     2.01 Bohr mag/cell
     absolute magnetization    =     5.90 Bohr mag/cell

     iteration # 12     ecut=   100.00 Ry     beta= 0.30
     Davidson diagonalization with overlap
     ethr =  4.69E-11,  avg # of iterations =  4.5

     total cpu time spent up to now is      216.3 secs

     total energy              =    -854.74494252 Ry
     estimated scf accuracy    <       0.00000004 Ry

     total magnetization       =     2.01 Bohr mag/cell
     absolute magnetization    =     5.90 Bohr mag/cell

     iteration # 13     ecut=   100.00 Ry     beta= 0.30
     Davidson diagonalization with overlap
     ethr =  1.54E-11,  avg # of iterations =  4.0
     Minimization algorithm failed to find Fermi energy: reverting to bisection
     Possible cause: smearing is larger than the electronic band-gap.

     total cpu time spent up to now is      219.0 secs

     total energy              =    -854.74494258 Ry
     estimated scf accuracy    <       0.00000001 Ry

     total magnetization       =     2.01 Bohr mag/cell
     absolute magnetization    =     5.89 Bohr mag/cell

     iteration # 14     ecut=   100.00 Ry     beta= 0.30
     Davidson diagonalization with overlap
     ethr =  4.40E-12,  avg # of iterations =  5.0

     total cpu time spent up to now is      222.0 secs

     total energy              =    -854.74494262 Ry
     estimated scf accuracy    <          6.7E-09 Ry

     total magnetization       =     2.01 Bohr mag/cell
     absolute magnetization    =     5.89 Bohr mag/cell

     iteration # 15     ecut=   100.00 Ry     beta= 0.30
     Davidson diagonalization with overlap
     ethr =  2.36E-12,  avg # of iterations =  5.0
     Minimization algorithm failed to find Fermi energy: reverting to bisection
     Possible cause: smearing is larger than the electronic band-gap.

     total cpu time spent up to now is      225.3 secs

     total energy              =    -854.74494264 Ry
     estimated scf accuracy    <          2.9E-09 Ry

     total magnetization       =     2.01 Bohr mag/cell
     absolute magnetization    =     5.89 Bohr mag/cell

     iteration # 16     ecut=   100.00 Ry     beta= 0.30
     Davidson diagonalization with overlap
     ethr =  1.01E-12,  avg # of iterations =  5.0

     total cpu time spent up to now is      228.8 secs

     total energy              =    -854.74494265 Ry
     estimated scf accuracy    <          1.0E-09 Ry

     total magnetization       =     2.01 Bohr mag/cell
     absolute magnetization    =     5.89 Bohr mag/cell

     iteration # 17     ecut=   100.00 Ry     beta= 0.30
     Davidson diagonalization with overlap
     ethr =  3.57E-13,  avg # of iterations =  5.0

     total cpu time spent up to now is      231.9 secs

     total energy              =    -854.74494266 Ry
     estimated scf accuracy    <          4.4E-10 Ry

     total magnetization       =     2.01 Bohr mag/cell
     absolute magnetization    =     5.88 Bohr mag/cell

     iteration # 18     ecut=   100.00 Ry     beta= 0.30
     Davidson diagonalization with overlap
     ethr =  1.55E-13,  avg # of iterations =  4.5
     Minimization algorithm failed to find Fermi energy: reverting to bisection
     Possible cause: smearing is larger than the electronic band-gap.

     total cpu time spent up to now is      234.7 secs

     total energy              =    -854.74494266 Ry
     estimated scf accuracy    <          1.4E-10 Ry

     total magnetization       =     2.01 Bohr mag/cell
     absolute magnetization    =     5.88 Bohr mag/cell

     iteration # 19     ecut=   100.00 Ry     beta= 0.30
     Davidson diagonalization with overlap
     ethr =  1.00E-13,  avg # of iterations =  4.5

     Magnetic moment per site  (integrated on atomic sphere of radius R)
     atom   1 (R=0.038)  charge=  1.5040  magn=  0.0326
     atom   2 (R=0.038)  charge=  1.5029  magn= -0.0149
     atom   3 (R=0.038)  charge=  1.5040  magn=  0.0326
     atom   4 (R=0.038)  charge=  1.5039  magn= -0.0285
     atom   5 (R=0.038)  charge=  1.5021  magn=  0.0331
     atom   6 (R=0.038)  charge=  1.5033  magn= -0.0281
     atom   7 (R=0.038)  charge=  1.5041  magn=  0.0327
     atom   8 (R=0.038)  charge=  1.5093  magn= -0.0145
     atom   9 (R=0.038)  charge=  1.5041  magn=  0.0327
     atom  10 (R=0.038)  charge=  1.5033  magn= -0.0281
     atom  11 (R=0.038)  charge=  1.5021  magn=  0.0331
     atom  12 (R=0.038)  charge=  1.5039  magn= -0.0285
     atom  13 (R=0.038)  charge=  1.5035  magn=  0.0326
     atom  14 (R=0.038)  charge=  1.5041  magn= -0.0288
     atom  15 (R=0.038)  charge=  1.5013  magn=  0.0327
     atom  16 (R=0.038)  charge=  1.5015  magn= -0.0143
     atom  17 (R=0.038)  charge=  1.4987  magn=  0.0351
     atom  18 (R=0.038)  charge=  1.5146  magn= -0.0225
     atom  19 (R=0.038)  charge=  1.5147  magn=  0.0340
     atom  20 (R=0.038)  charge=  1.5146  magn= -0.0225
     atom  21 (R=0.038)  charge=  1.4987  magn=  0.0351
     atom  22 (R=0.038)  charge=  1.5015  magn= -0.0143
     atom  23 (R=0.038)  charge=  1.5013  magn=  0.0327
     atom  24 (R=0.038)  charge=  1.5041  magn= -0.0288
     atom  25 (R=0.038)  charge=  1.4986  magn=  0.0329
     atom  26 (R=0.038)  charge=  1.4961  magn= -0.0302
     atom  27 (R=0.038)  charge=  1.4887  magn=  0.0330
     atom  28 (R=0.038)  charge=  1.4833  magn= -0.0327
     atom  29 (R=0.038)  charge=  1.4116  magn=  0.0713
     atom  30 (R=0.038)  charge=  1.4116  magn=  0.0711
     atom  31 (R=0.038)  charge=  1.4833  magn= -0.0327
     atom  32 (R=0.038)  charge=  1.4887  magn=  0.0330
     atom  33 (R=0.038)  charge=  1.4961  magn= -0.0302
     atom  34 (R=0.038)  charge=  1.4986  magn=  0.0329
     atom  35 (R=0.038)  charge=  1.4994  magn= -0.0160
     atom  36 (R=0.038)  charge=  1.5026  magn=  0.0320
     atom  37 (R=0.038)  charge=  1.5004  magn= -0.0165
     atom  38 (R=0.038)  charge=  1.5046  magn=  0.0436
     atom  39 (R=0.038)  charge=  1.5130  magn= -0.0282
     atom  40 (R=0.038)  charge=  1.4622  magn=  0.3370
     atom  41 (R=0.038)  charge=  1.5130  magn= -0.0282
     atom  42 (R=0.038)  charge=  1.5046  magn=  0.0436
     atom  43 (R=0.038)  charge=  1.5004  magn= -0.0165
     atom  44 (R=0.038)  charge=  1.5026  magn=  0.0320
     atom  45 (R=0.038)  charge=  1.5029  magn= -0.0291
     atom  46 (R=0.038)  charge=  1.5035  magn=  0.0315
     atom  47 (R=0.038)  charge=  1.5029  magn= -0.0291
     atom  48 (R=0.038)  charge=  1.5014  magn=  0.0339
     atom  49 (R=0.038)  charge=  1.5041  magn= -0.0272
     atom  50 (R=0.038)  charge=  1.5054  magn=  0.0502
     atom  51 (R=0.038)  charge=  1.5051  magn= -0.0192
     atom  52 (R=0.038)  charge=  1.5054  magn=  0.0502
     atom  53 (R=0.038)  charge=  1.5041  magn= -0.0272
     atom  54 (R=0.038)  charge=  1.5014  magn=  0.0339
     atom  55 (R=0.038)  charge=  1.5030  magn= -0.0291
     atom  56 (R=0.038)  charge=  1.5024  magn=  0.0319
     atom  57 (R=0.038)  charge=  1.5007  magn= -0.0150
     atom  58 (R=0.038)  charge=  1.5024  magn=  0.0319
     atom  59 (R=0.038)  charge=  1.5030  magn= -0.0291
     atom  60 (R=0.038)  charge=  1.5031  magn=  0.0336
     atom  61 (R=0.038)  charge=  1.5043  magn= -0.0295
     atom  62 (R=0.038)  charge=  1.5032  magn=  0.0331
     atom  63 (R=0.038)  charge=  1.5043  magn= -0.0295
     atom  64 (R=0.038)  charge=  1.5031  magn=  0.0336
     atom  65 (R=0.038)  charge=  1.5020  magn= -0.0149
     atom  66 (R=0.038)  charge=  1.5035  magn=  0.0328
     atom  67 (R=0.038)  charge=  1.5035  magn= -0.0287
     atom  68 (R=0.038)  charge=  1.5023  magn=  0.0326
     atom  69 (R=0.038)  charge=  1.5035  magn= -0.0287
     atom  70 (R=0.038)  charge=  1.5035  magn=  0.0328
     atom  71 (R=0.038)  charge=  1.5020  magn= -0.0149

     total cpu time spent up to now is      237.3 secs

     End of self-consistent calculation

 ------ SPIN UP ------------


          k = 0.0000 0.0000 0.0000 (171510 PWs)   bands (ev):

   -23.8115 -23.2131 -23.2076 -23.2028 -23.1824 -23.1578 -22.8648 -21.9206
   -21.9172 -21.8842 -21.8788 -21.8475 -21.6696 -21.2931 -21.2624 -21.2531
   -21.2282 -21.1807 -20.6948 -19.4601 -19.4435 -19.4419 -19.4321 -19.4263
   -19.4228 -19.4180 -19.4019 -19.3779 -19.2699 -19.2536 -18.8327 -18.6002
   -18.5541 -18.0263 -17.4998 -17.4541 -17.3462 -16.9474 -16.8959 -16.8556
   -16.4455 -15.7836 -15.7635 -15.7620 -15.7510 -15.7401 -15.7387 -15.7285
   -15.7064 -15.7059 -15.4396 -15.4244 -14.7821 -14.7396 -14.4482 -13.9948
   -13.9703 -13.9511 -13.7576 -13.7480 -13.0071 -12.4268 -12.4227 -12.4076
   -12.3949 -12.3894 -12.3831 -12.3549 -12.3377 -12.3316 -12.3053 -12.2081
   -12.2034 -12.1225 -12.0832 -12.0687 -11.9009 -11.6155 -11.6102 -11.1834
   -11.1745 -11.1698 -11.1413 -11.1294 -10.8860 -10.8189 -10.8160 -10.7766
   -10.7665 -10.7235 -10.7090 -10.7002 -10.4593 -10.4384 -10.1719 -10.1635
   -10.1326 -10.1184 -10.0698  -9.8670  -9.8255  -9.7002  -9.6641  -9.6625
    -9.6620  -9.6474  -9.6263  -9.6241  -9.6069  -9.4215  -8.9769  -8.9499
    -8.9373  -8.9238  -8.9229  -8.9032  -8.8938  -8.5595  -8.5368  -8.5034
    -8.4394  -8.4369  -7.8971  -7.6149  -7.5353  -7.0250  -7.0048  -7.0042
    -6.9823  -6.9795  -6.9592  -6.9531  -6.9487  -6.9333  -6.8962  -6.8924
    -6.7578  -6.6728  -6.6177  -5.4479  -4.4281  -4.4146  -4.3935  -4.1438
    -3.8024  -3.6922  -2.6123  -2.5544  -2.4854  -1.8699  -1.8543  -1.8210
    -1.8042  -1.7826  -1.7823  -1.7691  -1.7438  -1.7281  -1.5427  -1.5385
    -0.9800  -0.3326  -0.1356  -0.1242  -0.1238  -0.1223  -0.0836  -0.0771
     0.0505   0.5613   0.6019   0.6165

 ------ SPIN DOWN ----------


          k = 0.0000 0.0000 0.0000 (171510 PWs)   bands (ev):

   -23.7890 -23.1963 -23.1880 -23.1847 -23.1462 -23.1355 -22.8092 -21.8926
   -21.8874 -21.8665 -21.8433 -21.8316 -21.6314 -21.2535 -21.2413 -21.2396
   -21.1797 -21.1648 -20.6168 -19.4346 -19.4202 -19.4168 -19.4137 -19.4048
   -19.4033 -19.3918 -19.3813 -19.3511 -19.2298 -19.1902 -18.8040 -18.5724
   -18.5047 -17.9048 -17.4632 -17.4288 -17.3404 -16.9612 -16.8045 -16.7736
   -16.3970 -15.7606 -15.7417 -15.7359 -15.7356 -15.7247 -15.7183 -15.7036
   -15.6789 -15.6758 -15.4119 -15.3215 -14.7573 -14.7176 -14.3693 -13.9619
   -13.9411 -13.9352 -13.7344 -13.6867 -12.9132 -12.4109 -12.4063 -12.3961
   -12.3837 -12.3746 -12.3688 -12.3444 -12.3144 -12.2910 -12.2735 -12.1830
   -12.1782 -12.0889 -12.0549 -12.0445 -11.8607 -11.5902 -11.5344 -11.1458
   -11.1352 -11.1333 -11.0936 -11.0898 -10.8432 -10.7995 -10.7613 -10.7544
   -10.7378 -10.7056 -10.6865 -10.6810 -10.4327 -10.4187 -10.1509 -10.1152
   -10.0926 -10.0532 -10.0527  -9.8413  -9.7858  -9.6845  -9.6396  -9.6186
    -9.6167  -9.6063  -9.5913  -9.5834  -9.5813  -9.3528  -8.9088  -8.8989
    -8.8975  -8.8975  -8.8962  -8.8721  -8.8545  -8.5453  -8.5166  -8.4733
    -8.4191  -8.3346  -7.5961  -7.5114  -7.3419  -6.9695  -6.9645  -6.9458
    -6.9446  -6.9393  -6.9247  -6.9156  -6.9133  -6.8867  -6.8618  -6.8072
    -6.7116  -6.6262  -6.5239  -5.2499  -4.4080  -4.0971  -4.0753  -3.6173
    -3.4588  -2.5495  -2.5113  -2.4603  -2.4390  -1.8255  -1.8100  -1.7802
    -1.7570  -1.7474  -1.7328  -1.7268  -1.6971  -1.6878  -1.4587  -1.3302
    -0.9710  -0.2377  -0.1290  -0.1175  -0.1155  -0.1100  -0.0767  -0.0675
     0.0760   0.6021   0.6421   0.6761

     the Fermi energy is    -4.2874 ev

!    total energy              =    -854.74494266 Ry
     estimated scf accuracy    <          5.7E-11 Ry
     smearing contrib. (-TS)   =       0.00255423 Ry
     internal energy E=F+TS    =    -854.74749689 Ry

     The total energy is F=E-TS. E is the sum of the following terms:
     one-electron contribution =   -9612.30388723 Ry
     hartree contribution      =    4832.64548191 Ry
     xc contribution           =    -304.02399015 Ry
     ewald contribution        =    4228.93489858 Ry

     total magnetization       =     2.01 Bohr mag/cell
     absolute magnetization    =     5.88 Bohr mag/cell

     convergence has been achieved in  19 iterations

     Forces acting on atoms (cartesian axes, Ry/au):

     atom    1 type  1   force =     0.00001572    0.00063933    0.00000004
     atom    2 type  1   force =     0.00076621   -0.00132756   -0.00000000
     atom    3 type  1   force =    -0.00056075    0.00030593   -0.00000002
     atom    4 type  1   force =     0.00215195   -0.00131052    0.00000002
     atom    5 type  1   force =    -0.00040159   -0.00002674    0.00000000
     atom    6 type  1   force =    -0.00129657    0.00632085    0.00000001
     atom    7 type  1   force =    -0.00443037   -0.00004262   -0.00000003
     atom    8 type  1   force =    -0.00167144    0.00289501   -0.00000001
     atom    9 type  1   force =     0.00225290    0.00381536    0.00000003
     atom   10 type  1   force =    -0.00482685    0.00428016   -0.00000000
     atom   11 type  1   force =     0.00022493    0.00033399   -0.00000001
     atom   12 type  1   force =     0.00005800   -0.00251937   -0.00000000
     atom   13 type  1   force =    -0.00063853    0.00110750   -0.00000001
     atom   14 type  1   force =     0.00179448    0.00107320    0.00000002
     atom   15 type  1   force =     0.00558204   -0.00090943   -0.00000002
     atom   16 type  1   force =     0.00336690    0.00351974   -0.00000000
     atom   17 type  1   force =    -0.00707509   -0.00341133    0.00000001
     atom   18 type  1   force =     0.00428604    0.00430294    0.00000003
     atom   19 type  1   force =    -0.00487837    0.00844840   -0.00000001
     atom   20 type  1   force =    -0.00587457   -0.00157638   -0.00000006
     atom   21 type  1   force =     0.00649136    0.00441606    0.00000001
     atom   22 type  1   force =    -0.00473157   -0.00115775    0.00000000
     atom   23 type  1   force =    -0.00200277   -0.00528872    0.00000004
     atom   24 type  1   force =    -0.00182742   -0.00101872   -0.00000003
     atom   25 type  1   force =     0.00537793    0.00220547   -0.00000001
     atom   26 type  1   force =     0.00201994   -0.00120527   -0.00000000
     atom   27 type  1   force =     0.00181508    0.00544675    0.00000000
     atom   28 type  1   force =     0.01631313    0.00979454   -0.00000002
     atom   29 type  2   force =     0.00910152    0.01690849    0.00000004
     atom   30 type  2   force =    -0.01918878    0.00054513    0.00000003
     atom   31 type  1   force =    -0.01663785   -0.00923661    0.00000002
     atom   32 type  1   force =    -0.00562403    0.00115178   -0.00000001
     atom   33 type  1   force =     0.00003233   -0.00235283   -0.00000000
     atom   34 type  1   force =    -0.00459875   -0.00355409    0.00000001
     atom   35 type  1   force =     0.00036446   -0.00063199   -0.00000001
     atom   36 type  1   force =     0.00265060    0.00577612   -0.00000001
     atom   37 type  1   force =     0.00177223    0.00211957   -0.00000001
     atom   38 type  1   force =     0.00011565    0.00053116   -0.00000004
     atom   39 type  1   force =     0.00792473   -0.00063561    0.00000002
     atom   40 type  2   force =     0.00925752   -0.01600493    0.00000002
     atom   41 type  1   force =    -0.00340119   -0.00718528   -0.00000001
     atom   42 type  1   force =    -0.00051290    0.00016506   -0.00000001
     atom   43 type  1   force =    -0.00272180   -0.00047512    0.00000000
     atom   44 type  1   force =    -0.00632613    0.00059302   -0.00000001
     atom   45 type  1   force =    -0.00173437   -0.00119515   -0.00000001
     atom   46 type  1   force =    -0.00134466    0.00233053   -0.00000000
     atom   47 type  1   force =     0.00190107    0.00090418    0.00000002
     atom   48 type  1   force =     0.00207446    0.00415476   -0.00000001
     atom   49 type  1   force =    -0.00166770   -0.00799186   -0.00000000
     atom   50 type  1   force =     0.00498051   -0.00915325    0.00000001
     atom   51 type  1   force =     0.00318609   -0.00551665    0.00000000
     atom   52 type  1   force =     0.00544133   -0.00889291   -0.00000001
     atom   53 type  1   force =     0.00775553   -0.00255314    0.00000002
     atom   54 type  1   force =    -0.00463346    0.00028104    0.00000001
     atom   55 type  1   force =    -0.00125375    0.00095945    0.00000003
     atom   56 type  1   force =    -0.00103877    0.00054563    0.00000001
     atom   57 type  1   force =     0.00091140   -0.00157935    0.00000002
     atom   58 type  1   force =     0.00004787    0.00117256    0.00000000
     atom   59 type  1   force =    -0.00020509    0.00156443   -0.00000004
     atom   60 type  1   force =     0.00043101    0.00063654   -0.00000001
     atom   61 type  1   force =    -0.00009227   -0.00085567    0.00000000
     atom   62 type  1   force =    -0.00147529    0.00255625   -0.00000000
     atom   63 type  1   force =     0.00078626   -0.00034782   -0.00000001
     atom   64 type  1   force =    -0.00076589   -0.00005480   -0.00000002
     atom   65 type  1   force =     0.00185233   -0.00049096    0.00000000
     atom   66 type  1   force =    -0.00175456   -0.00109131   -0.00000002
     atom   67 type  1   force =     0.00098685   -0.00158835   -0.00000002
     atom   68 type  1   force =    -0.00109920    0.00190525    0.00000000
     atom   69 type  1   force =     0.00088082   -0.00164865    0.00000002
     atom   70 type  1   force =     0.00182263    0.00097449    0.00000003
     atom   71 type  1   force =    -0.00050149   -0.00184990   -0.00000001

     Total force =     0.056886     Total SCF correction =     0.000008
     Energy error            =      3.4E-03 Ry
     Gradient error          =      1.9E-02 Ry/Bohr

     number of scf cycles    =   4
     number of bfgs steps    =   3

     energy             old  =    -854.7415500543 Ry
     energy             new  =    -854.7449426578 Ry

     CASE: energy            _new < energy            _old

     new trust radius        =       0.0578661784 bohr
     new conv_thr            =            1.0E-10 Ry


ATOMIC_POSITIONS (crystal)
C                0.0553570988        0.0558484135        0.0000000012
C                0.1110852649        0.1111240098       -0.0000000014
C                0.0553571419        0.2221278650        0.0000000003
C                0.1113474504        0.2777853297        0.0000000016
C                0.0558630648        0.3887916056        0.0000000002
C                0.1115279321        0.4442341930        0.0000000001
C                0.0551522484        0.5555198653       -0.0000000018
C                0.1107924509        0.6112704492        0.0000000008
C                0.0551522647        0.7226612520       -0.0000000003
C                0.1115281301        0.7775708380       -0.0000000003
C                0.0558631532        0.8886786925       -0.0000000003
C                0.1113474410        0.9442004694        0.0000000011
C                0.2221992395        0.0555671047       -0.0000000020
C                0.2779510211        0.1109504165       -0.0000000005
C                0.2221318030        0.2225007574       -0.0000000004
C                0.2781234966        0.2784309037       -0.0000000012
C                0.2219922542        0.3890018442       -0.0000000001
C                0.2771280970        0.4458031518        0.0000000014
C                0.2194180114        0.5569576013        0.0000000021
C                0.2771291131        0.6104001287       -0.0000000033
C                0.2219928536        0.7223387552        0.0000000003
C                0.2781236206        0.7767787516        0.0000000009
C                0.2221318189        0.8887008440        0.0000000027
C                0.2779510676        0.9444317801       -0.0000000005
C                0.3885932559        0.0562776853       -0.0000000010
C                0.4445288274        0.1127310592        0.0000000004
C                0.3890088993        0.2248541977       -0.0000000003
C                0.4444625633        0.2823685121       -0.0000000020
C1               0.3843401035        0.3948718161        0.0000000019
C1               0.3843436477        0.5541188296        0.0000000011
C                0.4444631940        0.6065016293        0.0000000010
C                0.3890089009        0.7194702722       -0.0000000007
C                0.4445288566        0.7760732895        0.0000000001
C                0.3885932221        0.8884624443        0.0000000009
C                0.4444766922        0.9444282947       -0.0000000000
C                0.5549475517        0.0562273664        0.0000000009
C                0.6102365042        0.1125683186        0.0000000002
C                0.5556092879        0.2227889965       -0.0000000011
C                0.6130532251        0.2772904988        0.0000000012
C1               0.5633655766        0.3849857897        0.0000000014
C                0.6130543054        0.4429893940       -0.0000000005
C                0.5556095894        0.5549353249        0.0000000005
C                0.6102365060        0.6105285215        0.0000000005
C                0.5549475873        0.7221585062       -0.0000000014
C                0.6111700571        0.7776770708       -0.0000000006
C                0.5553999831        0.8889667261       -0.0000000017
C                0.6111700285        0.9444861402        0.0000000001
C                0.7222244899        0.0558749266        0.0000000003
C                0.7782485362        0.1107994291       -0.0000000000
C                0.7231559890        0.2218027947        0.0000000008
C                0.7779635707        0.2776849123       -0.0000000002
C                0.7231564626        0.3883746707       -0.0000000014
C                0.7782487241        0.4442852374        0.0000000010
C                0.7222245495        0.5552339982        0.0000000007
C                0.7778263933        0.6107375398        0.0000000010
C                0.7219534677        0.7223711199        0.0000000004
C                0.7777857673        0.7777737577        0.0000000005
C                0.7219534907        0.8890088044        0.0000000004
C                0.7778264351        0.9447692798       -0.0000000014
C                0.8887453233        0.0555670666        0.0000000011
C                0.9447541850        0.1110961090        0.0000000008
C                0.8890579808        0.2221377215       -0.0000000002
C                0.9447541494        0.2774829856       -0.0000000000
C                0.8887453378        0.3890210319       -0.0000000008
C                0.9444819567        0.4445062767       -0.0000000003
C                0.8887294704        0.5553261667       -0.0000000027
C                0.9448475376        0.6109497658       -0.0000000009
C                0.8890184731        0.7221574769       -0.0000000003
C                0.9448474844        0.7775359818        0.0000000000
C                0.8887294314        0.8892777642        0.0000000009
C                0.9444819462        0.9443450326       -0.0000000006



     Writing config-only to output data dir /home/gregb26/links/scratch/qe_tmp/vacancy_relaxed/series/6x6/nspin2/vac_6x6_relax_nspin2.save/ :
     XML data file
     NEW-OLD atomic charge density approx. for the potential

     negative rho (up, down):  4.001E-06 4.022E-06
     Generating pointlists ...

     total cpu time spent up to now is      238.5 secs

     per-process dynamical memory:   233.5 Mb

     Self-consistent Calculation

     iteration #  1     ecut=   100.00 Ry     beta= 0.30
     Davidson diagonalization with overlap
     ethr =  1.00E-06,  avg # of iterations =  7.0
     Minimization algorithm failed to find Fermi energy: reverting to bisection
     Possible cause: smearing is larger than the electronic band-gap.

     negative rho (up, down):  3.348E-06 2.474E-06

     total cpu time spent up to now is      243.4 secs

     total energy              =    -854.74954751 Ry
     estimated scf accuracy    <       0.00332024 Ry

     total magnetization       =     1.99 Bohr mag/cell
     absolute magnetization    =     5.79 Bohr mag/cell

     iteration #  2     ecut=   100.00 Ry     beta= 0.30
     Davidson diagonalization with overlap
     ethr =  1.17E-06,  avg # of iterations =  2.0
     Minimization algorithm failed to find Fermi energy: reverting to bisection
     Possible cause: smearing is larger than the electronic band-gap.

     negative rho (up, down):  2.174E-06 1.605E-06

     total cpu time spent up to now is      245.4 secs

     total energy              =    -854.74987773 Ry
     estimated scf accuracy    <       0.00095525 Ry

     total magnetization       =     2.01 Bohr mag/cell
     absolute magnetization    =     5.78 Bohr mag/cell

     iteration #  3     ecut=   100.00 Ry     beta= 0.30
     Davidson diagonalization with overlap
     ethr =  3.36E-07,  avg # of iterations =  2.0

     negative rho (up, down):  8.656E-07 6.367E-07

     total cpu time spent up to now is      247.3 secs

     total energy              =    -854.75000097 Ry
     estimated scf accuracy    <       0.00036310 Ry

     total magnetization       =     2.01 Bohr mag/cell
     absolute magnetization    =     5.77 Bohr mag/cell

     iteration #  4     ecut=   100.00 Ry     beta= 0.30
     Davidson diagonalization with overlap
     ethr =  1.28E-07,  avg # of iterations =  3.0

     negative rho (up, down):  3.805E-07 2.777E-07

     total cpu time spent up to now is      249.3 secs

     total energy              =    -854.75003594 Ry
     estimated scf accuracy    <       0.00008442 Ry

     total magnetization       =     2.00 Bohr mag/cell
     absolute magnetization    =     5.75 Bohr mag/cell

     iteration #  5     ecut=   100.00 Ry     beta= 0.30
     Davidson diagonalization with overlap
     ethr =  2.97E-08,  avg # of iterations =  3.5

     negative rho (up, down):  3.741E-07 2.730E-07

     total cpu time spent up to now is      251.5 secs

     total energy              =    -854.75002852 Ry
     estimated scf accuracy    <       0.00008832 Ry

     total magnetization       =     1.99 Bohr mag/cell
     absolute magnetization    =     5.73 Bohr mag/cell

     iteration #  6     ecut=   100.00 Ry     beta= 0.30
     Davidson diagonalization with overlap
     ethr =  2.97E-08,  avg # of iterations =  1.0

     negative rho (up, down):  3.824E-07 2.794E-07

     total cpu time spent up to now is      253.3 secs

     total energy              =    -854.75002169 Ry
     estimated scf accuracy    <       0.00008928 Ry

     total magnetization       =     1.99 Bohr mag/cell
     absolute magnetization    =     5.73 Bohr mag/cell

     iteration #  7     ecut=   100.00 Ry     beta= 0.30
     Davidson diagonalization with overlap
     ethr =  2.97E-08,  avg # of iterations =  1.5

     negative rho (up, down):  2.777E-07 2.057E-07

     total cpu time spent up to now is      255.2 secs

     total energy              =    -854.74995829 Ry
     estimated scf accuracy    <       0.00008485 Ry

     total magnetization       =     1.99 Bohr mag/cell
     absolute magnetization    =     5.73 Bohr mag/cell

     iteration #  8     ecut=   100.00 Ry     beta= 0.30
     Davidson diagonalization with overlap
     ethr =  2.97E-08,  avg # of iterations =  5.0

     negative rho (up, down):  1.064E-07 7.711E-08

     total cpu time spent up to now is      257.9 secs

     total energy              =    -854.74997574 Ry
     estimated scf accuracy    <       0.00003348 Ry

     total magnetization       =     1.97 Bohr mag/cell
     absolute magnetization    =     5.70 Bohr mag/cell

     iteration #  9     ecut=   100.00 Ry     beta= 0.30
     Davidson diagonalization with overlap
     ethr =  1.18E-08,  avg # of iterations =  5.0

     negative rho (up, down):  4.353E-08 3.124E-08

     total cpu time spent up to now is      260.5 secs

     total energy              =    -854.74999221 Ry
     estimated scf accuracy    <       0.00002532 Ry

     total magnetization       =     1.98 Bohr mag/cell
     absolute magnetization    =     5.71 Bohr mag/cell

     iteration # 10     ecut=   100.00 Ry     beta= 0.30
     Davidson diagonalization with overlap
     ethr =  8.92E-09,  avg # of iterations =  2.5

     negative rho (up, down):  1.572E-08 1.198E-08

     total cpu time spent up to now is      262.6 secs

     total energy              =    -854.74998778 Ry
     estimated scf accuracy    <       0.00000786 Ry

     total magnetization       =     1.98 Bohr mag/cell
     absolute magnetization    =     5.70 Bohr mag/cell

     iteration # 11     ecut=   100.00 Ry     beta= 0.30
     Davidson diagonalization with overlap
     ethr =  2.77E-09,  avg # of iterations =  5.5

     negative rho (up, down):  1.042E-08 7.707E-09

     total cpu time spent up to now is      265.3 secs

     total energy              =    -854.74999371 Ry
     estimated scf accuracy    <       0.00000920 Ry

     total magnetization       =     1.97 Bohr mag/cell
     absolute magnetization    =     5.69 Bohr mag/cell

     iteration # 12     ecut=   100.00 Ry     beta= 0.30
     Davidson diagonalization with overlap
     ethr =  2.77E-09,  avg # of iterations =  2.5

     total cpu time spent up to now is      267.4 secs

     total energy              =    -854.74999229 Ry
     estimated scf accuracy    <       0.00000321 Ry

     total magnetization       =     1.98 Bohr mag/cell
     absolute magnetization    =     5.69 Bohr mag/cell

     iteration # 13     ecut=   100.00 Ry     beta= 0.30
     Davidson diagonalization with overlap
     ethr =  1.13E-09,  avg # of iterations =  5.0

     total cpu time spent up to now is      269.8 secs

     total energy              =    -854.74999344 Ry
     estimated scf accuracy    <       0.00000009 Ry

     total magnetization       =     1.98 Bohr mag/cell
     absolute magnetization    =     5.69 Bohr mag/cell

     iteration # 14     ecut=   100.00 Ry     beta= 0.30
     Davidson diagonalization with overlap
     ethr =  2.99E-11,  avg # of iterations =  4.5

     total cpu time spent up to now is      272.7 secs

     total energy              =    -854.74999359 Ry
     estimated scf accuracy    <       0.00000006 Ry

     total magnetization       =     1.98 Bohr mag/cell
     absolute magnetization    =     5.69 Bohr mag/cell

     iteration # 15     ecut=   100.00 Ry     beta= 0.30
     Davidson diagonalization with overlap
     ethr =  2.03E-11,  avg # of iterations =  4.0

     total cpu time spent up to now is      275.1 secs

     total energy              =    -854.74999367 Ry
     estimated scf accuracy    <       0.00000003 Ry

     total magnetization       =     1.98 Bohr mag/cell
     absolute magnetization    =     5.68 Bohr mag/cell

     iteration # 16     ecut=   100.00 Ry     beta= 0.30
     Davidson diagonalization with overlap
     ethr =  9.14E-12,  avg # of iterations =  4.5

     total cpu time spent up to now is      277.9 secs

     total energy              =    -854.74999374 Ry
     estimated scf accuracy    <       0.00000001 Ry

     total magnetization       =     1.98 Bohr mag/cell
     absolute magnetization    =     5.68 Bohr mag/cell

     iteration # 17     ecut=   100.00 Ry     beta= 0.30
     Davidson diagonalization with overlap
     ethr =  5.04E-12,  avg # of iterations =  5.5

     total cpu time spent up to now is      280.9 secs

     total energy              =    -854.74999379 Ry
     estimated scf accuracy    <          4.8E-09 Ry

     total magnetization       =     1.98 Bohr mag/cell
     absolute magnetization    =     5.67 Bohr mag/cell

     iteration # 18     ecut=   100.00 Ry     beta= 0.30
     Davidson diagonalization with overlap
     ethr =  1.70E-12,  avg # of iterations =  5.0

     total cpu time spent up to now is      284.4 secs

     total energy              =    -854.74999381 Ry
     estimated scf accuracy    <          2.0E-09 Ry

     total magnetization       =     1.98 Bohr mag/cell
     absolute magnetization    =     5.67 Bohr mag/cell

     iteration # 19     ecut=   100.00 Ry     beta= 0.30
     Davidson diagonalization with overlap
     ethr =  7.20E-13,  avg # of iterations =  5.0

     total cpu time spent up to now is      287.7 secs

     total energy              =    -854.74999382 Ry
     estimated scf accuracy    <          6.1E-10 Ry

     total magnetization       =     1.98 Bohr mag/cell
     absolute magnetization    =     5.67 Bohr mag/cell

     iteration # 20     ecut=   100.00 Ry     beta= 0.30
     Davidson diagonalization with overlap
     ethr =  2.16E-13,  avg # of iterations =  5.0

     total cpu time spent up to now is      290.7 secs

     total energy              =    -854.74999382 Ry
     estimated scf accuracy    <          2.9E-10 Ry

     total magnetization       =     1.98 Bohr mag/cell
     absolute magnetization    =     5.67 Bohr mag/cell

     iteration # 21     ecut=   100.00 Ry     beta= 0.30
     Davidson diagonalization with overlap
     ethr =  1.03E-13,  avg # of iterations =  5.0

     Magnetic moment per site  (integrated on atomic sphere of radius R)
     atom   1 (R=0.038)  charge=  1.5041  magn=  0.0312
     atom   2 (R=0.038)  charge=  1.5032  magn= -0.0144
     atom   3 (R=0.038)  charge=  1.5041  magn=  0.0312
     atom   4 (R=0.038)  charge=  1.5027  magn= -0.0271
     atom   5 (R=0.038)  charge=  1.5026  magn=  0.0323
     atom   6 (R=0.038)  charge=  1.5059  magn= -0.0267
     atom   7 (R=0.038)  charge=  1.5061  magn=  0.0311
     atom   8 (R=0.038)  charge=  1.5133  magn= -0.0137
     atom   9 (R=0.038)  charge=  1.5061  magn=  0.0311
     atom  10 (R=0.038)  charge=  1.5059  magn= -0.0267
     atom  11 (R=0.038)  charge=  1.5026  magn=  0.0323
     atom  12 (R=0.038)  charge=  1.5027  magn= -0.0271
     atom  13 (R=0.038)  charge=  1.5031  magn=  0.0323
     atom  14 (R=0.038)  charge=  1.5031  magn= -0.0274
     atom  15 (R=0.038)  charge=  1.4986  magn=  0.0315
     atom  16 (R=0.038)  charge=  1.5022  magn= -0.0137
     atom  17 (R=0.038)  charge=  1.5038  magn=  0.0329
     atom  18 (R=0.038)  charge=  1.5185  magn= -0.0206
     atom  19 (R=0.038)  charge=  1.5193  magn=  0.0325
     atom  20 (R=0.038)  charge=  1.5185  magn= -0.0206
     atom  21 (R=0.038)  charge=  1.5038  magn=  0.0329
     atom  22 (R=0.038)  charge=  1.5022  magn= -0.0137
     atom  23 (R=0.038)  charge=  1.4986  magn=  0.0315
     atom  24 (R=0.038)  charge=  1.5031  magn= -0.0274
     atom  25 (R=0.038)  charge=  1.4949  magn=  0.0318
     atom  26 (R=0.038)  charge=  1.4951  magn= -0.0288
     atom  27 (R=0.038)  charge=  1.4890  magn=  0.0319
     atom  28 (R=0.038)  charge=  1.4764  magn= -0.0310
     atom  29 (R=0.038)  charge=  1.4049  magn=  0.0647
     atom  30 (R=0.038)  charge=  1.4048  magn=  0.0645
     atom  31 (R=0.038)  charge=  1.4764  magn= -0.0310
     atom  32 (R=0.038)  charge=  1.4890  magn=  0.0319
     atom  33 (R=0.038)  charge=  1.4951  magn= -0.0288
     atom  34 (R=0.038)  charge=  1.4949  magn=  0.0318
     atom  35 (R=0.038)  charge=  1.4948  magn= -0.0155
     atom  36 (R=0.038)  charge=  1.5013  magn=  0.0303
     atom  37 (R=0.038)  charge=  1.4999  magn= -0.0159
     atom  38 (R=0.038)  charge=  1.5024  magn=  0.0427
     atom  39 (R=0.038)  charge=  1.5193  magn= -0.0264
     atom  40 (R=0.038)  charge=  1.4644  magn=  0.3358
     atom  41 (R=0.038)  charge=  1.5193  magn= -0.0263
     atom  42 (R=0.038)  charge=  1.5024  magn=  0.0427
     atom  43 (R=0.038)  charge=  1.4999  magn= -0.0159
     atom  44 (R=0.038)  charge=  1.5013  magn=  0.0303
     atom  45 (R=0.038)  charge=  1.5003  magn= -0.0280
     atom  46 (R=0.038)  charge=  1.5026  magn=  0.0305
     atom  47 (R=0.038)  charge=  1.5003  magn= -0.0280
     atom  48 (R=0.038)  charge=  1.4998  magn=  0.0337
     atom  49 (R=0.038)  charge=  1.5080  magn= -0.0255
     atom  50 (R=0.038)  charge=  1.5121  magn=  0.0485
     atom  51 (R=0.038)  charge=  1.5084  magn= -0.0187
     atom  52 (R=0.038)  charge=  1.5121  magn=  0.0485
     atom  53 (R=0.038)  charge=  1.5081  magn= -0.0255
     atom  54 (R=0.038)  charge=  1.4998  magn=  0.0337
     atom  55 (R=0.038)  charge=  1.5014  magn= -0.0280
     atom  56 (R=0.038)  charge=  1.5015  magn=  0.0304
     atom  57 (R=0.038)  charge=  1.5000  magn= -0.0145
     atom  58 (R=0.038)  charge=  1.5015  magn=  0.0304
     atom  59 (R=0.038)  charge=  1.5014  magn= -0.0280
     atom  60 (R=0.038)  charge=  1.5043  magn=  0.0320
     atom  61 (R=0.038)  charge=  1.5045  magn= -0.0281
     atom  62 (R=0.038)  charge=  1.5042  magn=  0.0325
     atom  63 (R=0.038)  charge=  1.5045  magn= -0.0281
     atom  64 (R=0.038)  charge=  1.5043  magn=  0.0320
     atom  65 (R=0.038)  charge=  1.5018  magn= -0.0143
     atom  66 (R=0.038)  charge=  1.5032  magn=  0.0313
     atom  67 (R=0.038)  charge=  1.5036  magn= -0.0274
     atom  68 (R=0.038)  charge=  1.5016  magn=  0.0324
     atom  69 (R=0.038)  charge=  1.5036  magn= -0.0274
     atom  70 (R=0.038)  charge=  1.5032  magn=  0.0313
     atom  71 (R=0.038)  charge=  1.5018  magn= -0.0143

     total cpu time spent up to now is      293.8 secs

     End of self-consistent calculation

 ------ SPIN UP ------------


          k = 0.0000 0.0000 0.0000 (171510 PWs)   bands (ev):

   -23.8101 -23.2259 -23.2081 -23.1975 -23.1842 -23.1508 -22.8774 -21.9299
   -21.9194 -21.8899 -21.8848 -21.8303 -21.6592 -21.3076 -21.2710 -21.2536
   -21.2346 -21.1613 -20.6864 -19.4617 -19.4515 -19.4447 -19.4325 -19.4324
   -19.4165 -19.4088 -19.4006 -19.3850 -19.2777 -19.2348 -18.8319 -18.6061
   -18.5488 -18.0187 -17.5048 -17.4456 -17.3486 -16.9649 -16.8924 -16.8377
   -16.4436 -15.7807 -15.7598 -15.7586 -15.7514 -15.7462 -15.7433 -15.7317
   -15.7085 -15.7039 -15.4293 -15.4227 -14.7907 -14.7337 -14.4522 -13.9897
   -13.9806 -13.9409 -13.7566 -13.7494 -13.0206 -12.4216 -12.4192 -12.4000
   -12.3932 -12.3848 -12.3766 -12.3582 -12.3470 -12.3382 -12.3018 -12.2021
   -12.2018 -12.1239 -12.0729 -12.0699 -11.8989 -11.6230 -11.6138 -11.1802
   -11.1743 -11.1670 -11.1519 -11.1235 -10.8741 -10.8266 -10.8074 -10.7843
   -10.7723 -10.7232 -10.7119 -10.6931 -10.4550 -10.4279 -10.1777 -10.1585
   -10.1384 -10.1066 -10.0824  -9.8527  -9.8281  -9.6967  -9.6686  -9.6615
    -9.6608  -9.6416  -9.6324  -9.6300  -9.5911  -9.4128  -8.9850  -8.9385
    -8.9368  -8.9306  -8.9265  -8.9060  -8.8791  -8.5493  -8.5364  -8.5021
    -8.4409  -8.4310  -7.9453  -7.6208  -7.5203  -7.0277  -7.0071  -7.0032
    -6.9868  -6.9752  -6.9655  -6.9446  -6.9374  -6.9323  -6.8948  -6.8929
    -6.7570  -6.6800  -6.6137  -5.4497  -4.6086  -4.4175  -4.3893  -4.1386
    -3.6949  -3.6510  -2.6197  -2.5452  -2.4847  -1.8710  -1.8589  -1.8211
    -1.8020  -1.7952  -1.7739  -1.7666  -1.7341  -1.7157  -1.5653  -1.5311
    -0.9792  -0.3449  -0.1319  -0.1242  -0.1215  -0.1202  -0.0829  -0.0823
     0.0473   0.5574   0.6124   0.6154

 ------ SPIN DOWN ----------


          k = 0.0000 0.0000 0.0000 (171510 PWs)   bands (ev):

   -23.7870 -23.1935 -23.1888 -23.1775 -23.1634 -23.1287 -22.8217 -21.9000
   -21.8931 -21.8663 -21.8500 -21.8160 -21.6217 -21.2673 -21.2509 -21.2390
   -21.1888 -21.1459 -20.6084 -19.4376 -19.4235 -19.4163 -19.4141 -19.4037
   -19.4021 -19.3890 -19.3753 -19.3661 -19.2128 -19.1978 -18.8040 -18.5793
   -18.4987 -17.9033 -17.4687 -17.4204 -17.3400 -16.9712 -16.7952 -16.7708
   -16.3962 -15.7590 -15.7439 -15.7380 -15.7272 -15.7243 -15.7191 -15.7145
   -15.6832 -15.6728 -15.4037 -15.3193 -14.7660 -14.7116 -14.3742 -13.9575
   -13.9516 -13.9252 -13.7341 -13.6888 -12.9273 -12.4071 -12.3952 -12.3899
   -12.3810 -12.3730 -12.3630 -12.3393 -12.3169 -12.3151 -12.2694 -12.1789
   -12.1753 -12.0893 -12.0503 -12.0431 -11.8588 -11.6000 -11.5369 -11.1388
   -11.1357 -11.1264 -11.1124 -11.0842 -10.8327 -10.7926 -10.7622 -10.7585
   -10.7582 -10.7026 -10.6837 -10.6787 -10.4270 -10.4092 -10.1449 -10.1197
   -10.1021 -10.0655 -10.0455  -9.8286  -9.7897  -9.6806  -9.6391  -9.6264
    -9.6132  -9.6089  -9.5886  -9.5874  -9.5681  -9.3454  -8.9099  -8.9091
    -8.9066  -8.8981  -8.8851  -8.8577  -8.8552  -8.5352  -8.5175  -8.4737
    -8.4229  -8.3280  -7.6191  -7.4976  -7.4199  -6.9749  -6.9626  -6.9488
    -6.9435  -6.9373  -6.9247  -6.9096  -6.9087  -6.8957  -6.8554  -6.8023
    -6.7111  -6.6335  -6.5242  -5.2571  -4.4108  -4.0938  -4.0766  -3.6248
    -3.3464  -2.6008  -2.5557  -2.5031  -2.4395  -1.8260  -1.8127  -1.7815
    -1.7626  -1.7430  -1.7339  -1.7244  -1.6877  -1.6789  -1.4555  -1.3569
    -0.9702  -0.2500  -0.1254  -0.1148  -0.1142  -0.1113  -0.0761  -0.0727
     0.0730   0.6045   0.6410   0.6799

     the Fermi energy is    -4.2848 ev

!    total energy              =    -854.74999382 Ry
     estimated scf accuracy    <          9.3E-11 Ry
     smearing contrib. (-TS)   =       0.00202197 Ry
     internal energy E=F+TS    =    -854.75201579 Ry

     The total energy is F=E-TS. E is the sum of the following terms:
     one-electron contribution =   -9612.49054963 Ry
     hartree contribution      =    4832.73296458 Ry
     xc contribution           =    -304.02570548 Ry
     ewald contribution        =    4229.03127475 Ry

     total magnetization       =     1.98 Bohr mag/cell
     absolute magnetization    =     5.67 Bohr mag/cell

     convergence has been achieved in  21 iterations

     Forces acting on atoms (cartesian axes, Ry/au):

     atom    1 type  1   force =    -0.00065140   -0.00191183   -0.00000000
     atom    2 type  1   force =     0.00049236   -0.00085092    0.00000002
     atom    3 type  1   force =     0.00198151   -0.00039353   -0.00000000
     atom    4 type  1   force =     0.00509527   -0.00447985   -0.00000001
     atom    5 type  1   force =    -0.00270324    0.00245849    0.00000000
     atom    6 type  1   force =    -0.00495067    0.00639919   -0.00000001
     atom    7 type  1   force =    -0.00398498    0.00435782    0.00000001
     atom    8 type  1   force =    -0.00268265    0.00464756   -0.00000001
     atom    9 type  1   force =    -0.00178027    0.00562728    0.00000000
     atom   10 type  1   force =    -0.00306414    0.00747966   -0.00000000
     atom   11 type  1   force =    -0.00077650    0.00356991   -0.00000000
     atom   12 type  1   force =     0.00132956   -0.00665202   -0.00000000
     atom   13 type  1   force =     0.00034641   -0.00059729    0.00000000
     atom   14 type  1   force =     0.00633093    0.00195375   -0.00000001
     atom   15 type  1   force =     0.00261808    0.00062537   -0.00000000
     atom   16 type  1   force =    -0.00265953    0.00226815    0.00000001
     atom   17 type  1   force =    -0.00671659   -0.00093850   -0.00000000
     atom   18 type  1   force =     0.01561999    0.00240547   -0.00000001
     atom   19 type  1   force =    -0.00472271    0.00817839   -0.00000002
     atom   20 type  1   force =    -0.00987229   -0.01234258    0.00000004
     atom   21 type  1   force =     0.00415757    0.00533560   -0.00000001
     atom   22 type  1   force =    -0.00063335    0.00343550   -0.00000000
     atom   23 type  1   force =    -0.00185093   -0.00195771   -0.00000000
     atom   24 type  1   force =    -0.00485832   -0.00450840    0.00000001
     atom   25 type  1   force =     0.00014830   -0.00089325    0.00000001
     atom   26 type  1   force =    -0.00157555   -0.00333206    0.00000000
     atom   27 type  1   force =    -0.00577309    0.00537325   -0.00000001
     atom   28 type  1   force =     0.02500645    0.01281049    0.00000002
     atom   29 type  2   force =     0.00985841    0.00203677   -0.00000001
     atom   30 type  2   force =    -0.00671827   -0.00750611   -0.00000002
     atom   31 type  1   force =    -0.02359074   -0.01525738   -0.00000000
     atom   32 type  1   force =    -0.00176377    0.00768357    0.00000001
     atom   33 type  1   force =     0.00367008   -0.00030031   -0.00000002
     atom   34 type  1   force =     0.00069818   -0.00057424   -0.00000002
     atom   35 type  1   force =    -0.00060826    0.00105459   -0.00000001
     atom   36 type  1   force =     0.00326807    0.00128013   -0.00000000
     atom   37 type  1   force =     0.00073182   -0.00043886    0.00000000
     atom   38 type  1   force =     0.00031302    0.00020632    0.00000002
     atom   39 type  1   force =    -0.00177983    0.01376922   -0.00000001
     atom   40 type  2   force =     0.00528884   -0.00920824    0.00000000
     atom   41 type  1   force =    -0.01100237    0.00843910   -0.00000001
     atom   42 type  1   force =    -0.00032755   -0.00016999   -0.00000000
     atom   43 type  1   force =     0.00001979   -0.00085225   -0.00000001
     atom   44 type  1   force =    -0.00274128   -0.00219172    0.00000001
     atom   45 type  1   force =    -0.00527841   -0.00070451   -0.00000000
     atom   46 type  1   force =    -0.00095655    0.00166000    0.00000002
     atom   47 type  1   force =     0.00324739    0.00421995   -0.00000000
     atom   48 type  1   force =    -0.00063273   -0.00008133   -0.00000001
     atom   49 type  1   force =    -0.00332650   -0.01008738    0.00000001
     atom   50 type  1   force =     0.00914041   -0.00817761    0.00000000
     atom   51 type  1   force =     0.00523162   -0.00905771   -0.00000000
     atom   52 type  1   force =     0.00251749   -0.01201693    0.00000001
     atom   53 type  1   force =     0.01040317   -0.00216578   -0.00000002
     atom   54 type  1   force =     0.00039077    0.00050824    0.00000001
     atom   55 type  1   force =    -0.00433879    0.00163886   -0.00000001
     atom   56 type  1   force =    -0.00180845    0.00084066    0.00000001
     atom   57 type  1   force =     0.00012550   -0.00021655    0.00000000
     atom   58 type  1   force =     0.00017696    0.00198482   -0.00000000
     atom   59 type  1   force =     0.00074913    0.00457510    0.00000001
     atom   60 type  1   force =     0.00031438   -0.00556256   -0.00000000
     atom   61 type  1   force =     0.00026987    0.00154778   -0.00000000
     atom   62 type  1   force =     0.00265846   -0.00460143    0.00000001
     atom   63 type  1   force =    -0.00147763    0.00054079   -0.00000000
     atom   64 type  1   force =     0.00465958   -0.00305373    0.00000001
     atom   65 type  1   force =     0.00038435   -0.00099605   -0.00000000
     atom   66 type  1   force =    -0.00126592    0.00001465    0.00000002
     atom   67 type  1   force =    -0.00123777    0.00073986   -0.00000001
     atom   68 type  1   force =    -0.00039919    0.00069484   -0.00000000
     atom   69 type  1   force =    -0.00002495    0.00144301   -0.00000000
     atom   70 type  1   force =     0.00061886    0.00110499   -0.00000001
     atom   71 type  1   force =     0.00067260   -0.00083052    0.00000000

     Total force =     0.066928     Total SCF correction =     0.000008
     Energy error            =      5.1E-03 Ry
     Gradient error          =      2.5E-02 Ry/Bohr

     number of scf cycles    =   5
     number of bfgs steps    =   4

     energy             old  =    -854.7449426578 Ry
     energy             new  =    -854.7499938195 Ry

     CASE: energy            _new < energy            _old

     new trust radius        =       0.0738211065 bohr
     new conv_thr            =            1.0E-10 Ry


ATOMIC_POSITIONS (crystal)
C                0.0554057388        0.0558069375        0.0000000013
C                0.1110791249        0.1111271186       -0.0000000006
C                0.0554059044        0.2221206335       -0.0000000003
C                0.1117292761        0.2777380081        0.0000000013
C                0.0558487684        0.3888025056        0.0000000006
C                0.1113849917        0.4441471645       -0.0000000006
C                0.0547213344        0.5556900149       -0.0000000020
C                0.1098867509        0.6117233376        0.0000000006
C                0.0547215449        0.7229219230       -0.0000000006
C                0.1113858004        0.7778002564       -0.0000000005
C                0.0558489627        0.8886821125       -0.0000000006
C                0.1117291512        0.9438658715        0.0000000017
C                0.2222998283        0.0555169144       -0.0000000030
C                0.2781202356        0.1111282445       -0.0000000003
C                0.2222501450        0.2227928944       -0.0000000006
C                0.2782816742        0.2787725444       -0.0000000016
C                0.2214213778        0.3892821344        0.0000000001
C                0.2759501992        0.4469115759        0.0000000020
C                0.2178467733        0.5577431454        0.0000000029
C                0.2759534480        0.6104681801       -0.0000000026
C                0.2214225799        0.7226279409       -0.0000000004
C                0.2782819975        0.7762787566        0.0000000007
C                0.2222503359        0.8882902171        0.0000000040
C                0.2781204164        0.9440845137       -0.0000000010
C                0.3885486764        0.0566281232       -0.0000000010
C                0.4444426403        0.1137473159        0.0000000004
C                0.3890504330        0.2261274039       -0.0000000006
C                0.4441949555        0.2846913790       -0.0000000019
C1               0.3833039828        0.3977322522        0.0000000018
C1               0.3833080290        0.5522929643        0.0000000007
C                0.4441965027        0.6044458761        0.0000000016
C                0.3890506937        0.7181554847       -0.0000000008
C                0.4444425055        0.7751430969       -0.0000000009
C                0.3885485415        0.8881566135       -0.0000000002
C                0.4442800411        0.9445266387       -0.0000000004
C                0.5547627155        0.0567848697        0.0000000010
C                0.6098392621        0.1133228077        0.0000000005
C                0.5554754624        0.2236628910       -0.0000000007
C                0.6142640562        0.2765137161        0.0000000012
C1               0.5664144039        0.3834611455        0.0000000021
C                0.6142660405        0.4425569701       -0.0000000009
C                0.5554763024        0.5541955519       -0.0000000002
C                0.6098393990        0.6101715321       -0.0000000001
C                0.5547629037        0.7217858383       -0.0000000019
C                0.6109990269        0.7775166316       -0.0000000003
C                0.5553434021        0.8889951313       -0.0000000012
C                0.6109988671        0.9448175719       -0.0000000003
C                0.7220776422        0.0560578117        0.0000000002
C                0.7787967527        0.1102470476        0.0000000006
C                0.7245287245        0.2211042013        0.0000000011
C                0.7786608258        0.2773363922        0.0000000005
C                0.7245303425        0.3877001079       -0.0000000009
C                0.7787973501        0.4442892970        0.0000000011
C                0.7220778051        0.5551981819        0.0000000015
C                0.7776657546        0.6105226303        0.0000000007
C                0.7217935313        0.7224022318        0.0000000005
C                0.7777358647        0.7777987216        0.0000000007
C                0.7217936833        0.8891375880        0.0000000005
C                0.7776658913        0.9451446355       -0.0000000015
C                0.8890740410        0.0552222151        0.0000000022
C                0.9448146777        0.1111510267        0.0000000010
C                0.8894923724        0.2219206385       -0.0000000002
C                0.9448145181        0.2773675043       -0.0000000006
C                0.8890740557        0.3890371904       -0.0000000005
C                0.9445840637        0.4444006201       -0.0000000001
C                0.8885918726        0.5552858693       -0.0000000030
C                0.9447727049        0.6109026418       -0.0000000017
C                0.8891096301        0.7221120159       -0.0000000010
C                0.9447724617        0.7776578777        0.0000000001
C                0.8885916895        0.8894557252        0.0000000011
C                0.9445840971        0.9443486329       -0.0000000008



     Writing config-only to output data dir /home/gregb26/links/scratch/qe_tmp/vacancy_relaxed/series/6x6/nspin2/vac_6x6_relax_nspin2.save/ :
     XML data file
     NEW-OLD atomic charge density approx. for the potential

     negative rho (up, down):  5.372E-06 5.400E-06
     Generating pointlists ...

     total cpu time spent up to now is      295.0 secs

     per-process dynamical memory:   234.2 Mb

     Self-consistent Calculation

     iteration #  1     ecut=   100.00 Ry     beta= 0.30
     Davidson diagonalization with overlap
     ethr =  1.00E-06,  avg # of iterations =  8.0

     negative rho (up, down):  4.372E-06 3.291E-06

     total cpu time spent up to now is      300.5 secs

     total energy              =    -854.75393626 Ry
     estimated scf accuracy    <       0.00443122 Ry

     total magnetization       =     1.95 Bohr mag/cell
     absolute magnetization    =     5.57 Bohr mag/cell

     iteration #  2     ecut=   100.00 Ry     beta= 0.30
     Davidson diagonalization with overlap
     ethr =  1.56E-06,  avg # of iterations =  2.0

     negative rho (up, down):  2.758E-06 2.072E-06

     total cpu time spent up to now is      302.4 secs

     total energy              =    -854.75418530 Ry
     estimated scf accuracy    <       0.00139432 Ry

     total magnetization       =     1.96 Bohr mag/cell
     absolute magnetization    =     5.57 Bohr mag/cell

     iteration #  3     ecut=   100.00 Ry     beta= 0.30
     Davidson diagonalization with overlap
     ethr =  4.91E-07,  avg # of iterations =  2.5

     negative rho (up, down):  9.501E-07 7.107E-07

     total cpu time spent up to now is      304.3 secs

     total energy              =    -854.75429900 Ry
     estimated scf accuracy    <       0.00051736 Ry

     total magnetization       =     1.96 Bohr mag/cell
     absolute magnetization    =     5.56 Bohr mag/cell

     iteration #  4     ecut=   100.00 Ry     beta= 0.30
     Davidson diagonalization with overlap
     ethr =  1.82E-07,  avg # of iterations =  3.0

     negative rho (up, down):  3.081E-07 2.272E-07

     total cpu time spent up to now is      306.2 secs

     total energy              =    -854.75437144 Ry
     estimated scf accuracy    <       0.00006034 Ry

     total magnetization       =     1.96 Bohr mag/cell
     absolute magnetization    =     5.54 Bohr mag/cell

     iteration #  5     ecut=   100.00 Ry     beta= 0.30
     Davidson diagonalization with overlap
     ethr =  2.12E-08,  avg # of iterations =  4.0

     negative rho (up, down):  1.038E-07 7.505E-08

     total cpu time spent up to now is      308.6 secs

     total energy              =    -854.75438836 Ry
     estimated scf accuracy    <       0.00001256 Ry

     total magnetization       =     1.96 Bohr mag/cell
     absolute magnetization    =     5.53 Bohr mag/cell

     iteration #  6     ecut=   100.00 Ry     beta= 0.30
     Davidson diagonalization with overlap
     ethr =  4.42E-09,  avg # of iterations =  3.0

     negative rho (up, down):  3.254E-08 2.271E-08

     total cpu time spent up to now is      310.7 secs

     total energy              =    -854.75439336 Ry
     estimated scf accuracy    <       0.00000309 Ry

     total magnetization       =     1.96 Bohr mag/cell
     absolute magnetization    =     5.52 Bohr mag/cell

     iteration #  7     ecut=   100.00 Ry     beta= 0.30
     Davidson diagonalization with overlap
     ethr =  1.09E-09,  avg # of iterations =  4.0

     total cpu time spent up to now is      313.1 secs

     total energy              =    -854.75439554 Ry
     estimated scf accuracy    <       0.00000114 Ry

     total magnetization       =     1.96 Bohr mag/cell
     absolute magnetization    =     5.51 Bohr mag/cell

     iteration #  8     ecut=   100.00 Ry     beta= 0.30
     Davidson diagonalization with overlap
     ethr =  4.02E-10,  avg # of iterations =  4.0

     total cpu time spent up to now is      315.8 secs

     total energy              =    -854.75439665 Ry
     estimated scf accuracy    <       0.00000034 Ry

     total magnetization       =     1.96 Bohr mag/cell
     absolute magnetization    =     5.50 Bohr mag/cell

     iteration #  9     ecut=   100.00 Ry     beta= 0.30
     Davidson diagonalization with overlap
     ethr =  1.21E-10,  avg # of iterations =  4.0

     total cpu time spent up to now is      318.5 secs

     total energy              =    -854.75439722 Ry
     estimated scf accuracy    <       0.00000020 Ry

     total magnetization       =     1.96 Bohr mag/cell
     absolute magnetization    =     5.49 Bohr mag/cell

     iteration # 10     ecut=   100.00 Ry     beta= 0.30
     Davidson diagonalization with overlap
     ethr =  7.14E-11,  avg # of iterations =  4.0

     total cpu time spent up to now is      321.0 secs

     total energy              =    -854.75439768 Ry
     estimated scf accuracy    <       0.00000012 Ry

     total magnetization       =     1.96 Bohr mag/cell
     absolute magnetization    =     5.49 Bohr mag/cell

     iteration # 11     ecut=   100.00 Ry     beta= 0.30
     Davidson diagonalization with overlap
     ethr =  4.35E-11,  avg # of iterations =  5.0

     total cpu time spent up to now is      324.0 secs

     total energy              =    -854.75439806 Ry
     estimated scf accuracy    <       0.00000005 Ry

     total magnetization       =     1.96 Bohr mag/cell
     absolute magnetization    =     5.48 Bohr mag/cell

     iteration # 12     ecut=   100.00 Ry     beta= 0.30
     Davidson diagonalization with overlap
     ethr =  1.87E-11,  avg # of iterations =  5.0

     total cpu time spent up to now is      327.1 secs

     total energy              =    -854.75439825 Ry
     estimated scf accuracy    <       0.00000003 Ry

     total magnetization       =     1.96 Bohr mag/cell
     absolute magnetization    =     5.47 Bohr mag/cell

     iteration # 13     ecut=   100.00 Ry     beta= 0.30
     Davidson diagonalization with overlap
     ethr =  1.00E-11,  avg # of iterations =  5.0

     total cpu time spent up to now is      330.2 secs

     total energy              =    -854.75439834 Ry
     estimated scf accuracy    <       0.00000001 Ry

     total magnetization       =     1.96 Bohr mag/cell
     absolute magnetization    =     5.46 Bohr mag/cell

     iteration # 14     ecut=   100.00 Ry     beta= 0.30
     Davidson diagonalization with overlap
     ethr =  5.07E-12,  avg # of iterations =  5.0

     total cpu time spent up to now is      333.6 secs

     total energy              =    -854.75439841 Ry
     estimated scf accuracy    <          5.5E-09 Ry

     total magnetization       =     1.96 Bohr mag/cell
     absolute magnetization    =     5.46 Bohr mag/cell

     iteration # 15     ecut=   100.00 Ry     beta= 0.30
     Davidson diagonalization with overlap
     ethr =  1.93E-12,  avg # of iterations =  6.0

     total cpu time spent up to now is      337.3 secs

     total energy              =    -854.75439844 Ry
     estimated scf accuracy    <          1.5E-09 Ry

     total magnetization       =     1.96 Bohr mag/cell
     absolute magnetization    =     5.45 Bohr mag/cell

     iteration # 16     ecut=   100.00 Ry     beta= 0.30
     Davidson diagonalization with overlap
     ethr =  5.39E-13,  avg # of iterations =  5.0

     total cpu time spent up to now is      340.6 secs

     total energy              =    -854.75439844 Ry
     estimated scf accuracy    <          5.0E-10 Ry

     total magnetization       =     1.96 Bohr mag/cell
     absolute magnetization    =     5.45 Bohr mag/cell

     iteration # 17     ecut=   100.00 Ry     beta= 0.30
     Davidson diagonalization with overlap
     ethr =  1.77E-13,  avg # of iterations =  5.0

     total cpu time spent up to now is      343.8 secs

     total energy              =    -854.75439845 Ry
     estimated scf accuracy    <          1.8E-10 Ry

     total magnetization       =     1.96 Bohr mag/cell
     absolute magnetization    =     5.45 Bohr mag/cell

     iteration # 18     ecut=   100.00 Ry     beta= 0.30
     Davidson diagonalization with overlap
     ethr =  1.00E-13,  avg # of iterations =  5.0

     Magnetic moment per site  (integrated on atomic sphere of radius R)
     atom   1 (R=0.038)  charge=  1.5027  magn=  0.0299
     atom   2 (R=0.038)  charge=  1.5027  magn= -0.0137
     atom   3 (R=0.038)  charge=  1.5027  magn=  0.0299
     atom   4 (R=0.038)  charge=  1.5024  magn= -0.0256
     atom   5 (R=0.038)  charge=  1.5043  magn=  0.0320
     atom   6 (R=0.038)  charge=  1.5084  magn= -0.0251
     atom   7 (R=0.038)  charge=  1.5083  magn=  0.0296
     atom   8 (R=0.038)  charge=  1.5203  magn= -0.0129
     atom   9 (R=0.038)  charge=  1.5083  magn=  0.0296
     atom  10 (R=0.038)  charge=  1.5084  magn= -0.0251
     atom  11 (R=0.038)  charge=  1.5043  magn=  0.0320
     atom  12 (R=0.038)  charge=  1.5024  magn= -0.0256
     atom  13 (R=0.038)  charge=  1.4994  magn=  0.0325
     atom  14 (R=0.038)  charge=  1.5019  magn= -0.0257
     atom  15 (R=0.038)  charge=  1.4991  magn=  0.0300
     atom  16 (R=0.038)  charge=  1.5030  magn= -0.0130
     atom  17 (R=0.038)  charge=  1.5055  magn=  0.0309
     atom  18 (R=0.038)  charge=  1.5193  magn= -0.0195
     atom  19 (R=0.038)  charge=  1.5277  magn=  0.0307
     atom  20 (R=0.038)  charge=  1.5193  magn= -0.0195
     atom  21 (R=0.038)  charge=  1.5055  magn=  0.0309
     atom  22 (R=0.038)  charge=  1.5030  magn= -0.0130
     atom  23 (R=0.038)  charge=  1.4991  magn=  0.0300
     atom  24 (R=0.038)  charge=  1.5019  magn= -0.0257
     atom  25 (R=0.038)  charge=  1.4919  magn=  0.0303
     atom  26 (R=0.038)  charge=  1.4915  magn= -0.0275
     atom  27 (R=0.038)  charge=  1.4837  magn=  0.0314
     atom  28 (R=0.038)  charge=  1.4685  magn= -0.0295
     atom  29 (R=0.038)  charge=  1.4010  magn=  0.0568
     atom  30 (R=0.038)  charge=  1.4010  magn=  0.0567
     atom  31 (R=0.038)  charge=  1.4685  magn= -0.0295
     atom  32 (R=0.038)  charge=  1.4837  magn=  0.0314
     atom  33 (R=0.038)  charge=  1.4915  magn= -0.0275
     atom  34 (R=0.038)  charge=  1.4919  magn=  0.0303
     atom  35 (R=0.038)  charge=  1.4912  magn= -0.0149
     atom  36 (R=0.038)  charge=  1.5011  magn=  0.0286
     atom  37 (R=0.038)  charge=  1.4980  magn= -0.0153
     atom  38 (R=0.038)  charge=  1.5026  magn=  0.0413
     atom  39 (R=0.038)  charge=  1.5244  magn= -0.0249
     atom  40 (R=0.038)  charge=  1.4716  magn=  0.3335
     atom  41 (R=0.038)  charge=  1.5244  magn= -0.0249
     atom  42 (R=0.038)  charge=  1.5026  magn=  0.0413
     atom  43 (R=0.038)  charge=  1.4980  magn= -0.0153
     atom  44 (R=0.038)  charge=  1.5011  magn=  0.0286
     atom  45 (R=0.038)  charge=  1.4978  magn= -0.0265
     atom  46 (R=0.038)  charge=  1.4996  magn=  0.0301
     atom  47 (R=0.038)  charge=  1.4978  magn= -0.0265
     atom  48 (R=0.038)  charge=  1.4997  magn=  0.0333
     atom  49 (R=0.038)  charge=  1.5110  magn= -0.0235
     atom  50 (R=0.038)  charge=  1.5153  magn=  0.0480
     atom  51 (R=0.038)  charge=  1.5135  magn= -0.0179
     atom  52 (R=0.038)  charge=  1.5153  magn=  0.0480
     atom  53 (R=0.038)  charge=  1.5110  magn= -0.0235
     atom  54 (R=0.038)  charge=  1.4997  magn=  0.0333
     atom  55 (R=0.038)  charge=  1.5012  magn= -0.0264
     atom  56 (R=0.038)  charge=  1.4994  magn=  0.0289
     atom  57 (R=0.038)  charge=  1.4980  magn= -0.0139
     atom  58 (R=0.038)  charge=  1.4994  magn=  0.0289
     atom  59 (R=0.038)  charge=  1.5012  magn= -0.0264
     atom  60 (R=0.038)  charge=  1.5068  magn=  0.0305
     atom  61 (R=0.038)  charge=  1.5055  magn= -0.0266
     atom  62 (R=0.038)  charge=  1.5088  magn=  0.0319
     atom  63 (R=0.038)  charge=  1.5055  magn= -0.0266
     atom  64 (R=0.038)  charge=  1.5068  magn=  0.0305
     atom  65 (R=0.038)  charge=  1.5040  magn= -0.0137
     atom  66 (R=0.038)  charge=  1.5026  magn=  0.0302
     atom  67 (R=0.038)  charge=  1.5054  magn= -0.0254
     atom  68 (R=0.038)  charge=  1.5009  magn=  0.0323
     atom  69 (R=0.038)  charge=  1.5054  magn= -0.0254
     atom  70 (R=0.038)  charge=  1.5026  magn=  0.0302
     atom  71 (R=0.038)  charge=  1.5040  magn= -0.0137

     total cpu time spent up to now is      346.7 secs

     End of self-consistent calculation

 ------ SPIN UP ------------


          k = 0.0000 0.0000 0.0000 (171510 PWs)   bands (ev):

   -23.8109 -23.2580 -23.2156 -23.1848 -23.1711 -23.1332 -22.8772 -21.9421
   -21.9191 -21.8940 -21.8876 -21.8113 -21.6476 -21.3205 -21.2673 -21.2504
   -21.2372 -21.1435 -20.6986 -19.4645 -19.4581 -19.4506 -19.4450 -19.4321
   -19.4075 -19.3995 -19.3853 -19.3636 -19.2958 -19.2258 -18.8371 -18.6052
   -18.5418 -18.0246 -17.5097 -17.4462 -17.3553 -16.9753 -16.8875 -16.8165
   -16.4342 -15.7861 -15.7658 -15.7644 -15.7567 -15.7479 -15.7431 -15.7294
   -15.7112 -15.6984 -15.4140 -15.4099 -14.7994 -14.7257 -14.4503 -13.9908
   -13.9906 -13.9319 -13.7604 -13.7419 -13.0255 -12.4432 -12.4294 -12.4003
   -12.3886 -12.3773 -12.3740 -12.3665 -12.3246 -12.3222 -12.2889 -12.2047
   -12.1865 -12.1382 -12.0698 -12.0630 -11.8986 -11.6218 -11.6007 -11.2014
   -11.1807 -11.1586 -11.1432 -11.1092 -10.8794 -10.8260 -10.8107 -10.8011
   -10.7598 -10.7208 -10.7040 -10.6772 -10.4392 -10.4278 -10.1973 -10.1563
   -10.1377 -10.0904 -10.0702  -9.8489  -9.8449  -9.6931  -9.6789  -9.6610
    -9.6557  -9.6437  -9.6370  -9.6314  -9.5749  -9.4057  -8.9939  -8.9368
    -8.9287  -8.9277  -8.9256  -8.9039  -8.8659  -8.5635  -8.5356  -8.5092
    -8.4391  -8.4328  -7.9844  -7.6217  -7.5173  -7.0340  -7.0120  -7.0080
    -6.9932  -6.9784  -6.9525  -6.9415  -6.9366  -6.9152  -6.8970  -6.8826
    -6.7616  -6.6756  -6.6090  -5.4592  -4.7433  -4.4198  -4.3873  -4.1315
    -3.6996  -3.4023  -2.6261  -2.5452  -2.4801  -1.8890  -1.8790  -1.8275
    -1.8014  -1.7949  -1.7748  -1.7601  -1.7273  -1.7069  -1.5658  -1.5127
    -0.9788  -0.3419  -0.1293  -0.1242  -0.1226  -0.1170  -0.0868  -0.0803
     0.0444   0.5506   0.6081   0.6150

 ------ SPIN DOWN ----------


          k = 0.0000 0.0000 0.0000 (171510 PWs)   bands (ev):

   -23.7864 -23.2185 -23.1957 -23.1654 -23.1528 -23.1112 -22.8200 -21.9055
   -21.9011 -21.8616 -21.8540 -21.7977 -21.6105 -21.2778 -21.2470 -21.2348
   -21.1933 -21.1285 -20.6210 -19.4426 -19.4326 -19.4267 -19.4139 -19.4074
   -19.3861 -19.3738 -19.3656 -19.3476 -19.2126 -19.2058 -18.8095 -18.5792
   -18.4914 -17.9129 -17.4741 -17.4203 -17.3458 -16.9744 -16.7813 -16.7665
   -16.3885 -15.7653 -15.7495 -15.7445 -15.7330 -15.7226 -15.7144 -15.7090
   -15.6831 -15.6763 -15.3902 -15.3081 -14.7743 -14.7032 -14.3727 -13.9611
   -13.9587 -13.9167 -13.7386 -13.6807 -12.9334 -12.4164 -12.4144 -12.3866
   -12.3753 -12.3637 -12.3601 -12.3287 -12.3127 -12.3051 -12.2537 -12.1841
   -12.1604 -12.0995 -12.0513 -12.0367 -11.8574 -11.6008 -11.5219 -11.1529
   -11.1410 -11.1188 -11.1067 -11.0701 -10.8394 -10.7897 -10.7803 -10.7620
   -10.7461 -10.7048 -10.6729 -10.6619 -10.4110 -10.4103 -10.1345 -10.1329
   -10.1106 -10.0523 -10.0337  -9.8214  -9.8104  -9.6748  -9.6362  -9.6267
    -9.6188  -9.6175  -9.5904  -9.5879  -9.5501  -9.3394  -8.9209  -8.9098
    -8.9040  -8.8949  -8.8704  -8.8526  -8.8448  -8.5508  -8.5169  -8.4791
    -8.4169  -8.3396  -7.6714  -7.4963  -7.4733  -6.9848  -6.9678  -6.9540
    -6.9415  -6.9371  -6.9202  -6.9016  -6.8930  -6.8873  -6.8425  -6.8058
    -6.7144  -6.6298  -6.5287  -5.2743  -4.4106  -4.0898  -4.0823  -3.6364
    -3.1427  -2.6881  -2.5612  -2.5028  -2.4353  -1.8443  -1.8298  -1.7919
    -1.7609  -1.7350  -1.7295  -1.7257  -1.6874  -1.6608  -1.4420  -1.3648
    -0.9694  -0.2486  -0.1226  -0.1157  -0.1117  -0.1109  -0.0770  -0.0736
     0.0704   0.6001   0.6343   0.6816

     the Fermi energy is    -4.2825 ev

!    total energy              =    -854.75439845 Ry
     estimated scf accuracy    <          5.6E-11 Ry
     smearing contrib. (-TS)   =       0.00180674 Ry
     internal energy E=F+TS    =    -854.75620519 Ry

     The total energy is F=E-TS. E is the sum of the following terms:
     one-electron contribution =   -9612.41999529 Ry
     hartree contribution      =    4832.69484902 Ry
     xc contribution           =    -304.01845642 Ry
     ewald contribution        =    4228.98739750 Ry

     total magnetization       =     1.96 Bohr mag/cell
     absolute magnetization    =     5.45 Bohr mag/cell

     convergence has been achieved in  18 iterations

     Forces acting on atoms (cartesian axes, Ry/au):

     atom    1 type  1   force =    -0.00081371   -0.00382970    0.00000001
     atom    2 type  1   force =     0.00194422   -0.00336708   -0.00000003
     atom    3 type  1   force =     0.00371939   -0.00120889    0.00000003
     atom    4 type  1   force =     0.00049339    0.00089798   -0.00000000
     atom    5 type  1   force =    -0.00341550   -0.00020715   -0.00000003
     atom    6 type  1   force =    -0.00363960    0.01284155    0.00000007
     atom    7 type  1   force =    -0.00606498    0.00166962    0.00000000
     atom    8 type  1   force =    -0.00598789    0.01037400    0.00000002
     atom    9 type  1   force =     0.00158358    0.00608959    0.00000002
     atom   10 type  1   force =    -0.00930009    0.00956976   -0.00000004
     atom   11 type  1   force =     0.00188265    0.00284614    0.00000003
     atom   12 type  1   force =    -0.00101961    0.00002117   -0.00000001
     atom   13 type  1   force =     0.00139462   -0.00242369    0.00000005
     atom   14 type  1   force =     0.00063080    0.00210850   -0.00000004
     atom   15 type  1   force =     0.00265409   -0.00331412   -0.00000001
     atom   16 type  1   force =    -0.00368800    0.00642176    0.00000001
     atom   17 type  1   force =     0.00341408   -0.00499534   -0.00000000
     atom   18 type  1   force =     0.01136137   -0.00447216   -0.00000000
     atom   19 type  1   force =     0.00063781   -0.00109829   -0.00000003
     atom   20 type  1   force =    -0.00181528   -0.01204972    0.00000003
     atom   21 type  1   force =     0.00262890   -0.00545744   -0.00000001
     atom   22 type  1   force =    -0.00372717    0.00640211   -0.00000001
     atom   23 type  1   force =     0.00153654   -0.00395860   -0.00000001
     atom   24 type  1   force =    -0.00213852    0.00051268    0.00000002
     atom   25 type  1   force =     0.00328574   -0.00134164   -0.00000000
     atom   26 type  1   force =    -0.00641804   -0.00593855   -0.00000002
     atom   27 type  1   force =    -0.00301879    0.00355724    0.00000002
     atom   28 type  1   force =     0.01320562    0.00747418    0.00000004
     atom   29 type  2   force =     0.01277419   -0.00044185   -0.00000001
     atom   30 type  2   force =    -0.00600816   -0.01127107   -0.00000000
     atom   31 type  1   force =    -0.01307944   -0.00769330   -0.00000002
     atom   32 type  1   force =    -0.00157807    0.00438370    0.00000002
     atom   33 type  1   force =     0.00836014    0.00258810    0.00000002
     atom   34 type  1   force =    -0.00048211   -0.00351989   -0.00000001
     atom   35 type  1   force =     0.00096555   -0.00167199   -0.00000003
     atom   36 type  1   force =     0.00376982    0.00309570   -0.00000000
     atom   37 type  1   force =     0.00024115   -0.00469432    0.00000000
     atom   38 type  1   force =    -0.00238922    0.00109873   -0.00000005
     atom   39 type  1   force =     0.00438869    0.00770465   -0.00000003
     atom   40 type  2   force =    -0.00359682    0.00624587   -0.00000003
     atom   41 type  1   force =    -0.00890153    0.00004408   -0.00000001
     atom   42 type  1   force =     0.00024640    0.00262171    0.00000003
     atom   43 type  1   force =     0.00396180   -0.00255575   -0.00000001
     atom   44 type  1   force =    -0.00456763   -0.00171445    0.00000001
     atom   45 type  1   force =    -0.00150467   -0.00010022   -0.00000001
     atom   46 type  1   force =    -0.00208702    0.00360887    0.00000002
     atom   47 type  1   force =     0.00084622    0.00125421   -0.00000001
     atom   48 type  1   force =     0.00158050    0.00365355    0.00000000
     atom   49 type  1   force =    -0.00037807   -0.00903262    0.00000002
     atom   50 type  1   force =    -0.00192091    0.00091088   -0.00000002
     atom   51 type  1   force =     0.00734794   -0.01273981   -0.00000001
     atom   52 type  1   force =     0.00017165    0.00213474    0.00000003
     atom   53 type  1   force =     0.00802255   -0.00418908   -0.00000000
     atom   54 type  1   force =    -0.00395846    0.00045559   -0.00000000
     atom   55 type  1   force =     0.00241927    0.00361699   -0.00000001
     atom   56 type  1   force =    -0.00367075    0.00035892   -0.00000001
     atom   57 type  1   force =    -0.00015225    0.00026646   -0.00000002
     atom   58 type  1   force =     0.00152022    0.00335888   -0.00000002
     atom   59 type  1   force =    -0.00433703   -0.00027892    0.00000002
     atom   60 type  1   force =     0.00203895   -0.00195916   -0.00000002
     atom   61 type  1   force =    -0.00037544   -0.00742913    0.00000002
     atom   62 type  1   force =     0.00246332   -0.00427529    0.00000001
     atom   63 type  1   force =     0.00662791   -0.00339044   -0.00000001
     atom   64 type  1   force =     0.00067965   -0.00274908   -0.00000000
     atom   65 type  1   force =     0.00414848    0.00033915   -0.00000003
     atom   66 type  1   force =    -0.00361168    0.00049828    0.00000004
     atom   67 type  1   force =    -0.00283768    0.00448037    0.00000001
     atom   68 type  1   force =    -0.00301637    0.00521580    0.00000002
     atom   69 type  1   force =    -0.00245283    0.00469561    0.00000001
     atom   70 type  1   force =     0.00137421    0.00337423   -0.00000005
     atom   71 type  1   force =    -0.00236811   -0.00342258    0.00000002

     Total force =     0.057676     Total SCF correction =     0.000005
     Energy error            =      4.4E-03 Ry
     Gradient error          =      1.3E-02 Ry/Bohr

     number of scf cycles    =   6
     number of bfgs steps    =   5

     energy             old  =    -854.7499938195 Ry
     energy             new  =    -854.7543984471 Ry

     CASE: energy            _new < energy            _old

     new trust radius        =       0.0659926022 bohr
     new conv_thr            =            1.0E-10 Ry


ATOMIC_POSITIONS (crystal)
C                0.0556128667        0.0555740622        0.0000000016
C                0.1112516318        0.1110408951       -0.0000000011
C                0.0556129204        0.2221462943        0.0000000010
C                0.1118474145        0.2777917971        0.0000000007
C                0.0558381489        0.3886827855       -0.0000000003
C                0.1107512419        0.4444917041        0.0000000021
C                0.0542218334        0.5557327915       -0.0000000017
C                0.1086631007        0.6123352542        0.0000000013
C                0.0542219439        0.7233786293       -0.0000000005
C                0.1107525932        0.7780890120       -0.0000000024
C                0.0558386876        0.8888119306        0.0000000008
C                0.1118473873        0.9436939986        0.0000000021
C                0.2225564990        0.0553884351       -0.0000000014
C                0.2781497348        0.1112855258       -0.0000000018
C                0.2225532730        0.2228905446       -0.0000000008
C                0.2781384839        0.2792163619       -0.0000000014
C                0.2212682029        0.3895498702        0.0000000001
C                0.2754888618        0.4476068955        0.0000000022
C                0.2166932028        0.5583200438        0.0000000025
C                0.2754919039        0.6102343127       -0.0000000005
C                0.2212702490        0.7225126830       -0.0000000016
C                0.2781387690        0.7759775984        0.0000000002
C                0.2225535279        0.8878890214        0.0000000042
C                0.2781498363        0.9438979274       -0.0000000004
C                0.3886389547        0.0569375623       -0.0000000013
C                0.4444139232        0.1142533019       -0.0000000007
C                0.3889798634        0.2271927476        0.0000000003
C                0.4439407648        0.2867302299       -0.0000000001
C1               0.3827969338        0.4003042896        0.0000000010
C1               0.3828008716        0.5502274073        0.0000000004
C                0.4439424518        0.6026610760        0.0000000009
C                0.3889805419        0.7171600199       -0.0000000000
C                0.4444139762        0.7746659456       -0.0000000003
C                0.3886389078        0.8877567009       -0.0000000017
C                0.4442511673        0.9445410962       -0.0000000018
C                0.5545938822        0.0573600323        0.0000000011
C                0.6096621843        0.1138684769        0.0000000010
C                0.5553055206        0.2242664161       -0.0000000027
C                0.6152593650        0.2761118674       -0.0000000002
C1               0.5681484503        0.3825945915        0.0000000012
C                0.6152613065        0.4419629799       -0.0000000014
C                0.5553066236        0.5537624169        0.0000000009
C                0.6096628750        0.6098035979       -0.0000000008
C                0.5545939855        0.7213795785       -0.0000000018
C                0.6108286740        0.7774128162       -0.0000000005
C                0.5551210773        0.8891062090       -0.0000000001
C                0.6108285826        0.9450919859       -0.0000000011
C                0.7218777241        0.0563631089        0.0000000006
C                0.7794590487        0.1096485866        0.0000000021
C                0.7253559411        0.2205208412        0.0000000004
C                0.7797825584        0.2767752561        0.0000000008
C                0.7253574472        0.3874568340        0.0000000008
C                0.7794602227        0.4442257013        0.0000000011
C                0.7218779454        0.5550926854        0.0000000018
C                0.7774877476        0.6106064296       -0.0000000002
C                0.7215984800        0.7223347187        0.0000000000
C                0.7776362178        0.7778486222       -0.0000000003
C                0.7215985563        0.8894000278       -0.0000000004
C                0.7774876990        0.9452392648       -0.0000000003
C                0.8894410194        0.0549654072        0.0000000024
C                0.9452273976        0.1107954166        0.0000000016
C                0.8900932375        0.2216200555        0.0000000001
C                0.9452274040        0.2773104816       -0.0000000017
C                0.8894412888        0.3889269288       -0.0000000004
C                0.9447271977        0.4444609937       -0.0000000012
C                0.8883702823        0.5552037167       -0.0000000016
C                0.9443870628        0.6110165213       -0.0000000015
C                0.8888934471        0.7222199556       -0.0000000006
C                0.9443870610        0.7779297445        0.0000000005
C                0.8883701484        0.8897593692       -0.0000000012
C                0.9447272227        0.9441451684        0.0000000000



     Writing config-only to output data dir /home/gregb26/links/scratch/qe_tmp/vacancy_relaxed/series/6x6/nspin2/vac_6x6_relax_nspin2.save/ :
     XML data file
     NEW-OLD atomic charge density approx. for the potential

     negative rho (up, down):  4.406E-06 4.438E-06
     Generating pointlists ...

     total cpu time spent up to now is      347.9 secs

     per-process dynamical memory:   234.2 Mb

     Self-consistent Calculation

     iteration #  1     ecut=   100.00 Ry     beta= 0.30
     Davidson diagonalization with overlap
     ethr =  1.00E-06,  avg # of iterations =  7.0

     negative rho (up, down):  3.396E-06 2.837E-06

     total cpu time spent up to now is      352.8 secs

     total energy              =    -854.75705591 Ry
     estimated scf accuracy    <       0.00284780 Ry

     total magnetization       =     1.96 Bohr mag/cell
     absolute magnetization    =     5.42 Bohr mag/cell

     iteration #  2     ecut=   100.00 Ry     beta= 0.30
     Davidson diagonalization with overlap
     ethr =  1.00E-06,  avg # of iterations =  2.0

     negative rho (up, down):  2.070E-06 1.728E-06

     total cpu time spent up to now is      354.8 secs

     total energy              =    -854.75717724 Ry
     estimated scf accuracy    <       0.00087456 Ry

     total magnetization       =     1.96 Bohr mag/cell
     absolute magnetization    =     5.42 Bohr mag/cell

     iteration #  3     ecut=   100.00 Ry     beta= 0.30
     Davidson diagonalization with overlap
     ethr =  3.08E-07,  avg # of iterations =  1.5

     negative rho (up, down):  7.517E-07 6.255E-07

     total cpu time spent up to now is      356.6 secs

     total energy              =    -854.75721943 Ry
     estimated scf accuracy    <       0.00031847 Ry

     total magnetization       =     1.96 Bohr mag/cell
     absolute magnetization    =     5.42 Bohr mag/cell

     iteration #  4     ecut=   100.00 Ry     beta= 0.30
     Davidson diagonalization with overlap
     ethr =  1.12E-07,  avg # of iterations =  3.0

     negative rho (up, down):  2.146E-07 1.774E-07

     total cpu time spent up to now is      358.6 secs

     total energy              =    -854.75725883 Ry
     estimated scf accuracy    <       0.00004016 Ry

     total magnetization       =     1.96 Bohr mag/cell
     absolute magnetization    =     5.42 Bohr mag/cell

     iteration #  5     ecut=   100.00 Ry     beta= 0.30
     Davidson diagonalization with overlap
     ethr =  1.41E-08,  avg # of iterations =  4.0

     negative rho (up, down):  8.516E-08 6.999E-08

     total cpu time spent up to now is      360.9 secs

     total energy              =    -854.75726757 Ry
     estimated scf accuracy    <       0.00000640 Ry

     total magnetization       =     1.96 Bohr mag/cell
     absolute magnetization    =     5.41 Bohr mag/cell

     iteration #  6     ecut=   100.00 Ry     beta= 0.30
     Davidson diagonalization with overlap
     ethr =  2.25E-09,  avg # of iterations =  4.0

     negative rho (up, down):  2.917E-08 2.370E-08

     total cpu time spent up to now is      363.2 secs

     total energy              =    -854.75726974 Ry
     estimated scf accuracy    <       0.00000186 Ry

     total magnetization       =     1.96 Bohr mag/cell
     absolute magnetization    =     5.41 Bohr mag/cell

     iteration #  7     ecut=   100.00 Ry     beta= 0.30
     Davidson diagonalization with overlap
     ethr =  6.56E-10,  avg # of iterations =  3.5

     total cpu time spent up to now is      365.3 secs

     total energy              =    -854.75727056 Ry
     estimated scf accuracy    <       0.00000053 Ry

     total magnetization       =     1.96 Bohr mag/cell
     absolute magnetization    =     5.41 Bohr mag/cell

     iteration #  8     ecut=   100.00 Ry     beta= 0.30
     Davidson diagonalization with overlap
     ethr =  1.85E-10,  avg # of iterations =  4.0

     total cpu time spent up to now is      367.6 secs

     total energy              =    -854.75727090 Ry
     estimated scf accuracy    <       0.00000010 Ry

     total magnetization       =     1.96 Bohr mag/cell
     absolute magnetization    =     5.40 Bohr mag/cell

     iteration #  9     ecut=   100.00 Ry     beta= 0.30
     Davidson diagonalization with overlap
     ethr =  3.66E-11,  avg # of iterations =  4.0

     total cpu time spent up to now is      370.3 secs

     total energy              =    -854.75727105 Ry
     estimated scf accuracy    <       0.00000004 Ry

     total magnetization       =     1.96 Bohr mag/cell
     absolute magnetization    =     5.40 Bohr mag/cell

     iteration # 10     ecut=   100.00 Ry     beta= 0.30
     Davidson diagonalization with overlap
     ethr =  1.44E-11,  avg # of iterations =  5.0

     total cpu time spent up to now is      373.2 secs

     total energy              =    -854.75727112 Ry
     estimated scf accuracy    <       0.00000002 Ry

     total magnetization       =     1.96 Bohr mag/cell
     absolute magnetization    =     5.40 Bohr mag/cell

     iteration # 11     ecut=   100.00 Ry     beta= 0.30
     Davidson diagonalization with overlap
     ethr =  5.48E-12,  avg # of iterations =  5.0

     total cpu time spent up to now is      376.2 secs

     total energy              =    -854.75727116 Ry
     estimated scf accuracy    <          6.1E-09 Ry

     total magnetization       =     1.96 Bohr mag/cell
     absolute magnetization    =     5.40 Bohr mag/cell

     iteration # 12     ecut=   100.00 Ry     beta= 0.30
     Davidson diagonalization with overlap
     ethr =  2.14E-12,  avg # of iterations =  5.0

     total cpu time spent up to now is      379.2 secs

     total energy              =    -854.75727117 Ry
     estimated scf accuracy    <          3.1E-09 Ry

     total magnetization       =     1.96 Bohr mag/cell
     absolute magnetization    =     5.39 Bohr mag/cell

     iteration # 13     ecut=   100.00 Ry     beta= 0.30
     Davidson diagonalization with overlap
     ethr =  1.11E-12,  avg # of iterations =  5.0

     total cpu time spent up to now is      382.0 secs

     total energy              =    -854.75727118 Ry
     estimated scf accuracy    <          1.8E-09 Ry

     total magnetization       =     1.96 Bohr mag/cell
     absolute magnetization    =     5.39 Bohr mag/cell

     iteration # 14     ecut=   100.00 Ry     beta= 0.30
     Davidson diagonalization with overlap
     ethr =  6.26E-13,  avg # of iterations =  5.0

     total cpu time spent up to now is      385.3 secs

     total energy              =    -854.75727119 Ry
     estimated scf accuracy    <          7.6E-10 Ry

     total magnetization       =     1.96 Bohr mag/cell
     absolute magnetization    =     5.39 Bohr mag/cell

     iteration # 15     ecut=   100.00 Ry     beta= 0.30
     Davidson diagonalization with overlap
     ethr =  2.68E-13,  avg # of iterations =  5.0

     total cpu time spent up to now is      388.6 secs

     total energy              =    -854.75727119 Ry
     estimated scf accuracy    <          3.5E-10 Ry

     total magnetization       =     1.96 Bohr mag/cell
     absolute magnetization    =     5.39 Bohr mag/cell

     iteration # 16     ecut=   100.00 Ry     beta= 0.30
     Davidson diagonalization with overlap
     ethr =  1.23E-13,  avg # of iterations =  5.0

     total cpu time spent up to now is      391.9 secs

     total energy              =    -854.75727119 Ry
     estimated scf accuracy    <          1.4E-10 Ry

     total magnetization       =     1.96 Bohr mag/cell
     absolute magnetization    =     5.39 Bohr mag/cell

     iteration # 17     ecut=   100.00 Ry     beta= 0.30
     Davidson diagonalization with overlap
     ethr =  1.00E-13,  avg # of iterations =  4.0

     Magnetic moment per site  (integrated on atomic sphere of radius R)
     atom   1 (R=0.038)  charge=  1.5036  magn=  0.0293
     atom   2 (R=0.038)  charge=  1.5011  magn= -0.0136
     atom   3 (R=0.038)  charge=  1.5036  magn=  0.0293
     atom   4 (R=0.038)  charge=  1.5028  magn= -0.0253
     atom   5 (R=0.038)  charge=  1.5069  magn=  0.0315
     atom   6 (R=0.038)  charge=  1.5082  magn= -0.0247
     atom   7 (R=0.038)  charge=  1.5121  magn=  0.0286
     atom   8 (R=0.038)  charge=  1.5225  magn= -0.0125
     atom   9 (R=0.038)  charge=  1.5121  magn=  0.0286
     atom  10 (R=0.038)  charge=  1.5082  magn= -0.0247
     atom  11 (R=0.038)  charge=  1.5069  magn=  0.0315
     atom  12 (R=0.038)  charge=  1.5028  magn= -0.0253
     atom  13 (R=0.038)  charge=  1.4982  magn=  0.0325
     atom  14 (R=0.038)  charge=  1.5015  magn= -0.0252
     atom  15 (R=0.038)  charge=  1.4990  magn=  0.0298
     atom  16 (R=0.038)  charge=  1.5039  magn= -0.0126
     atom  17 (R=0.038)  charge=  1.5036  magn=  0.0306
     atom  18 (R=0.038)  charge=  1.5199  magn= -0.0187
     atom  19 (R=0.038)  charge=  1.5294  magn=  0.0294
     atom  20 (R=0.038)  charge=  1.5199  magn= -0.0187
     atom  21 (R=0.038)  charge=  1.5036  magn=  0.0306
     atom  22 (R=0.038)  charge=  1.5039  magn= -0.0126
     atom  23 (R=0.038)  charge=  1.4990  magn=  0.0298
     atom  24 (R=0.038)  charge=  1.5015  magn= -0.0252
     atom  25 (R=0.038)  charge=  1.4900  magn=  0.0303
     atom  26 (R=0.038)  charge=  1.4887  magn= -0.0270
     atom  27 (R=0.038)  charge=  1.4756  magn=  0.0316
     atom  28 (R=0.038)  charge=  1.4611  magn= -0.0288
     atom  29 (R=0.038)  charge=  1.3967  magn=  0.0527
     atom  30 (R=0.038)  charge=  1.3967  magn=  0.0526
     atom  31 (R=0.038)  charge=  1.4611  magn= -0.0288
     atom  32 (R=0.038)  charge=  1.4756  magn=  0.0316
     atom  33 (R=0.038)  charge=  1.4887  magn= -0.0270
     atom  34 (R=0.038)  charge=  1.4900  magn=  0.0303
     atom  35 (R=0.038)  charge=  1.4890  magn= -0.0147
     atom  36 (R=0.038)  charge=  1.5010  magn=  0.0280
     atom  37 (R=0.038)  charge=  1.4977  magn= -0.0151
     atom  38 (R=0.038)  charge=  1.5002  magn=  0.0419
     atom  39 (R=0.038)  charge=  1.5272  magn= -0.0244
     atom  40 (R=0.038)  charge=  1.4786  magn=  0.3357
     atom  41 (R=0.038)  charge=  1.5272  magn= -0.0244
     atom  42 (R=0.038)  charge=  1.5002  magn=  0.0419
     atom  43 (R=0.038)  charge=  1.4977  magn= -0.0151
     atom  44 (R=0.038)  charge=  1.5010  magn=  0.0280
     atom  45 (R=0.038)  charge=  1.4953  magn= -0.0263
     atom  46 (R=0.038)  charge=  1.4982  magn=  0.0295
     atom  47 (R=0.038)  charge=  1.4953  magn= -0.0263
     atom  48 (R=0.038)  charge=  1.4989  magn=  0.0336
     atom  49 (R=0.038)  charge=  1.5134  magn= -0.0229
     atom  50 (R=0.038)  charge=  1.5150  magn=  0.0484
     atom  51 (R=0.038)  charge=  1.5141  magn= -0.0179
     atom  52 (R=0.038)  charge=  1.5150  magn=  0.0484
     atom  53 (R=0.038)  charge=  1.5134  magn= -0.0229
     atom  54 (R=0.038)  charge=  1.4989  magn=  0.0336
     atom  55 (R=0.038)  charge=  1.5010  magn= -0.0261
     atom  56 (R=0.038)  charge=  1.4993  magn=  0.0283
     atom  57 (R=0.038)  charge=  1.4964  magn= -0.0137
     atom  58 (R=0.038)  charge=  1.4993  magn=  0.0283
     atom  59 (R=0.038)  charge=  1.5010  magn= -0.0261
     atom  60 (R=0.038)  charge=  1.5093  magn=  0.0299
     atom  61 (R=0.038)  charge=  1.5068  magn= -0.0262
     atom  62 (R=0.038)  charge=  1.5116  magn=  0.0316
     atom  63 (R=0.038)  charge=  1.5068  magn= -0.0262
     atom  64 (R=0.038)  charge=  1.5093  magn=  0.0299
     atom  65 (R=0.038)  charge=  1.5060  magn= -0.0133
     atom  66 (R=0.038)  charge=  1.5036  magn=  0.0296
     atom  67 (R=0.038)  charge=  1.5061  magn= -0.0251
     atom  68 (R=0.038)  charge=  1.5016  magn=  0.0318
     atom  69 (R=0.038)  charge=  1.5061  magn= -0.0251
     atom  70 (R=0.038)  charge=  1.5036  magn=  0.0296
     atom  71 (R=0.038)  charge=  1.5060  magn= -0.0133

     total cpu time spent up to now is      394.6 secs

     End of self-consistent calculation

 ------ SPIN UP ------------


          k = 0.0000 0.0000 0.0000 (171510 PWs)   bands (ev):

   -23.8116 -23.2656 -23.2260 -23.1809 -23.1611 -23.1115 -22.8716 -21.9407
   -21.9130 -21.8982 -21.8893 -21.7986 -21.6472 -21.3179 -21.2601 -21.2518
   -21.2230 -21.1360 -20.7135 -19.4676 -19.4608 -19.4518 -19.4394 -19.4275
   -19.4127 -19.3807 -19.3786 -19.3475 -19.2998 -19.2213 -18.8346 -18.6076
   -18.5285 -18.0272 -17.5133 -17.4400 -17.3594 -16.9771 -16.8786 -16.8049
   -16.4394 -15.7760 -15.7681 -15.7680 -15.7501 -15.7408 -15.7361 -15.7242
   -15.7075 -15.6893 -15.4152 -15.4106 -14.8025 -14.7234 -14.4556 -13.9938
   -13.9909 -13.9240 -13.7491 -13.7419 -13.0235 -12.4528 -12.4271 -12.3903
   -12.3883 -12.3821 -12.3764 -12.3739 -12.3130 -12.3119 -12.2805 -12.1966
   -12.1641 -12.1363 -12.0612 -12.0503 -11.8983 -11.6156 -11.5967 -11.2070
   -11.1891 -11.1551 -11.1360 -11.0919 -10.8975 -10.8213 -10.8205 -10.7925
   -10.7387 -10.7119 -10.6924 -10.6676 -10.4362 -10.4253 -10.2229 -10.1585
   -10.1379 -10.0724 -10.0489  -9.8309  -9.8282  -9.6914  -9.6772  -9.6591
    -9.6506  -9.6402  -9.6400  -9.6320  -9.5630  -9.4059  -8.9928  -8.9527
    -8.9331  -8.9266  -8.9222  -8.8898  -8.8608  -8.5462  -8.5252  -8.5018
    -8.4508  -8.4353  -8.0881  -7.6187  -7.5188  -7.0299  -7.0198  -7.0067
    -6.9971  -6.9818  -6.9532  -6.9408  -6.9326  -6.9006  -6.8933  -6.8681
    -6.7611  -6.6726  -6.5993  -5.4740  -4.8599  -4.4177  -4.3845  -4.1280
    -3.7054  -3.1582  -2.6317  -2.5439  -2.4903  -1.8921  -1.8893  -1.8249
    -1.8115  -1.8002  -1.7589  -1.7557  -1.7218  -1.7105  -1.5758  -1.5051
    -0.9789  -0.3464  -0.1295  -0.1248  -0.1244  -0.1153  -0.0877  -0.0772
     0.0417   0.5376   0.6014   0.6153

 ------ SPIN DOWN ----------


          k = 0.0000 0.0000 0.0000 (171510 PWs)   bands (ev):

   -23.7868 -23.2255 -23.2061 -23.1603 -23.1433 -23.0891 -22.8122 -21.9028
   -21.8942 -21.8634 -21.8564 -21.7855 -21.6106 -21.2738 -21.2394 -21.2283
   -21.1869 -21.1209 -20.6351 -19.4439 -19.4415 -19.4303 -19.4111 -19.3938
   -19.3876 -19.3588 -19.3526 -19.3319 -19.2183 -19.2030 -18.8071 -18.5821
   -18.4779 -17.9175 -17.4785 -17.4135 -17.3469 -16.9717 -16.7746 -16.7569
   -16.3959 -15.7556 -15.7479 -15.7462 -15.7235 -15.7212 -15.7069 -15.7030
   -15.6782 -15.6716 -15.3922 -15.3073 -14.7778 -14.7002 -14.3779 -13.9643
   -13.9584 -13.9093 -13.7273 -13.6801 -12.9304 -12.4287 -12.4150 -12.3803
   -12.3713 -12.3623 -12.3615 -12.3349 -12.3032 -12.2919 -12.2452 -12.1759
   -12.1374 -12.1003 -12.0423 -12.0239 -11.8571 -11.5961 -11.5164 -11.1587
   -11.1497 -11.1147 -11.0999 -11.0515 -10.8550 -10.7927 -10.7785 -10.7561
   -10.7247 -10.6949 -10.6621 -10.6537 -10.4095 -10.4066 -10.1495 -10.1313
   -10.1120 -10.0318 -10.0257  -9.8057  -9.7954  -9.6729  -9.6296  -9.6221
    -9.6165  -9.6136  -9.5923  -9.5910  -9.5378  -9.3406  -8.9262  -8.9198
    -8.8985  -8.8926  -8.8716  -8.8430  -8.8401  -8.5313  -8.5068  -8.4750
    -8.4186  -8.3519  -7.7850  -7.5054  -7.4977  -6.9776  -6.9742  -6.9649
    -6.9515  -6.9279  -6.9180  -6.8933  -6.8889  -6.8725  -6.8343  -6.8040
    -6.7134  -6.6272  -6.5228  -5.2903  -4.4080  -4.0873  -4.0800  -3.6476
    -2.9239  -2.7496  -2.5660  -2.5019  -2.4458  -1.8459  -1.8398  -1.7915
    -1.7672  -1.7419  -1.7260  -1.7121  -1.6799  -1.6640  -1.4357  -1.3784
    -0.9694  -0.2525  -0.1229  -0.1176  -0.1132  -0.1092  -0.0778  -0.0702
     0.0683   0.5853   0.6272   0.6850

     the Fermi energy is    -4.2798 ev

!    total energy              =    -854.75727119 Ry
     estimated scf accuracy    <          5.8E-11 Ry
     smearing contrib. (-TS)   =       0.00181014 Ry
     internal energy E=F+TS    =    -854.75908133 Ry

     The total energy is F=E-TS. E is the sum of the following terms:
     one-electron contribution =   -9611.95673461 Ry
     hartree contribution      =    4832.46735820 Ry
     xc contribution           =    -303.99514220 Ry
     ewald contribution        =    4228.72543728 Ry

     total magnetization       =     1.96 Bohr mag/cell
     absolute magnetization    =     5.39 Bohr mag/cell

     convergence has been achieved in  17 iterations

     Forces acting on atoms (cartesian axes, Ry/au):

     atom    1 type  1   force =     0.00283336   -0.00519490   -0.00000000
     atom    2 type  1   force =     0.00267021   -0.00463145    0.00000000
     atom    3 type  1   force =     0.00308426   -0.00504975   -0.00000004
     atom    4 type  1   force =     0.00159121   -0.00402819   -0.00000000
     atom    5 type  1   force =     0.00034952    0.00352436    0.00000001
     atom    6 type  1   force =     0.00306927   -0.00167847   -0.00000001
     atom    7 type  1   force =    -0.00488780    0.00859655    0.00000003
     atom    8 type  1   force =     0.00030674   -0.00053835   -0.00000002
     atom    9 type  1   force =    -0.00499675    0.00853052   -0.00000000
     atom   10 type  1   force =    -0.00007933   -0.00349338    0.00000001
     atom   11 type  1   force =    -0.00323049    0.00145690    0.00000001
     atom   12 type  1   force =     0.00269245   -0.00339841    0.00000001
     atom   13 type  1   force =    -0.00056865    0.00098506   -0.00000000
     atom   14 type  1   force =     0.00254919   -0.00190044    0.00000000
     atom   15 type  1   force =    -0.00293374    0.00226818   -0.00000000
     atom   16 type  1   force =     0.00050112    0.00199008    0.00000001
     atom   17 type  1   force =     0.00399070    0.00385434    0.00000001
     atom   18 type  1   force =     0.00470346   -0.00082363   -0.00000001
     atom   19 type  1   force =     0.00069594   -0.00121322   -0.00000002
     atom   20 type  1   force =    -0.00163861   -0.00447632    0.00000002
     atom   21 type  1   force =    -0.00533375   -0.00151405    0.00000001
     atom   22 type  1   force =    -0.00196495    0.00055257    0.00000001
     atom   23 type  1   force =    -0.00049845    0.00367496   -0.00000004
     atom   24 type  1   force =     0.00036470   -0.00316098    0.00000001
     atom   25 type  1   force =    -0.00104779   -0.00176867   -0.00000001
     atom   26 type  1   force =    -0.00164050    0.00019359    0.00000000
     atom   27 type  1   force =    -0.00120237    0.00175961   -0.00000000
     atom   28 type  1   force =     0.00146892    0.00069373    0.00000000
     atom   29 type  2   force =     0.01466308   -0.00433360   -0.00000001
     atom   30 type  2   force =    -0.00357886   -0.01484487    0.00000001
     atom   31 type  1   force =    -0.00133824   -0.00092280   -0.00000001
     atom   32 type  1   force =    -0.00092582    0.00192464    0.00000001
     atom   33 type  1   force =     0.00064912    0.00151502    0.00000001
     atom   34 type  1   force =     0.00205886    0.00002376    0.00000001
     atom   35 type  1   force =    -0.00043587    0.00075081    0.00000001
     atom   36 type  1   force =     0.00061416   -0.00203366   -0.00000001
     atom   37 type  1   force =    -0.00140812   -0.00363587   -0.00000002
     atom   38 type  1   force =     0.00453441    0.00265225    0.00000002
     atom   39 type  1   force =    -0.00304022    0.00587912   -0.00000000
     atom   40 type  2   force =    -0.00690474    0.01190605   -0.00000003
     atom   41 type  1   force =    -0.00355592    0.00558297    0.00000002
     atom   42 type  1   force =    -0.00456929   -0.00260583    0.00000000
     atom   43 type  1   force =     0.00384056   -0.00060126    0.00000000
     atom   44 type  1   force =     0.00146608   -0.00154322    0.00000002
     atom   45 type  1   force =    -0.00278598    0.00125912   -0.00000001
     atom   46 type  1   force =     0.00036872   -0.00063533   -0.00000002
     atom   47 type  1   force =     0.00030356    0.00304141    0.00000002
     atom   48 type  1   force =     0.00048352   -0.00258820   -0.00000000
     atom   49 type  1   force =     0.00002042    0.00071144   -0.00000001
     atom   50 type  1   force =     0.00396779   -0.00073125    0.00000001
     atom   51 type  1   force =     0.00029970   -0.00049307   -0.00000000
     atom   52 type  1   force =    -0.00136220   -0.00380992   -0.00000001
     atom   53 type  1   force =    -0.00063518    0.00034713    0.00000000
     atom   54 type  1   force =     0.00201418   -0.00171719   -0.00000001
     atom   55 type  1   force =    -0.00393603    0.00235937   -0.00000000
     atom   56 type  1   force =     0.00109099    0.00249623   -0.00000001
     atom   57 type  1   force =    -0.00249978    0.00432424    0.00000000
     atom   58 type  1   force =    -0.00270189    0.00030836   -0.00000000
     atom   59 type  1   force =    -0.00007792    0.00458836   -0.00000001
     atom   60 type  1   force =     0.00100308   -0.00471988   -0.00000000
     atom   61 type  1   force =     0.00109769   -0.00491797    0.00000001
     atom   62 type  1   force =     0.00505739   -0.00875964    0.00000001
     atom   63 type  1   force =     0.00370684   -0.00340943    0.00000003
     atom   64 type  1   force =     0.00359075   -0.00323446    0.00000000
     atom   65 type  1   force =    -0.00122745   -0.00070428    0.00000001
     atom   66 type  1   force =     0.00121444    0.00314944    0.00000002
     atom   67 type  1   force =    -0.00462643    0.00450349   -0.00000000
     atom   68 type  1   force =    -0.00358598    0.00621637    0.00000000
     atom   69 type  1   force =    -0.00158951    0.00625886   -0.00000002
     atom   70 type  1   force =    -0.00333072    0.00052469   -0.00000001
     atom   71 type  1   force =     0.00122295    0.00070832    0.00000001

     Total force =     0.043888     Total SCF correction =     0.000006
     Energy error            =      2.9E-03 Ry
     Gradient error          =      1.5E-02 Ry/Bohr

     number of scf cycles    =   7
     number of bfgs steps    =   6

     energy             old  =    -854.7543984471 Ry
     energy             new  =    -854.7572711941 Ry

     CASE: energy            _new < energy            _old

     new trust radius        =       0.0633915454 bohr
     new conv_thr            =            1.0E-10 Ry


ATOMIC_POSITIONS (crystal)
C                0.0560735632        0.0552589710        0.0000000019
C                0.1116682535        0.1108324427       -0.0000000012
C                0.0560735323        0.2220007671       -0.0000000000
C                0.1121576909        0.2776848068        0.0000000005
C                0.0556945213        0.3887753747       -0.0000000004
C                0.1104795745        0.4447499194        0.0000000033
C                0.0533314589        0.5560130037       -0.0000000003
C                0.1078887602        0.6127223137        0.0000000010
C                0.0533316531        0.7239888695       -0.0000000003
C                0.1104811502        0.7781023705       -0.0000000033
C                0.0556953204        0.8888624072        0.0000000020
C                0.1121580205        0.9434904233        0.0000000028
C                0.2226516936        0.0553407524       -0.0000000004
C                0.2783306916        0.1113676078       -0.0000000024
C                0.2226049990        0.2230041127       -0.0000000011
C                0.2779995801        0.2796775704       -0.0000000007
C                0.2210489519        0.3899987086        0.0000000007
C                0.2752899427        0.4481711048        0.0000000022
C                0.2158332584        0.5587498958        0.0000000012
C                0.2752925052        0.6098693067        0.0000000011
C                0.2210508804        0.7222833127       -0.0000000016
C                0.2780005154        0.7756547713        0.0000000004
C                0.2226052558        0.8877234477        0.0000000031
C                0.2783307128        0.9436346728        0.0000000002
C                0.3887529946        0.0570995615       -0.0000000021
C                0.4443449679        0.1146288344       -0.0000000014
C                0.3888069787        0.2280364332        0.0000000008
C                0.4437550610        0.2882584109        0.0000000009
C1               0.3828974838        0.4025196692        0.0000000003
C1               0.3829007795        0.5479117998        0.0000000008
C                0.4437566949        0.6013184792        0.0000000004
C                0.3888076644        0.7164888588        0.0000000006
C                0.4443451732        0.7743592102        0.0000000007
C                0.3887530606        0.8874806649       -0.0000000019
C                0.4441937012        0.9445697385       -0.0000000022
C                0.5545516305        0.0577152166        0.0000000008
C                0.6096235532        0.1141309518        0.0000000003
C                0.5552063419        0.2249133377       -0.0000000036
C                0.6157185317        0.2759896432       -0.0000000012
C1               0.5687593901        0.3822883784       -0.0000000008
C                0.6157204816        0.4416265725       -0.0000000009
C                0.5552077414        0.5532146058        0.0000000015
C                0.6096243952        0.6095797001       -0.0000000011
C                0.5545517466        0.7210673022       -0.0000000009
C                0.6105751509        0.7773177099       -0.0000000010
C                0.5549964195        0.8891685672       -0.0000000003
C                0.6105751741        0.9454407525       -0.0000000008
C                0.7218639548        0.0564965685        0.0000000007
C                0.7798920595        0.1092607696        0.0000000025
C                0.7261862206        0.2201075842        0.0000000003
C                0.7805708995        0.2763815398        0.0000000009
C                0.7261877567        0.3870394991        0.0000000012
C                0.7798929378        0.4441808429        0.0000000014
C                0.7218648332        0.5549731186        0.0000000015
C                0.7771390695        0.6106641797       -0.0000000007
C                0.7213813956        0.7224389808       -0.0000000005
C                0.7773033625        0.7780149633       -0.0000000008
C                0.7213813288        0.8895131735       -0.0000000010
C                0.7771388303        0.9455303797       -0.0000000005
C                0.8899294207        0.0546136350        0.0000000024
C                0.9457747328        0.1103428013        0.0000000025
C                0.8910141065        0.2211595259        0.0000000005
C                0.9457747415        0.2772157286       -0.0000000014
C                0.8899302727        0.3887901019       -0.0000000005
C                0.9448293007        0.4444387058       -0.0000000015
C                0.8881108014        0.5553181757       -0.0000000002
C                0.9438041739        0.6111690262       -0.0000000018
C                0.8883433764        0.7224950228       -0.0000000003
C                0.9438042294        0.7783601444       -0.0000000001
C                0.8881107273        0.8899045272       -0.0000000027
C                0.9448294212        0.9440652294        0.0000000007



     Writing config-only to output data dir /home/gregb26/links/scratch/qe_tmp/vacancy_relaxed/series/6x6/nspin2/vac_6x6_relax_nspin2.save/ :
     XML data file
     NEW-OLD atomic charge density approx. for the potential

     negative rho (up, down):  3.743E-06 3.767E-06
     Generating pointlists ...

     total cpu time spent up to now is      395.8 secs

     per-process dynamical memory:   204.9 Mb

     Self-consistent Calculation

     iteration #  1     ecut=   100.00 Ry     beta= 0.30
     Davidson diagonalization with overlap
     ethr =  1.00E-06,  avg # of iterations =  7.0

     negative rho (up, down):  2.718E-06 2.372E-06

     total cpu time spent up to now is      400.8 secs

     total energy              =    -854.75923091 Ry
     estimated scf accuracy    <       0.00213672 Ry

     total magnetization       =     1.98 Bohr mag/cell
     absolute magnetization    =     5.39 Bohr mag/cell

     iteration #  2     ecut=   100.00 Ry     beta= 0.30
     Davidson diagonalization with overlap
     ethr =  7.52E-07,  avg # of iterations =  2.0

     negative rho (up, down):  1.596E-06 1.392E-06

     total cpu time spent up to now is      402.8 secs

     total energy              =    -854.75928306 Ry
     estimated scf accuracy    <       0.00063819 Ry

     total magnetization       =     1.97 Bohr mag/cell
     absolute magnetization    =     5.40 Bohr mag/cell

     iteration #  3     ecut=   100.00 Ry     beta= 0.30
     Davidson diagonalization with overlap
     ethr =  2.25E-07,  avg # of iterations =  1.5

     negative rho (up, down):  5.963E-07 5.191E-07

     total cpu time spent up to now is      404.7 secs

     total energy              =    -854.75929303 Ry
     estimated scf accuracy    <       0.00021504 Ry

     total magnetization       =     1.97 Bohr mag/cell
     absolute magnetization    =     5.39 Bohr mag/cell

     iteration #  4     ecut=   100.00 Ry     beta= 0.30
     Davidson diagonalization with overlap
     ethr =  7.57E-08,  avg # of iterations =  2.5

     negative rho (up, down):  1.921E-07 1.665E-07

     total cpu time spent up to now is      406.7 secs

     total energy              =    -854.75931710 Ry
     estimated scf accuracy    <       0.00002903 Ry

     total magnetization       =     1.97 Bohr mag/cell
     absolute magnetization    =     5.40 Bohr mag/cell

     iteration #  5     ecut=   100.00 Ry     beta= 0.30
     Davidson diagonalization with overlap
     ethr =  1.02E-08,  avg # of iterations =  4.0

     negative rho (up, down):  7.408E-08 6.395E-08

     total cpu time spent up to now is      409.1 secs

     total energy              =    -854.75932250 Ry
     estimated scf accuracy    <       0.00000525 Ry

     total magnetization       =     1.97 Bohr mag/cell
     absolute magnetization    =     5.40 Bohr mag/cell

     iteration #  6     ecut=   100.00 Ry     beta= 0.30
     Davidson diagonalization with overlap
     ethr =  1.85E-09,  avg # of iterations =  4.0

     negative rho (up, down):  2.716E-08 2.331E-08

     total cpu time spent up to now is      411.4 secs

     total energy              =    -854.75932359 Ry
     estimated scf accuracy    <       0.00000125 Ry

     total magnetization       =     1.97 Bohr mag/cell
     absolute magnetization    =     5.40 Bohr mag/cell

     iteration #  7     ecut=   100.00 Ry     beta= 0.30
     Davidson diagonalization with overlap
     ethr =  4.40E-10,  avg # of iterations =  4.0

     total cpu time spent up to now is      413.6 secs

     total energy              =    -854.75932390 Ry
     estimated scf accuracy    <       0.00000036 Ry

     total magnetization       =     1.97 Bohr mag/cell
     absolute magnetization    =     5.40 Bohr mag/cell

     iteration #  8     ecut=   100.00 Ry     beta= 0.30
     Davidson diagonalization with overlap
     ethr =  1.26E-10,  avg # of iterations =  4.0

     total cpu time spent up to now is      415.9 secs

     total energy              =    -854.75932402 Ry
     estimated scf accuracy    <       0.00000007 Ry

     total magnetization       =     1.97 Bohr mag/cell
     absolute magnetization    =     5.40 Bohr mag/cell

     iteration #  9     ecut=   100.00 Ry     beta= 0.30
     Davidson diagonalization with overlap
     ethr =  2.32E-11,  avg # of iterations =  4.0

     total cpu time spent up to now is      418.7 secs

     total energy              =    -854.75932407 Ry
     estimated scf accuracy    <       0.00000002 Ry

     total magnetization       =     1.97 Bohr mag/cell
     absolute magnetization    =     5.40 Bohr mag/cell

     iteration # 10     ecut=   100.00 Ry     beta= 0.30
     Davidson diagonalization with overlap
     ethr =  7.59E-12,  avg # of iterations =  3.0

     total cpu time spent up to now is      420.9 secs

     total energy              =    -854.75932409 Ry
     estimated scf accuracy    <       0.00000001 Ry

     total magnetization       =     1.97 Bohr mag/cell
     absolute magnetization    =     5.40 Bohr mag/cell

     iteration # 11     ecut=   100.00 Ry     beta= 0.30
     Davidson diagonalization with overlap
     ethr =  3.59E-12,  avg # of iterations =  5.0

     total cpu time spent up to now is      423.7 secs

     total energy              =    -854.75932411 Ry
     estimated scf accuracy    <          3.5E-09 Ry

     total magnetization       =     1.97 Bohr mag/cell
     absolute magnetization    =     5.40 Bohr mag/cell

     iteration # 12     ecut=   100.00 Ry     beta= 0.30
     Davidson diagonalization with overlap
     ethr =  1.24E-12,  avg # of iterations =  5.0

     total cpu time spent up to now is      426.6 secs

     total energy              =    -854.75932412 Ry
     estimated scf accuracy    <          1.1E-09 Ry

     total magnetization       =     1.97 Bohr mag/cell
     absolute magnetization    =     5.40 Bohr mag/cell

     iteration # 13     ecut=   100.00 Ry     beta= 0.30
     Davidson diagonalization with overlap
     ethr =  3.82E-13,  avg # of iterations =  5.0

     total cpu time spent up to now is      429.7 secs

     total energy              =    -854.75932412 Ry
     estimated scf accuracy    <          3.6E-10 Ry

     total magnetization       =     1.97 Bohr mag/cell
     absolute magnetization    =     5.40 Bohr mag/cell

     iteration # 14     ecut=   100.00 Ry     beta= 0.30
     Davidson diagonalization with overlap
     ethr =  1.28E-13,  avg # of iterations =  5.0

     total cpu time spent up to now is      432.7 secs

     total energy              =    -854.75932412 Ry
     estimated scf accuracy    <          1.3E-10 Ry

     total magnetization       =     1.97 Bohr mag/cell
     absolute magnetization    =     5.40 Bohr mag/cell

     iteration # 15     ecut=   100.00 Ry     beta= 0.30
     Davidson diagonalization with overlap
     ethr =  1.00E-13,  avg # of iterations =  4.0

     Magnetic moment per site  (integrated on atomic sphere of radius R)
     atom   1 (R=0.038)  charge=  1.5044  magn=  0.0294
     atom   2 (R=0.038)  charge=  1.5021  magn= -0.0135
     atom   3 (R=0.038)  charge=  1.5044  magn=  0.0294
     atom   4 (R=0.038)  charge=  1.5042  magn= -0.0253
     atom   5 (R=0.038)  charge=  1.5072  magn=  0.0319
     atom   6 (R=0.038)  charge=  1.5077  magn= -0.0247
     atom   7 (R=0.038)  charge=  1.5128  magn=  0.0285
     atom   8 (R=0.038)  charge=  1.5211  magn= -0.0123
     atom   9 (R=0.038)  charge=  1.5128  magn=  0.0285
     atom  10 (R=0.038)  charge=  1.5077  magn= -0.0247
     atom  11 (R=0.038)  charge=  1.5072  magn=  0.0319
     atom  12 (R=0.038)  charge=  1.5042  magn= -0.0253
     atom  13 (R=0.038)  charge=  1.4977  magn=  0.0325
     atom  14 (R=0.038)  charge=  1.5007  magn= -0.0253
     atom  15 (R=0.038)  charge=  1.4997  magn=  0.0297
     atom  16 (R=0.038)  charge=  1.5032  magn= -0.0125
     atom  17 (R=0.038)  charge=  1.5032  magn=  0.0307
     atom  18 (R=0.038)  charge=  1.5173  magn= -0.0183
     atom  19 (R=0.038)  charge=  1.5321  magn=  0.0281
     atom  20 (R=0.038)  charge=  1.5173  magn= -0.0183
     atom  21 (R=0.038)  charge=  1.5032  magn=  0.0307
     atom  22 (R=0.038)  charge=  1.5032  magn= -0.0125
     atom  23 (R=0.038)  charge=  1.4997  magn=  0.0297
     atom  24 (R=0.038)  charge=  1.5007  magn= -0.0253
     atom  25 (R=0.038)  charge=  1.4895  magn=  0.0304
     atom  26 (R=0.038)  charge=  1.4855  magn= -0.0272
     atom  27 (R=0.038)  charge=  1.4702  magn=  0.0318
     atom  28 (R=0.038)  charge=  1.4527  magn= -0.0289
     atom  29 (R=0.038)  charge=  1.3924  magn=  0.0503
     atom  30 (R=0.038)  charge=  1.3924  magn=  0.0503
     atom  31 (R=0.038)  charge=  1.4527  magn= -0.0289
     atom  32 (R=0.038)  charge=  1.4702  magn=  0.0318
     atom  33 (R=0.038)  charge=  1.4855  magn= -0.0272
     atom  34 (R=0.038)  charge=  1.4895  magn=  0.0304
     atom  35 (R=0.038)  charge=  1.4878  magn= -0.0147
     atom  36 (R=0.038)  charge=  1.5014  magn=  0.0277
     atom  37 (R=0.038)  charge=  1.4958  magn= -0.0152
     atom  38 (R=0.038)  charge=  1.4989  magn=  0.0426
     atom  39 (R=0.038)  charge=  1.5274  magn= -0.0246
     atom  40 (R=0.038)  charge=  1.4818  magn=  0.3372
     atom  41 (R=0.038)  charge=  1.5274  magn= -0.0246
     atom  42 (R=0.038)  charge=  1.4989  magn=  0.0426
     atom  43 (R=0.038)  charge=  1.4958  magn= -0.0152
     atom  44 (R=0.038)  charge=  1.5014  magn=  0.0277
     atom  45 (R=0.038)  charge=  1.4944  magn= -0.0263
     atom  46 (R=0.038)  charge=  1.4970  magn=  0.0294
     atom  47 (R=0.038)  charge=  1.4944  magn= -0.0263
     atom  48 (R=0.038)  charge=  1.5000  magn=  0.0339
     atom  49 (R=0.038)  charge=  1.5135  magn= -0.0229
     atom  50 (R=0.038)  charge=  1.5132  magn=  0.0493
     atom  51 (R=0.038)  charge=  1.5136  magn= -0.0180
     atom  52 (R=0.038)  charge=  1.5132  magn=  0.0493
     atom  53 (R=0.038)  charge=  1.5135  magn= -0.0229
     atom  54 (R=0.038)  charge=  1.5000  magn=  0.0339
     atom  55 (R=0.038)  charge=  1.5015  magn= -0.0262
     atom  56 (R=0.038)  charge=  1.4993  magn=  0.0283
     atom  57 (R=0.038)  charge=  1.4979  magn= -0.0136
     atom  58 (R=0.038)  charge=  1.4993  magn=  0.0283
     atom  59 (R=0.038)  charge=  1.5015  magn= -0.0262
     atom  60 (R=0.038)  charge=  1.5114  magn=  0.0302
     atom  61 (R=0.038)  charge=  1.5081  magn= -0.0263
     atom  62 (R=0.038)  charge=  1.5119  magn=  0.0321
     atom  63 (R=0.038)  charge=  1.5081  magn= -0.0263
     atom  64 (R=0.038)  charge=  1.5114  magn=  0.0302
     atom  65 (R=0.038)  charge=  1.5080  magn= -0.0133
     atom  66 (R=0.038)  charge=  1.5044  magn=  0.0301
     atom  67 (R=0.038)  charge=  1.5088  magn= -0.0247
     atom  68 (R=0.038)  charge=  1.5016  magn=  0.0323
     atom  69 (R=0.038)  charge=  1.5088  magn= -0.0247
     atom  70 (R=0.038)  charge=  1.5044  magn=  0.0301
     atom  71 (R=0.038)  charge=  1.5080  magn= -0.0133

     total cpu time spent up to now is      435.4 secs

     End of self-consistent calculation

 ------ SPIN UP ------------


          k = 0.0000 0.0000 0.0000 (171510 PWs)   bands (ev):

   -23.8117 -23.2606 -23.2336 -23.1853 -23.1538 -23.0898 -22.8640 -21.9320
   -21.9065 -21.8990 -21.8863 -21.7879 -21.6556 -21.3124 -21.2526 -21.2502
   -21.2039 -21.1282 -20.7261 -19.4723 -19.4656 -19.4498 -19.4261 -19.4238
   -19.4046 -19.3742 -19.3699 -19.3244 -19.3063 -19.2153 -18.8419 -18.6006
   -18.5170 -18.0244 -17.5161 -17.4374 -17.3665 -16.9715 -16.8729 -16.7951
   -16.4469 -15.7746 -15.7700 -15.7605 -15.7447 -15.7334 -15.7332 -15.7198
   -15.7007 -15.6712 -15.4134 -15.4073 -14.8013 -14.7199 -14.4652 -13.9894
   -13.9804 -13.9241 -13.7494 -13.7401 -13.0340 -12.4594 -12.4279 -12.3962
   -12.3914 -12.3741 -12.3735 -12.3569 -12.3068 -12.3026 -12.2744 -12.1877
   -12.1434 -12.1296 -12.0595 -12.0314 -11.8982 -11.6072 -11.5970 -11.2041
   -11.1958 -11.1581 -11.1309 -11.0743 -10.9068 -10.8156 -10.8119 -10.7755
   -10.7192 -10.7039 -10.6820 -10.6601 -10.4413 -10.4388 -10.2539 -10.1478
   -10.1264 -10.0585 -10.0302  -9.8159  -9.8153  -9.6936  -9.6704  -9.6570
    -9.6454  -9.6401  -9.6315  -9.6290  -9.5532  -9.4147  -8.9908  -8.9539
    -8.9317  -8.9205  -8.9174  -8.8747  -8.8552  -8.5411  -8.5346  -8.5020
    -8.4626  -8.4194  -8.2298  -7.6222  -7.5161  -7.0370  -7.0245  -7.0046
    -6.9872  -6.9850  -6.9574  -6.9359  -6.9317  -6.8943  -6.8913  -6.8477
    -6.7644  -6.6574  -6.5902  -5.4950  -4.9481  -4.4138  -4.3841  -4.1254
    -3.7198  -2.9263  -2.6391  -2.5445  -2.4956  -1.9060  -1.8978  -1.8268
    -1.8104  -1.8016  -1.7629  -1.7502  -1.7271  -1.6991  -1.5885  -1.4984
    -0.9794  -0.3627  -0.1313  -0.1260  -0.1254  -0.1147  -0.0869  -0.0742
     0.0383   0.5243   0.6043   0.6081

 ------ SPIN DOWN ----------


          k = 0.0000 0.0000 0.0000 (171510 PWs)   bands (ev):

   -23.7866 -23.2215 -23.2131 -23.1627 -23.1359 -23.0675 -22.8030 -21.8936
   -21.8867 -21.8611 -21.8560 -21.7748 -21.6185 -21.2674 -21.2314 -21.2254
   -21.1690 -21.1130 -20.6462 -19.4491 -19.4436 -19.4288 -19.4107 -19.3834
   -19.3775 -19.3491 -19.3489 -19.3052 -19.2197 -19.1976 -18.8139 -18.5753
   -18.4655 -17.9149 -17.4820 -17.4100 -17.3530 -16.9628 -16.7685 -16.7495
   -16.4067 -15.7553 -15.7508 -15.7358 -15.7153 -15.7144 -15.7047 -15.6932
   -15.6752 -15.6553 -15.3845 -15.3094 -14.7768 -14.6963 -14.3861 -13.9561
   -13.9501 -13.9099 -13.7278 -13.6776 -12.9398 -12.4375 -12.4155 -12.3866
   -12.3738 -12.3625 -12.3439 -12.3195 -12.2927 -12.2844 -12.2408 -12.1680
   -12.1172 -12.0947 -12.0397 -12.0048 -11.8564 -11.5888 -11.5162 -11.1566
   -11.1552 -11.1154 -11.0948 -11.0339 -10.8617 -10.7835 -10.7610 -10.7493
   -10.7057 -10.6871 -10.6527 -10.6470 -10.4236 -10.4111 -10.1677 -10.1186
   -10.0997 -10.0195 -10.0127  -9.7915  -9.7800  -9.6728  -9.6265  -9.6168
    -9.6093  -9.6075  -9.5912  -9.5909  -9.5270  -9.3487  -8.9272  -8.9182
    -8.8938  -8.8886  -8.8656  -8.8342  -8.8285  -8.5263  -8.5134  -8.4749
    -8.4015  -8.3629  -7.9470  -7.5283  -7.4954  -6.9836  -6.9788  -6.9627
    -6.9548  -6.9200  -6.9197  -6.8927  -6.8819  -6.8582  -6.8142  -6.8058
    -6.7153  -6.6131  -6.5167  -5.3095  -4.4036  -4.0851  -4.0769  -3.6693
    -2.8012  -2.7083  -2.5725  -2.5018  -2.4509  -1.8545  -1.8527  -1.7945
    -1.7644  -1.7418  -1.7222  -1.7161  -1.6805  -1.6522  -1.4291  -1.3919
    -0.9696  -0.2671  -0.1246  -0.1189  -0.1150  -0.1086  -0.0771  -0.0673
     0.0654   0.5712   0.6303   0.6807

     the Fermi energy is    -4.2774 ev

!    total energy              =    -854.75932412 Ry
     estimated scf accuracy    <          4.7E-11 Ry
     smearing contrib. (-TS)   =       0.00179666 Ry
     internal energy E=F+TS    =    -854.76112078 Ry

     The total energy is F=E-TS. E is the sum of the following terms:
     one-electron contribution =   -9611.14670856 Ry
     hartree contribution      =    4832.06195204 Ry
     xc contribution           =    -303.95522199 Ry
     ewald contribution        =    4228.27885773 Ry

     total magnetization       =     1.97 Bohr mag/cell
     absolute magnetization    =     5.40 Bohr mag/cell

     convergence has been achieved in  15 iterations

     Forces acting on atoms (cartesian axes, Ry/au):

     atom    1 type  1   force =     0.00352019   -0.00501267   -0.00000001
     atom    2 type  1   force =     0.00058003   -0.00100171    0.00000001
     atom    3 type  1   force =     0.00257443   -0.00555670   -0.00000001
     atom    4 type  1   force =     0.00067306    0.00174079   -0.00000001
     atom    5 type  1   force =     0.00436938   -0.00232094    0.00000001
     atom    6 type  1   force =     0.00176766   -0.00045126   -0.00000003
     atom    7 type  1   force =     0.00497940    0.00128174    0.00000001
     atom    8 type  1   force =    -0.00205542    0.00356021   -0.00000000
     atom    9 type  1   force =    -0.00360229   -0.00367527   -0.00000001
     atom   10 type  1   force =    -0.00049549   -0.00174691    0.00000002
     atom   11 type  1   force =    -0.00017107   -0.00493609   -0.00000002
     atom   12 type  1   force =    -0.00184892    0.00028730    0.00000000
     atom   13 type  1   force =     0.00316919   -0.00549670   -0.00000001
     atom   14 type  1   force =    -0.00051610   -0.00044160    0.00000001
     atom   15 type  1   force =     0.00102210   -0.00096206    0.00000000
     atom   16 type  1   force =     0.00009564    0.00052025    0.00000001
     atom   17 type  1   force =     0.00759664    0.00229107    0.00000001
     atom   18 type  1   force =     0.00139305   -0.00107354   -0.00000001
     atom   19 type  1   force =     0.00214963   -0.00373076    0.00000000
     atom   20 type  1   force =     0.00023605   -0.00173482   -0.00000002
     atom   21 type  1   force =    -0.00578210   -0.00542965    0.00000001
     atom   22 type  1   force =    -0.00049694    0.00018450    0.00000000
     atom   23 type  1   force =     0.00032569   -0.00137093   -0.00000001
     atom   24 type  1   force =     0.00064027    0.00022552   -0.00000000
     atom   25 type  1   force =    -0.00210997   -0.00129998   -0.00000001
     atom   26 type  1   force =     0.00293053    0.00359843    0.00000001
     atom   27 type  1   force =     0.00223531   -0.00029463   -0.00000002
     atom   28 type  1   force =    -0.00333880   -0.00319671   -0.00000003
     atom   29 type  2   force =     0.00836925   -0.00116779    0.00000002
     atom   30 type  2   force =    -0.00317039   -0.00781236   -0.00000002
     atom   31 type  1   force =     0.00443405    0.00129699    0.00000001
     atom   32 type  1   force =    -0.00085833   -0.00208767    0.00000000
     atom   33 type  1   force =    -0.00458005   -0.00073695   -0.00000001
     atom   34 type  1   force =     0.00217574    0.00117613    0.00000001
     atom   35 type  1   force =     0.00010948   -0.00018644    0.00000001
     atom   36 type  1   force =    -0.00149929   -0.00133475   -0.00000002
     atom   37 type  1   force =     0.00192581    0.00125048   -0.00000000
     atom   38 type  1   force =     0.00080915   -0.00123835    0.00000003
     atom   39 type  1   force =    -0.00081868    0.00010240   -0.00000003
     atom   40 type  2   force =    -0.00577664    0.01002145   -0.00000000
     atom   41 type  1   force =     0.00029499    0.00075791    0.00000001
     atom   42 type  1   force =     0.00066004   -0.00132207   -0.00000001
     atom   43 type  1   force =    -0.00204504   -0.00104176    0.00000002
     atom   44 type  1   force =     0.00189806    0.00062504    0.00000000
     atom   45 type  1   force =     0.00161031    0.00151452    0.00000001
     atom   46 type  1   force =     0.00025939   -0.00044517   -0.00000001
     atom   47 type  1   force =    -0.00211262   -0.00062997    0.00000001
     atom   48 type  1   force =    -0.00042825   -0.00046691    0.00000002
     atom   49 type  1   force =     0.00448862    0.00326329   -0.00000001
     atom   50 type  1   force =    -0.00046168    0.00563207   -0.00000000
     atom   51 type  1   force =     0.00125960   -0.00220096    0.00000000
     atom   52 type  1   force =    -0.00464081    0.00323209    0.00000001
     atom   53 type  1   force =    -0.00507079   -0.00226218    0.00000002
     atom   54 type  1   force =     0.00060789    0.00014082   -0.00000002
     atom   55 type  1   force =     0.00118487    0.00031578    0.00000000
     atom   56 type  1   force =    -0.00323280    0.00288301   -0.00000001
     atom   57 type  1   force =    -0.00279145    0.00484139   -0.00000000
     atom   58 type  1   force =    -0.00088067    0.00423981    0.00000001
     atom   59 type  1   force =    -0.00085906   -0.00085838   -0.00000001
     atom   60 type  1   force =     0.00013359    0.00027113    0.00000001
     atom   61 type  1   force =     0.00387511   -0.00337879   -0.00000000
     atom   62 type  1   force =     0.00176576   -0.00305148    0.00000002
     atom   63 type  1   force =     0.00098863   -0.00504973    0.00000002
     atom   64 type  1   force =    -0.00031345    0.00003167    0.00000000
     atom   65 type  1   force =     0.00061356    0.00202736    0.00000001
     atom   66 type  1   force =    -0.00314476    0.00373851   -0.00000000
     atom   67 type  1   force =    -0.00249080    0.00877844    0.00000002
     atom   68 type  1   force =    -0.00204896    0.00354903   -0.00000000
     atom   69 type  1   force =    -0.00635436    0.00654779   -0.00000002
     atom   70 type  1   force =    -0.00166596    0.00459362    0.00000002
     atom   71 type  1   force =    -0.00206021    0.00048412   -0.00000001

     Total force =     0.036521     Total SCF correction =     0.000006
     Energy error            =      2.1E-03 Ry
     Gradient error          =      1.0E-02 Ry/Bohr

     number of scf cycles    =   8
     number of bfgs steps    =   7

     energy             old  =    -854.7572711941 Ry
     energy             new  =    -854.7593241200 Ry

     CASE: energy            _new < energy            _old

     new trust radius        =       0.0521447079 bohr
     new conv_thr            =            1.0E-10 Ry


ATOMIC_POSITIONS (crystal)
C                0.0567218887        0.0548965959        0.0000000019
C                0.1120180988        0.1106575104       -0.0000000005
C                0.0567217069        0.2217145767       -0.0000000010
C                0.1123216703        0.2777224004       -0.0000000003
C                0.0558232812        0.3888385791       -0.0000000001
C                0.1102543905        0.4450238124        0.0000000029
C                0.0528115646        0.5563762853        0.0000000009
C                0.1071288545        0.6131022069        0.0000000006
C                0.0528119357        0.7241452579       -0.0000000003
C                0.1102556104        0.7780539637       -0.0000000030
C                0.0558239480        0.8886705982        0.0000000019
C                0.1123220883        0.9432885206        0.0000000034
C                0.2230774394        0.0551276391       -0.0000000001
C                0.2784480677        0.1114275482       -0.0000000023
C                0.2227570209        0.2230674704       -0.0000000015
C                0.2778417696        0.2800280626        0.0000000000
C                0.2210254352        0.3905143421        0.0000000015
C                0.2753745689        0.4485671298        0.0000000020
C                0.2154474705        0.5589425303        0.0000000002
C                0.2753766172        0.6093892709        0.0000000009
C                0.2210271779        0.7217914215       -0.0000000013
C                0.2778427949        0.7754621397        0.0000000007
C                0.2227576305        0.8875077355        0.0000000020
C                0.2784480705        0.9434571808        0.0000000004
C                0.3888467490        0.0570951120       -0.0000000029
C                0.4442462752        0.1150446355       -0.0000000015
C                0.3886794750        0.2286152316        0.0000000001
C                0.4437215218        0.2891767191        0.0000000004
C1               0.3832464886        0.4041855746        0.0000000010
C1               0.3832484825        0.5458980566        0.0000000001
C                0.4437228758        0.6004336942        0.0000000005
C                0.3886805430        0.7160372053        0.0000000012
C                0.4442465310        0.7740421364        0.0000000009
C                0.3888467950        0.8873911508       -0.0000000015
C                0.4441830148        0.9445751066       -0.0000000023
C                0.5545292233        0.0578767403       -0.0000000003
C                0.6096051359        0.1144171461       -0.0000000003
C                0.5552365188        0.2252256570       -0.0000000032
C                0.6158626988        0.2760542475       -0.0000000030
C1               0.5685492345        0.3823933892       -0.0000000021
C                0.6158640676        0.4414173460       -0.0000000003
C                0.5552380196        0.5528717669        0.0000000012
C                0.6096060871        0.6093119945       -0.0000000006
C                0.5545294333        0.7209280760       -0.0000000001
C                0.6103790513        0.7773477090       -0.0000000011
C                0.5549057643        0.8892140184       -0.0000000007
C                0.6103788933        0.9456074323       -0.0000000002
C                0.7218482663        0.0565748346        0.0000000015
C                0.7802150380        0.1091890871        0.0000000021
C                0.7265193799        0.2200764156        0.0000000002
C                0.7813305370        0.2760015130        0.0000000011
C                0.7265203439        0.3867382982        0.0000000021
C                0.7802160990        0.4439294189        0.0000000023
C                0.7218490799        0.5549104885        0.0000000003
C                0.7769063384        0.6107666163       -0.0000000008
C                0.7209947814        0.7225450419       -0.0000000013
C                0.7767914573        0.7782710277       -0.0000000011
C                0.7209946911        0.8897938394       -0.0000000011
C                0.7769056821        0.9456614879       -0.0000000009
C                0.8902490777        0.0543996187        0.0000000028
C                0.9464010753        0.1099921990        0.0000000029
C                0.8917956286        0.2207688777        0.0000000017
C                0.9464013076        0.2769397522       -0.0000000004
C                0.8902493661        0.3886845841       -0.0000000004
C                0.9448252762        0.4445554095       -0.0000000013
C                0.8876706399        0.5554631452        0.0000000006
C                0.9429270225        0.6116322645       -0.0000000013
C                0.8877294067        0.7228020302       -0.0000000003
C                0.9429271148        0.7787742176       -0.0000000011
C                0.8876705316        0.8901998272       -0.0000000026
C                0.9448254339        0.9439526365        0.0000000007



     Writing config-only to output data dir /home/gregb26/links/scratch/qe_tmp/vacancy_relaxed/series/6x6/nspin2/vac_6x6_relax_nspin2.save/ :
     XML data file
     NEW-OLD atomic charge density approx. for the potential

     negative rho (up, down):  2.968E-06 2.995E-06
     Generating pointlists ...

     total cpu time spent up to now is      436.6 secs

     per-process dynamical memory:   234.2 Mb

     Self-consistent Calculation

     iteration #  1     ecut=   100.00 Ry     beta= 0.30
     Davidson diagonalization with overlap
     ethr =  1.00E-06,  avg # of iterations =  7.0

     negative rho (up, down):  2.127E-06 1.910E-06

     total cpu time spent up to now is      441.4 secs

     total energy              =    -854.76059423 Ry
     estimated scf accuracy    <       0.00134215 Ry

     total magnetization       =     1.99 Bohr mag/cell
     absolute magnetization    =     5.41 Bohr mag/cell

     iteration #  2     ecut=   100.00 Ry     beta= 0.30
     Davidson diagonalization with overlap
     ethr =  4.73E-07,  avg # of iterations =  2.0

     negative rho (up, down):  1.175E-06 1.055E-06

     total cpu time spent up to now is      443.3 secs

     total energy              =    -854.76062867 Ry
     estimated scf accuracy    <       0.00039538 Ry

     total magnetization       =     1.98 Bohr mag/cell
     absolute magnetization    =     5.41 Bohr mag/cell

     iteration #  3     ecut=   100.00 Ry     beta= 0.30
     Davidson diagonalization with overlap
     ethr =  1.39E-07,  avg # of iterations =  2.0

     negative rho (up, down):  4.266E-07 3.838E-07

     total cpu time spent up to now is      445.2 secs

     total energy              =    -854.76063794 Ry
     estimated scf accuracy    <       0.00011748 Ry

     total magnetization       =     1.98 Bohr mag/cell
     absolute magnetization    =     5.41 Bohr mag/cell

     iteration #  4     ecut=   100.00 Ry     beta= 0.30
     Davidson diagonalization with overlap
     ethr =  4.14E-08,  avg # of iterations =  2.0

     negative rho (up, down):  1.559E-07 1.404E-07

     total cpu time spent up to now is      447.3 secs

     total energy              =    -854.76065232 Ry
     estimated scf accuracy    <       0.00001876 Ry

     total magnetization       =     1.98 Bohr mag/cell
     absolute magnetization    =     5.41 Bohr mag/cell

     iteration #  5     ecut=   100.00 Ry     beta= 0.30
     Davidson diagonalization with overlap
     ethr =  6.61E-09,  avg # of iterations =  3.0

     negative rho (up, down):  5.917E-08 5.336E-08

     total cpu time spent up to now is      449.5 secs

     total energy              =    -854.76065511 Ry
     estimated scf accuracy    <       0.00000384 Ry

     total magnetization       =     1.98 Bohr mag/cell
     absolute magnetization    =     5.41 Bohr mag/cell

     iteration #  6     ecut=   100.00 Ry     beta= 0.30
     Davidson diagonalization with overlap
     ethr =  1.35E-09,  avg # of iterations =  4.0

     negative rho (up, down):  1.950E-08 1.761E-08

     total cpu time spent up to now is      451.7 secs

     total energy              =    -854.76065563 Ry
     estimated scf accuracy    <       0.00000093 Ry

     total magnetization       =     1.98 Bohr mag/cell
     absolute magnetization    =     5.41 Bohr mag/cell

     iteration #  7     ecut=   100.00 Ry     beta= 0.30
     Davidson diagonalization with overlap
     ethr =  3.28E-10,  avg # of iterations =  4.5

     total cpu time spent up to now is      453.8 secs

     total energy              =    -854.76065575 Ry
     estimated scf accuracy    <       0.00000024 Ry

     total magnetization       =     1.98 Bohr mag/cell
     absolute magnetization    =     5.41 Bohr mag/cell

     iteration #  8     ecut=   100.00 Ry     beta= 0.30
     Davidson diagonalization with overlap
     ethr =  8.49E-11,  avg # of iterations =  3.5

     total cpu time spent up to now is      456.0 secs

     total energy              =    -854.76065580 Ry
     estimated scf accuracy    <       0.00000003 Ry

     total magnetization       =     1.98 Bohr mag/cell
     absolute magnetization    =     5.41 Bohr mag/cell

     iteration #  9     ecut=   100.00 Ry     beta= 0.30
     Davidson diagonalization with overlap
     ethr =  1.03E-11,  avg # of iterations =  4.5

     total cpu time spent up to now is      458.8 secs

     total energy              =    -854.76065581 Ry
     estimated scf accuracy    <          7.6E-09 Ry

     total magnetization       =     1.98 Bohr mag/cell
     absolute magnetization    =     5.41 Bohr mag/cell

     iteration # 10     ecut=   100.00 Ry     beta= 0.30
     Davidson diagonalization with overlap
     ethr =  2.69E-12,  avg # of iterations =  3.0

     total cpu time spent up to now is      460.9 secs

     total energy              =    -854.76065581 Ry
     estimated scf accuracy    <          2.5E-09 Ry

     total magnetization       =     1.98 Bohr mag/cell
     absolute magnetization    =     5.41 Bohr mag/cell

     iteration # 11     ecut=   100.00 Ry     beta= 0.30
     Davidson diagonalization with overlap
     ethr =  8.80E-13,  avg # of iterations =  4.0

     total cpu time spent up to now is      463.3 secs

     total energy              =    -854.76065581 Ry
     estimated scf accuracy    <          8.3E-10 Ry

     total magnetization       =     1.98 Bohr mag/cell
     absolute magnetization    =     5.41 Bohr mag/cell

     iteration # 12     ecut=   100.00 Ry     beta= 0.30
     Davidson diagonalization with overlap
     ethr =  2.92E-13,  avg # of iterations =  4.0

     total cpu time spent up to now is      466.0 secs

     total energy              =    -854.76065582 Ry
     estimated scf accuracy    <          2.5E-10 Ry

     total magnetization       =     1.98 Bohr mag/cell
     absolute magnetization    =     5.41 Bohr mag/cell

     iteration # 13     ecut=   100.00 Ry     beta= 0.30
     Davidson diagonalization with overlap
     ethr =  1.00E-13,  avg # of iterations =  5.0

     total cpu time spent up to now is      468.8 secs

     total energy              =    -854.76065582 Ry
     estimated scf accuracy    <          1.1E-10 Ry

     total magnetization       =     1.98 Bohr mag/cell
     absolute magnetization    =     5.41 Bohr mag/cell

     iteration # 14     ecut=   100.00 Ry     beta= 0.30
     Davidson diagonalization with overlap
     ethr =  1.00E-13,  avg # of iterations =  4.5

     Magnetic moment per site  (integrated on atomic sphere of radius R)
     atom   1 (R=0.038)  charge=  1.5064  magn=  0.0292
     atom   2 (R=0.038)  charge=  1.5030  magn= -0.0134
     atom   3 (R=0.038)  charge=  1.5064  magn=  0.0292
     atom   4 (R=0.038)  charge=  1.5052  magn= -0.0253
     atom   5 (R=0.038)  charge=  1.5070  magn=  0.0322
     atom   6 (R=0.038)  charge=  1.5069  magn= -0.0246
     atom   7 (R=0.038)  charge=  1.5117  magn=  0.0287
     atom   8 (R=0.038)  charge=  1.5209  magn= -0.0123
     atom   9 (R=0.038)  charge=  1.5117  magn=  0.0287
     atom  10 (R=0.038)  charge=  1.5069  magn= -0.0247
     atom  11 (R=0.038)  charge=  1.5070  magn=  0.0322
     atom  12 (R=0.038)  charge=  1.5052  magn= -0.0253
     atom  13 (R=0.038)  charge=  1.4980  magn=  0.0328
     atom  14 (R=0.038)  charge=  1.5011  magn= -0.0252
     atom  15 (R=0.038)  charge=  1.5000  magn=  0.0298
     atom  16 (R=0.038)  charge=  1.5022  magn= -0.0125
     atom  17 (R=0.038)  charge=  1.5015  magn=  0.0309
     atom  18 (R=0.038)  charge=  1.5162  magn= -0.0179
     atom  19 (R=0.038)  charge=  1.5324  magn=  0.0285
     atom  20 (R=0.038)  charge=  1.5162  magn= -0.0179
     atom  21 (R=0.038)  charge=  1.5015  magn=  0.0309
     atom  22 (R=0.038)  charge=  1.5022  magn= -0.0125
     atom  23 (R=0.038)  charge=  1.5000  magn=  0.0298
     atom  24 (R=0.038)  charge=  1.5011  magn= -0.0252
     atom  25 (R=0.038)  charge=  1.4885  magn=  0.0306
     atom  26 (R=0.038)  charge=  1.4828  magn= -0.0274
     atom  27 (R=0.038)  charge=  1.4674  magn=  0.0323
     atom  28 (R=0.038)  charge=  1.4462  magn= -0.0289
     atom  29 (R=0.038)  charge=  1.3869  magn=  0.0498
     atom  30 (R=0.038)  charge=  1.3869  magn=  0.0498
     atom  31 (R=0.038)  charge=  1.4462  magn= -0.0289
     atom  32 (R=0.038)  charge=  1.4674  magn=  0.0323
     atom  33 (R=0.038)  charge=  1.4828  magn= -0.0274
     atom  34 (R=0.038)  charge=  1.4885  magn=  0.0306
     atom  35 (R=0.038)  charge=  1.4882  magn= -0.0147
     atom  36 (R=0.038)  charge=  1.5004  magn=  0.0279
     atom  37 (R=0.038)  charge=  1.4949  magn= -0.0152
     atom  38 (R=0.038)  charge=  1.4989  magn=  0.0423
     atom  39 (R=0.038)  charge=  1.5270  magn= -0.0245
     atom  40 (R=0.038)  charge=  1.4817  magn=  0.3377
     atom  41 (R=0.038)  charge=  1.5270  magn= -0.0245
     atom  42 (R=0.038)  charge=  1.4989  magn=  0.0423
     atom  43 (R=0.038)  charge=  1.4949  magn= -0.0152
     atom  44 (R=0.038)  charge=  1.5004  magn=  0.0279
     atom  45 (R=0.038)  charge=  1.4956  magn= -0.0262
     atom  46 (R=0.038)  charge=  1.4973  magn=  0.0297
     atom  47 (R=0.038)  charge=  1.4956  magn= -0.0262
     atom  48 (R=0.038)  charge=  1.4994  magn=  0.0341
     atom  49 (R=0.038)  charge=  1.5123  magn= -0.0230
     atom  50 (R=0.038)  charge=  1.5115  magn=  0.0494
     atom  51 (R=0.038)  charge=  1.5126  magn= -0.0181
     atom  52 (R=0.038)  charge=  1.5115  magn=  0.0494
     atom  53 (R=0.038)  charge=  1.5123  magn= -0.0230
     atom  54 (R=0.038)  charge=  1.4994  magn=  0.0341
     atom  55 (R=0.038)  charge=  1.5032  magn= -0.0262
     atom  56 (R=0.038)  charge=  1.5008  magn=  0.0282
     atom  57 (R=0.038)  charge=  1.4987  magn= -0.0136
     atom  58 (R=0.038)  charge=  1.5008  magn=  0.0282
     atom  59 (R=0.038)  charge=  1.5032  magn= -0.0262
     atom  60 (R=0.038)  charge=  1.5114  magn=  0.0301
     atom  61 (R=0.038)  charge=  1.5078  magn= -0.0265
     atom  62 (R=0.038)  charge=  1.5127  magn=  0.0321
     atom  63 (R=0.038)  charge=  1.5078  magn= -0.0265
     atom  64 (R=0.038)  charge=  1.5114  magn=  0.0301
     atom  65 (R=0.038)  charge=  1.5076  magn= -0.0133
     atom  66 (R=0.038)  charge=  1.5065  magn=  0.0299
     atom  67 (R=0.038)  charge=  1.5092  magn= -0.0249
     atom  68 (R=0.038)  charge=  1.5043  magn=  0.0321
     atom  69 (R=0.038)  charge=  1.5092  magn= -0.0249
     atom  70 (R=0.038)  charge=  1.5065  magn=  0.0299
     atom  71 (R=0.038)  charge=  1.5076  magn= -0.0133

     total cpu time spent up to now is      471.4 secs

     End of self-consistent calculation

 ------ SPIN UP ------------


          k = 0.0000 0.0000 0.0000 (171510 PWs)   bands (ev):

   -23.8102 -23.2526 -23.2326 -23.1930 -23.1498 -23.0735 -22.8605 -21.9253
   -21.9043 -21.8968 -21.8755 -21.7822 -21.6619 -21.3100 -21.2516 -21.2496
   -21.1913 -21.1120 -20.7353 -19.4700 -19.4689 -19.4470 -19.4220 -19.4157
   -19.3958 -19.3758 -19.3667 -19.3086 -19.3054 -19.2034 -18.8474 -18.5889
   -18.5082 -18.0231 -17.5157 -17.4385 -17.3651 -16.9653 -16.8704 -16.7861
   -16.4612 -15.7640 -15.7640 -15.7588 -15.7395 -15.7303 -15.7281 -15.7093
   -15.6882 -15.6594 -15.4208 -15.4085 -14.8042 -14.7167 -14.4827 -13.9816
   -13.9795 -13.9091 -13.7472 -13.7429 -13.0468 -12.4604 -12.4243 -12.3964
   -12.3934 -12.3821 -12.3718 -12.3342 -12.3017 -12.2984 -12.2751 -12.1802
   -12.1265 -12.1200 -12.0467 -12.0160 -11.8972 -11.6088 -11.6002 -11.1996
   -11.1954 -11.1627 -11.1282 -11.0609 -10.9275 -10.8135 -10.8090 -10.7617
   -10.6982 -10.6930 -10.6649 -10.6574 -10.4555 -10.4354 -10.2955 -10.1456
   -10.1061 -10.0449 -10.0187  -9.7973  -9.7922  -9.6896  -9.6664  -9.6525
    -9.6433  -9.6358  -9.6328  -9.6194  -9.5476  -9.4212  -8.9882  -8.9610
    -8.9362  -8.9351  -8.9160  -8.8665  -8.8410  -8.5421  -8.5337  -8.4940
    -8.4711  -8.4076  -8.3545  -7.6129  -7.5243  -7.0390  -7.0189  -7.0054
    -6.9859  -6.9835  -6.9585  -6.9402  -6.9299  -6.8929  -6.8896  -6.8300
    -6.7655  -6.6369  -6.5864  -5.5139  -5.0161  -4.4091  -4.3845  -4.1230
    -3.7399  -2.7277  -2.6400  -2.5508  -2.5020  -1.9073  -1.8990  -1.8322
    -1.8109  -1.7988  -1.7637  -1.7531  -1.7302  -1.7029  -1.6036  -1.4986
    -0.9800  -0.3846  -0.1338  -0.1265  -0.1264  -0.1147  -0.0855  -0.0722
     0.0349   0.5199   0.5955   0.6063

 ------ SPIN DOWN ----------


          k = 0.0000 0.0000 0.0000 (171510 PWs)   bands (ev):

   -23.7852 -23.2169 -23.2120 -23.1673 -23.1312 -23.0511 -22.7986 -21.8901
   -21.8746 -21.8578 -21.8529 -21.7689 -21.6245 -21.2637 -21.2283 -21.2256
   -21.1579 -21.0969 -20.6541 -19.4457 -19.4455 -19.4235 -19.4088 -19.3801
   -19.3675 -19.3532 -19.3437 -19.2863 -19.2183 -19.1862 -18.8189 -18.5637
   -18.4563 -17.9123 -17.4819 -17.4106 -17.3508 -16.9546 -16.7617 -16.7472
   -16.4229 -15.7443 -15.7437 -15.7319 -15.7144 -15.7052 -15.7042 -15.6819
   -15.6639 -15.6431 -15.3851 -15.3163 -14.7810 -14.6928 -14.4000 -13.9492
   -13.9480 -13.8953 -13.7253 -13.6812 -12.9507 -12.4407 -12.4116 -12.3867
   -12.3773 -12.3690 -12.3399 -12.2947 -12.2881 -12.2786 -12.2425 -12.1618
   -12.1001 -12.0848 -12.0283 -11.9892 -11.8552 -11.5908 -11.5189 -11.1551
   -11.1548 -11.1168 -11.0912 -11.0200 -10.8783 -10.7774 -10.7472 -10.7463
   -10.6850 -10.6768 -10.6441 -10.6389 -10.4412 -10.4077 -10.1977 -10.1072
   -10.0842 -10.0117 -10.0017  -9.7732  -9.7575  -9.6679  -9.6141  -9.6114
    -9.6074  -9.6067  -9.5911  -9.5877  -9.5202  -9.3548  -8.9339  -8.9160
    -8.8924  -8.8883  -8.8819  -8.8215  -8.8201  -8.5243  -8.5002  -8.4710
    -8.3882  -8.3697  -8.1002  -7.5266  -7.5034  -6.9812  -6.9703  -6.9630
    -6.9601  -6.9187  -6.9184  -6.8915  -6.8900  -6.8514  -6.8057  -6.7968
    -6.7152  -6.5933  -6.5132  -5.3230  -4.3997  -4.0821  -4.0770  -3.6942
    -2.8491  -2.5720  -2.5164  -2.5076  -2.4572  -1.8540  -1.8517  -1.8018
    -1.7638  -1.7392  -1.7229  -1.7168  -1.6852  -1.6560  -1.4276  -1.4073
    -0.9701  -0.2862  -0.1271  -0.1194  -0.1173  -0.1084  -0.0758  -0.0652
     0.0622   0.5669   0.6219   0.6805

     the Fermi energy is    -4.2751 ev

!    total energy              =    -854.76065582 Ry
     estimated scf accuracy    <          4.8E-11 Ry
     smearing contrib. (-TS)   =       0.00177723 Ry
     internal energy E=F+TS    =    -854.76243304 Ry

     The total energy is F=E-TS. E is the sum of the following terms:
     one-electron contribution =   -9610.25691526 Ry
     hartree contribution      =    4831.61236918 Ry
     xc contribution           =    -303.91238502 Ry
     ewald contribution        =    4227.79449806 Ry

     total magnetization       =     1.98 Bohr mag/cell
     absolute magnetization    =     5.41 Bohr mag/cell

     convergence has been achieved in  14 iterations

     Forces acting on atoms (cartesian axes, Ry/au):

     atom    1 type  1   force =     0.00004565    0.00027073    0.00000000
     atom    2 type  1   force =     0.00331666   -0.00575189    0.00000000
     atom    3 type  1   force =    -0.00025660    0.00009221    0.00000000
     atom    4 type  1   force =     0.00267386   -0.00022177   -0.00000001
     atom    5 type  1   force =     0.00205689    0.00048351    0.00000002
     atom    6 type  1   force =     0.00694950   -0.00145028   -0.00000003
     atom    7 type  1   force =    -0.00071414    0.00451478   -0.00000000
     atom    8 type  1   force =     0.00275046   -0.00476796   -0.00000001
     atom    9 type  1   force =    -0.00355478    0.00287924   -0.00000002
     atom   10 type  1   force =    -0.00221897   -0.00674110    0.00000002
     atom   11 type  1   force =    -0.00144776   -0.00153595   -0.00000002
     atom   12 type  1   force =    -0.00114178   -0.00242683   -0.00000000
     atom   13 type  1   force =     0.00088104   -0.00152268   -0.00000001
     atom   14 type  1   force =    -0.00051384   -0.00263764    0.00000001
     atom   15 type  1   force =     0.00156582    0.00072180    0.00000000
     atom   16 type  1   force =     0.00380994    0.00013224   -0.00000000
     atom   17 type  1   force =     0.00369459   -0.00034178    0.00000000
     atom   18 type  1   force =    -0.00086746   -0.00074634   -0.00000000
     atom   19 type  1   force =    -0.00029885    0.00052665    0.00000001
     atom   20 type  1   force =     0.00107045    0.00038894   -0.00000001
     atom   21 type  1   force =    -0.00154976   -0.00336044    0.00000000
     atom   22 type  1   force =    -0.00202074   -0.00323321    0.00000000
     atom   23 type  1   force =    -0.00140936   -0.00099190    0.00000000
     atom   24 type  1   force =     0.00254198   -0.00087713   -0.00000001
     atom   25 type  1   force =     0.00160688    0.00146238    0.00000001
     atom   26 type  1   force =     0.00201939    0.00141169   -0.00000001
     atom   27 type  1   force =     0.00557696   -0.00038341    0.00000001
     atom   28 type  1   force =    -0.00426710   -0.00371288   -0.00000001
     atom   29 type  2   force =     0.00169648   -0.00003336    0.00000000
     atom   30 type  2   force =    -0.00081123   -0.00148219    0.00000001
     atom   31 type  1   force =     0.00535339    0.00183936    0.00000000
     atom   32 type  1   force =    -0.00245455   -0.00501669   -0.00000000
     atom   33 type  1   force =    -0.00223195   -0.00104666   -0.00000001
     atom   34 type  1   force =    -0.00206850   -0.00066054    0.00000001
     atom   35 type  1   force =     0.00015409   -0.00026956    0.00000000
     atom   36 type  1   force =    -0.00001227    0.00221623   -0.00000000
     atom   37 type  1   force =    -0.00094917    0.00020687    0.00000000
     atom   38 type  1   force =    -0.00053423   -0.00009386    0.00000002
     atom   39 type  1   force =     0.00121974   -0.00178676    0.00000001
     atom   40 type  2   force =    -0.00224312    0.00386318   -0.00000000
     atom   41 type  1   force =     0.00094300   -0.00194944    0.00000001
     atom   42 type  1   force =     0.00033722    0.00042260   -0.00000001
     atom   43 type  1   force =     0.00028711    0.00092270    0.00000000
     atom   44 type  1   force =    -0.00191174    0.00111730   -0.00000001
     atom   45 type  1   force =     0.00026763    0.00299621    0.00000001
     atom   46 type  1   force =     0.00036022   -0.00061981   -0.00000000
     atom   47 type  1   force =    -0.00273152    0.00126277   -0.00000000
     atom   48 type  1   force =     0.00304422    0.00074867   -0.00000001
     atom   49 type  1   force =     0.00122058    0.00583499   -0.00000001
     atom   50 type  1   force =    -0.00069837    0.00496657   -0.00000000
     atom   51 type  1   force =    -0.00198126    0.00345020    0.00000001
     atom   52 type  1   force =    -0.00396561    0.00307935   -0.00000001
     atom   53 type  1   force =    -0.00566959    0.00187189   -0.00000001
     atom   54 type  1   force =    -0.00216417   -0.00226047   -0.00000000
     atom   55 type  1   force =    -0.00200835    0.00212209    0.00000000
     atom   56 type  1   force =    -0.00006889    0.00083903    0.00000000
     atom   57 type  1   force =    -0.00351984    0.00610235    0.00000000
     atom   58 type  1   force =    -0.00068771    0.00048418   -0.00000000
     atom   59 type  1   force =    -0.00083706    0.00278748    0.00000000
     atom   60 type  1   force =     0.00298791    0.00138646    0.00000000
     atom   61 type  1   force =     0.00186508   -0.00250225   -0.00000000
     atom   62 type  1   force =     0.00054152   -0.00094466    0.00000000
     atom   63 type  1   force =     0.00123394   -0.00285760    0.00000001
     atom   64 type  1   force =    -0.00269052   -0.00190217   -0.00000000
     atom   65 type  1   force =     0.00083243    0.00022334    0.00000001
     atom   66 type  1   force =     0.00013909    0.00156148   -0.00000001
     atom   67 type  1   force =     0.00234395   -0.00142329    0.00000001
     atom   68 type  1   force =    -0.00291393    0.00505083   -0.00000001
     atom   69 type  1   force =     0.00006035   -0.00274195   -0.00000001
     atom   70 type  1   force =    -0.00142187    0.00066568    0.00000001
     atom   71 type  1   force =    -0.00061144   -0.00061155    0.00000000

     Total force =     0.029332     Total SCF correction =     0.000004
     Energy error            =      1.3E-03 Ry
     Gradient error          =      6.9E-03 Ry/Bohr

     number of scf cycles    =   9
     number of bfgs steps    =   8

     energy             old  =    -854.7593241200 Ry
     energy             new  =    -854.7606558165 Ry

     CASE: energy            _new < energy            _old

     new trust radius        =       0.0240556494 bohr
     new conv_thr            =            6.9E-11 Ry


ATOMIC_POSITIONS (crystal)
C                0.0570185281        0.0547290427        0.0000000022
C                0.1125287016        0.1104020508       -0.0000000001
C                0.0570184496        0.2215852260       -0.0000000012
C                0.1124919617        0.2777961765       -0.0000000009
C                0.0558924733        0.3889413776        0.0000000006
C                0.1103188159        0.4453092228        0.0000000018
C                0.0523475721        0.5567188022        0.0000000015
C                0.1070512241        0.6131409104        0.0000000001
C                0.0523478285        0.7242667205       -0.0000000012
C                0.1103197647        0.7777043728       -0.0000000020
C                0.0558929060        0.8884988213        0.0000000012
C                0.1124925074        0.9430443707        0.0000000035
C                0.2233684397        0.0549820945       -0.0000000001
C                0.2785987921        0.1113518621       -0.0000000018
C                0.2228441516        0.2231599334       -0.0000000017
C                0.2778077908        0.2802816373        0.0000000005
C                0.2211641553        0.3907694054        0.0000000020
C                0.2755495663        0.4487013694        0.0000000018
C                0.2152975905        0.5590175525       -0.0000000001
C                0.2755506508        0.6090806261        0.0000000003
C                0.2211654121        0.7213982005       -0.0000000009
C                0.2778088040        0.7752425456        0.0000000010
C                0.2228447564        0.8873280788        0.0000000014
C                0.2785989527        0.9433819443        0.0000000002
C                0.3888804027        0.0571719229       -0.0000000029
C                0.4442151824        0.1152400558       -0.0000000019
C                0.3887193839        0.2289384991        0.0000000001
C                0.4437914512        0.2893628410       -0.0000000001
C1               0.3835471702        0.4048552824        0.0000000015
C1               0.3835484198        0.5449286691        0.0000000001
C                0.4437927602        0.6001777841        0.0000000007
C                0.3887204872        0.7156741029        0.0000000015
C                0.4442156287        0.7738776843        0.0000000004
C                0.3888804796        0.8872806093       -0.0000000010
C                0.4442027863        0.9445651780       -0.0000000023
C                0.5544308605        0.0580444306       -0.0000000009
C                0.6096073423        0.1144664742       -0.0000000005
C                0.5552420134        0.2252998344       -0.0000000022
C                0.6158659697        0.2761808180       -0.0000000037
C1               0.5680970943        0.3826188683       -0.0000000028
C                0.6158671525        0.4412874589        0.0000000004
C                0.5552429732        0.5527919559        0.0000000008
C                0.6096082709        0.6092601862       -0.0000000003
C                0.5544312133        0.7208586540       -0.0000000001
C                0.6101653191        0.7774881899       -0.0000000009
C                0.5548822937        0.8892259000       -0.0000000009
C                0.6101651554        0.9456807359       -0.0000000001
C                0.7218832560        0.0567207712        0.0000000016
C                0.7801696153        0.1093908348        0.0000000016
C                0.7264120396        0.2203006373        0.0000000000
C                0.7815350605        0.2758995439        0.0000000014
C                0.7264127633        0.3866210717        0.0000000021
C                0.7801701290        0.4437733866        0.0000000024
C                0.7218841171        0.5547297609       -0.0000000003
C                0.7766423633        0.6108728232       -0.0000000007
C                0.7207691422        0.7226234011       -0.0000000015
C                0.7762052187        0.7785643331       -0.0000000012
C                0.7207689368        0.8899414925       -0.0000000011
C                0.7766419828        0.9458190021       -0.0000000009
C                0.8904191653        0.0544339754        0.0000000029
C                0.9468464550        0.1097658874        0.0000000029
C                0.8922137457        0.2205597227        0.0000000024
C                0.9468464006        0.2767209463        0.0000000004
C                0.8904196270        0.3884799578       -0.0000000005
C                0.9448384839        0.4446491248       -0.0000000009
C                0.8874008715        0.5555958071        0.0000000006
C                0.9426347608        0.6118530041       -0.0000000005
C                0.8871277077        0.7231029682       -0.0000000006
C                0.9426348850        0.7788457954       -0.0000000018
C                0.8874005086        0.8903372131       -0.0000000021
C                0.9448387143        0.9438456159        0.0000000009



     Writing config-only to output data dir /home/gregb26/links/scratch/qe_tmp/vacancy_relaxed/series/6x6/nspin2/vac_6x6_relax_nspin2.save/ :
     XML data file
     NEW-OLD atomic charge density approx. for the potential

     negative rho (up, down):  1.546E-06 1.582E-06
     Generating pointlists ...

     total cpu time spent up to now is      472.5 secs

     per-process dynamical memory:   234.2 Mb

     Self-consistent Calculation

     iteration #  1     ecut=   100.00 Ry     beta= 0.30
     Davidson diagonalization with overlap
     ethr =  1.00E-06,  avg # of iterations =  6.0

     negative rho (up, down):  1.328E-06 1.206E-06

     total cpu time spent up to now is      476.5 secs

     total energy              =    -854.76125781 Ry
     estimated scf accuracy    <       0.00040411 Ry

     total magnetization       =     1.98 Bohr mag/cell
     absolute magnetization    =     5.39 Bohr mag/cell

     iteration #  2     ecut=   100.00 Ry     beta= 0.30
     Davidson diagonalization with overlap
     ethr =  1.42E-07,  avg # of iterations =  2.0

     negative rho (up, down):  7.206E-07 6.565E-07

     total cpu time spent up to now is      478.8 secs

     total energy              =    -854.76129351 Ry
     estimated scf accuracy    <       0.00013357 Ry

     total magnetization       =     1.98 Bohr mag/cell
     absolute magnetization    =     5.38 Bohr mag/cell

     iteration #  3     ecut=   100.00 Ry     beta= 0.30
     Davidson diagonalization with overlap
     ethr =  4.70E-08,  avg # of iterations =  2.0

     negative rho (up, down):  2.866E-07 2.625E-07

     total cpu time spent up to now is      480.8 secs

     total energy              =    -854.76130188 Ry
     estimated scf accuracy    <       0.00004147 Ry

     total magnetization       =     1.98 Bohr mag/cell
     absolute magnetization    =     5.38 Bohr mag/cell

     iteration #  4     ecut=   100.00 Ry     beta= 0.30
     Davidson diagonalization with overlap
     ethr =  1.46E-08,  avg # of iterations =  2.0

     negative rho (up, down):  1.113E-07 1.027E-07

     total cpu time spent up to now is      482.8 secs

     total energy              =    -854.76130754 Ry
     estimated scf accuracy    <       0.00000842 Ry

     total magnetization       =     1.98 Bohr mag/cell
     absolute magnetization    =     5.37 Bohr mag/cell

     iteration #  5     ecut=   100.00 Ry     beta= 0.30
     Davidson diagonalization with overlap
     ethr =  2.97E-09,  avg # of iterations =  4.0

     negative rho (up, down):  3.567E-08 3.322E-08

     total cpu time spent up to now is      485.0 secs

     total energy              =    -854.76130903 Ry
     estimated scf accuracy    <       0.00000186 Ry

     total magnetization       =     1.98 Bohr mag/cell
     absolute magnetization    =     5.37 Bohr mag/cell

     iteration #  6     ecut=   100.00 Ry     beta= 0.30
     Davidson diagonalization with overlap
     ethr =  6.56E-10,  avg # of iterations =  3.5

     negative rho (up, down):  1.196E-08 1.132E-08

     total cpu time spent up to now is      487.4 secs

     total energy              =    -854.76130953 Ry
     estimated scf accuracy    <       0.00000042 Ry

     total magnetization       =     1.98 Bohr mag/cell
     absolute magnetization    =     5.36 Bohr mag/cell

     iteration #  7     ecut=   100.00 Ry     beta= 0.30
     Davidson diagonalization with overlap
     ethr =  1.49E-10,  avg # of iterations =  4.0

     total cpu time spent up to now is      489.6 secs

     total energy              =    -854.76130974 Ry
     estimated scf accuracy    <       0.00000016 Ry

     total magnetization       =     1.98 Bohr mag/cell
     absolute magnetization    =     5.36 Bohr mag/cell

     iteration #  8     ecut=   100.00 Ry     beta= 0.30
     Davidson diagonalization with overlap
     ethr =  5.46E-11,  avg # of iterations =  4.0

     total cpu time spent up to now is      492.3 secs

     total energy              =    -854.76130989 Ry
     estimated scf accuracy    <       0.00000004 Ry

     total magnetization       =     1.98 Bohr mag/cell
     absolute magnetization    =     5.35 Bohr mag/cell

     iteration #  9     ecut=   100.00 Ry     beta= 0.30
     Davidson diagonalization with overlap
     ethr =  1.54E-11,  avg # of iterations =  4.0

     total cpu time spent up to now is      494.9 secs

     total energy              =    -854.76130998 Ry
     estimated scf accuracy    <       0.00000003 Ry

     total magnetization       =     1.98 Bohr mag/cell
     absolute magnetization    =     5.35 Bohr mag/cell

     iteration # 10     ecut=   100.00 Ry     beta= 0.30
     Davidson diagonalization with overlap
     ethr =  9.82E-12,  avg # of iterations =  4.0

     total cpu time spent up to now is      497.7 secs

     total energy              =    -854.76131006 Ry
     estimated scf accuracy    <       0.00000002 Ry

     total magnetization       =     1.98 Bohr mag/cell
     absolute magnetization    =     5.35 Bohr mag/cell

     iteration # 11     ecut=   100.00 Ry     beta= 0.30
     Davidson diagonalization with overlap
     ethr =  6.28E-12,  avg # of iterations =  5.5

     total cpu time spent up to now is      500.6 secs

     total energy              =    -854.76131012 Ry
     estimated scf accuracy    <          7.9E-09 Ry

     total magnetization       =     1.98 Bohr mag/cell
     absolute magnetization    =     5.34 Bohr mag/cell

     iteration # 12     ecut=   100.00 Ry     beta= 0.30
     Davidson diagonalization with overlap
     ethr =  2.76E-12,  avg # of iterations =  7.0

     total cpu time spent up to now is      504.3 secs

     total energy              =    -854.76131019 Ry
     estimated scf accuracy    <          2.0E-09 Ry

     total magnetization       =     1.98 Bohr mag/cell
     absolute magnetization    =     5.34 Bohr mag/cell

     iteration # 13     ecut=   100.00 Ry     beta= 0.30
     Davidson diagonalization with overlap
     ethr =  7.11E-13,  avg # of iterations =  7.0

     total cpu time spent up to now is      508.1 secs

     total energy              =    -854.76131020 Ry
     estimated scf accuracy    <          6.0E-10 Ry

     total magnetization       =     1.98 Bohr mag/cell
     absolute magnetization    =     5.33 Bohr mag/cell

     iteration # 14     ecut=   100.00 Ry     beta= 0.30
     Davidson diagonalization with overlap
     ethr =  2.12E-13,  avg # of iterations =  6.5

     total cpu time spent up to now is      511.5 secs

     total energy              =    -854.76131021 Ry
     estimated scf accuracy    <          1.3E-10 Ry

     total magnetization       =     1.98 Bohr mag/cell
     absolute magnetization    =     5.33 Bohr mag/cell

     iteration # 15     ecut=   100.00 Ry     beta= 0.30
     Davidson diagonalization with overlap
     ethr =  1.00E-13,  avg # of iterations =  4.0

     Magnetic moment per site  (integrated on atomic sphere of radius R)
     atom   1 (R=0.038)  charge=  1.5065  magn=  0.0287
     atom   2 (R=0.038)  charge=  1.5033  magn= -0.0132
     atom   3 (R=0.038)  charge=  1.5065  magn=  0.0287
     atom   4 (R=0.038)  charge=  1.5053  magn= -0.0247
     atom   5 (R=0.038)  charge=  1.5055  magn=  0.0321
     atom   6 (R=0.038)  charge=  1.5054  magn= -0.0241
     atom   7 (R=0.038)  charge=  1.5120  magn=  0.0279
     atom   8 (R=0.038)  charge=  1.5205  magn= -0.0121
     atom   9 (R=0.038)  charge=  1.5120  magn=  0.0279
     atom  10 (R=0.038)  charge=  1.5054  magn= -0.0241
     atom  11 (R=0.038)  charge=  1.5055  magn=  0.0321
     atom  12 (R=0.038)  charge=  1.5053  magn= -0.0247
     atom  13 (R=0.038)  charge=  1.5003  magn=  0.0324
     atom  14 (R=0.038)  charge=  1.5015  magn= -0.0247
     atom  15 (R=0.038)  charge=  1.4995  magn=  0.0292
     atom  16 (R=0.038)  charge=  1.5017  magn= -0.0122
     atom  17 (R=0.038)  charge=  1.5015  magn=  0.0302
     atom  18 (R=0.038)  charge=  1.5161  magn= -0.0168
     atom  19 (R=0.038)  charge=  1.5335  magn=  0.0281
     atom  20 (R=0.038)  charge=  1.5161  magn= -0.0168
     atom  21 (R=0.038)  charge=  1.5015  magn=  0.0302
     atom  22 (R=0.038)  charge=  1.5017  magn= -0.0122
     atom  23 (R=0.038)  charge=  1.4995  magn=  0.0292
     atom  24 (R=0.038)  charge=  1.5015  magn= -0.0247
     atom  25 (R=0.038)  charge=  1.4884  magn=  0.0297
     atom  26 (R=0.038)  charge=  1.4823  magn= -0.0268
     atom  27 (R=0.038)  charge=  1.4673  magn=  0.0319
     atom  28 (R=0.038)  charge=  1.4448  magn= -0.0282
     atom  29 (R=0.038)  charge=  1.3833  magn=  0.0493
     atom  30 (R=0.038)  charge=  1.3833  magn=  0.0492
     atom  31 (R=0.038)  charge=  1.4448  magn= -0.0282
     atom  32 (R=0.038)  charge=  1.4673  magn=  0.0319
     atom  33 (R=0.038)  charge=  1.4823  magn= -0.0268
     atom  34 (R=0.038)  charge=  1.4884  magn=  0.0297
     atom  35 (R=0.038)  charge=  1.4876  magn= -0.0144
     atom  36 (R=0.038)  charge=  1.5005  magn=  0.0271
     atom  37 (R=0.038)  charge=  1.4947  magn= -0.0149
     atom  38 (R=0.038)  charge=  1.4989  magn=  0.0415
     atom  39 (R=0.038)  charge=  1.5269  magn= -0.0238
     atom  40 (R=0.038)  charge=  1.4804  magn=  0.3379
     atom  41 (R=0.038)  charge=  1.5269  magn= -0.0238
     atom  42 (R=0.038)  charge=  1.4989  magn=  0.0415
     atom  43 (R=0.038)  charge=  1.4947  magn= -0.0149
     atom  44 (R=0.038)  charge=  1.5005  magn=  0.0271
     atom  45 (R=0.038)  charge=  1.4962  magn= -0.0256
     atom  46 (R=0.038)  charge=  1.4989  magn=  0.0292
     atom  47 (R=0.038)  charge=  1.4962  magn= -0.0256
     atom  48 (R=0.038)  charge=  1.4997  magn=  0.0338
     atom  49 (R=0.038)  charge=  1.5109  magn= -0.0225
     atom  50 (R=0.038)  charge=  1.5120  magn=  0.0485
     atom  51 (R=0.038)  charge=  1.5116  magn= -0.0180
     atom  52 (R=0.038)  charge=  1.5120  magn=  0.0485
     atom  53 (R=0.038)  charge=  1.5109  magn= -0.0225
     atom  54 (R=0.038)  charge=  1.4997  magn=  0.0338
     atom  55 (R=0.038)  charge=  1.5037  magn= -0.0257
     atom  56 (R=0.038)  charge=  1.5020  magn=  0.0275
     atom  57 (R=0.038)  charge=  1.5010  magn= -0.0133
     atom  58 (R=0.038)  charge=  1.5020  magn=  0.0275
     atom  59 (R=0.038)  charge=  1.5037  magn= -0.0257
     atom  60 (R=0.038)  charge=  1.5093  magn=  0.0297
     atom  61 (R=0.038)  charge=  1.5084  magn= -0.0257
     atom  62 (R=0.038)  charge=  1.5114  magn=  0.0322
     atom  63 (R=0.038)  charge=  1.5084  magn= -0.0257
     atom  64 (R=0.038)  charge=  1.5093  magn=  0.0297
     atom  65 (R=0.038)  charge=  1.5062  magn= -0.0131
     atom  66 (R=0.038)  charge=  1.5060  magn=  0.0293
     atom  67 (R=0.038)  charge=  1.5096  magn= -0.0243
     atom  68 (R=0.038)  charge=  1.5042  magn=  0.0321
     atom  69 (R=0.038)  charge=  1.5096  magn= -0.0243
     atom  70 (R=0.038)  charge=  1.5060  magn=  0.0293
     atom  71 (R=0.038)  charge=  1.5062  magn= -0.0131

     total cpu time spent up to now is      513.6 secs

     End of self-consistent calculation

 ------ SPIN UP ------------


          k = 0.0000 0.0000 0.0000 (171510 PWs)   bands (ev):

   -23.8074 -23.2490 -23.2236 -23.1963 -23.1501 -23.0691 -22.8628 -21.9234
   -21.9075 -21.8899 -21.8690 -21.7789 -21.6624 -21.3122 -21.2517 -21.2471
   -21.1876 -21.1059 -20.7350 -19.4668 -19.4658 -19.4461 -19.4192 -19.4107
   -19.3884 -19.3784 -19.3654 -19.3092 -19.3031 -19.1968 -18.8491 -18.5852
   -18.5047 -18.0235 -17.5165 -17.4329 -17.3633 -16.9648 -16.8700 -16.7793
   -16.4689 -15.7638 -15.7611 -15.7577 -15.7375 -15.7264 -15.7244 -15.7042
   -15.6761 -15.6521 -15.4292 -15.4036 -14.8046 -14.7183 -14.4932 -13.9798
   -13.9734 -13.9059 -13.7486 -13.7419 -13.0582 -12.4509 -12.4270 -12.3991
   -12.3884 -12.3812 -12.3737 -12.3182 -12.3063 -12.3010 -12.2792 -12.1726
   -12.1200 -12.1104 -12.0399 -12.0071 -11.8952 -11.6159 -11.6031 -11.1984
   -11.1884 -11.1641 -11.1278 -11.0574 -10.9346 -10.8154 -10.7993 -10.7578
   -10.6915 -10.6818 -10.6647 -10.6572 -10.4547 -10.4428 -10.3173 -10.1421
   -10.0958 -10.0409 -10.0176  -9.7917  -9.7753  -9.6949  -9.6642  -9.6474
    -9.6469  -9.6269  -9.6244  -9.6146  -9.5452  -9.4212  -8.9901  -8.9628
    -8.9408  -8.9340  -8.9146  -8.8650  -8.8358  -8.5636  -8.5356  -8.4872
    -8.4711  -8.4070  -8.3934  -7.6195  -7.5172  -7.0418  -7.0186  -7.0022
    -6.9854  -6.9779  -6.9593  -6.9425  -6.9303  -6.8952  -6.8837  -6.8260
    -6.7637  -6.6274  -6.5829  -5.5265  -5.0469  -4.4079  -4.3831  -4.1201
    -3.7487  -2.6447  -2.6367  -2.5488  -2.5076  -1.9088  -1.9000  -1.8298
    -1.8123  -1.8044  -1.7661  -1.7519  -1.7240  -1.7018  -1.6135  -1.5002
    -0.9801  -0.4022  -0.1347  -0.1266  -0.1253  -0.1151  -0.0846  -0.0722
     0.0327   0.5148   0.5964   0.6087

 ------ SPIN DOWN ----------


          k = 0.0000 0.0000 0.0000 (171510 PWs)   bands (ev):

   -23.7824 -23.2148 -23.2030 -23.1692 -23.1311 -23.0470 -22.8010 -21.8869
   -21.8670 -21.8629 -21.8476 -21.7653 -21.6247 -21.2657 -21.2269 -21.2261
   -21.1528 -21.0908 -20.6536 -19.4428 -19.4391 -19.4251 -19.4061 -19.3803
   -19.3601 -19.3545 -19.3418 -19.2814 -19.2189 -19.1797 -18.8202 -18.5601
   -18.4524 -17.9141 -17.4823 -17.4051 -17.3481 -16.9535 -16.7556 -16.7476
   -16.4313 -15.7445 -15.7422 -15.7293 -15.7113 -15.7037 -15.7007 -15.6762
   -15.6520 -15.6358 -15.3801 -15.3243 -14.7821 -14.6947 -14.4083 -13.9463
   -13.9429 -13.8921 -13.7267 -13.6804 -12.9614 -12.4305 -12.4139 -12.3895
   -12.3719 -12.3689 -12.3388 -12.2915 -12.2810 -12.2804 -12.2498 -12.1546
   -12.0940 -12.0760 -12.0211 -11.9799 -11.8534 -11.5983 -11.5224 -11.1551
   -11.1478 -11.1172 -11.0910 -11.0169 -10.8837 -10.7647 -10.7480 -10.7438
   -10.6788 -10.6666 -10.6441 -10.6406 -10.4399 -10.4149 -10.2130 -10.1045
   -10.0710 -10.0120 -10.0012  -9.7678  -9.7406  -9.6717  -9.6096  -9.6063
    -9.6016  -9.6013  -9.5936  -9.5852  -9.5166  -9.3549  -8.9355  -8.9182
    -8.8918  -8.8891  -8.8878  -8.8169  -8.8148  -8.5161  -8.5159  -8.4658
    -8.3731  -8.3698  -8.1712  -7.5360  -7.4963  -6.9836  -6.9717  -6.9610
    -6.9603  -6.9175  -6.9173  -6.8911  -6.8898  -6.8472  -6.8061  -6.7914
    -6.7130  -6.5845  -6.5097  -5.3347  -4.3992  -4.0791  -4.0782  -3.7055
    -2.8752  -2.5759  -2.5058  -2.4633  -2.4279  -1.8550  -1.8534  -1.7978
    -1.7653  -1.7449  -1.7231  -1.7199  -1.6801  -1.6539  -1.4290  -1.4170
    -0.9703  -0.3029  -0.1281  -0.1182  -0.1181  -0.1088  -0.0750  -0.0653
     0.0600   0.5662   0.6225   0.6789

     the Fermi energy is    -4.2739 ev

!    total energy              =    -854.76131021 Ry
     estimated scf accuracy    <          4.8E-11 Ry
     smearing contrib. (-TS)   =       0.00179467 Ry
     internal energy E=F+TS    =    -854.76310488 Ry

     The total energy is F=E-TS. E is the sum of the following terms:
     one-electron contribution =   -9609.71014027 Ry
     hartree contribution      =    4831.33521022 Ry
     xc contribution           =    -303.88802840 Ry
     ewald contribution        =    4227.49985357 Ry

     total magnetization       =     1.98 Bohr mag/cell
     absolute magnetization    =     5.33 Bohr mag/cell

     convergence has been achieved in  15 iterations

     Forces acting on atoms (cartesian axes, Ry/au):

     atom    1 type  1   force =     0.00149518   -0.00228348    0.00000001
     atom    2 type  1   force =    -0.00017345    0.00029855   -0.00000001
     atom    3 type  1   force =     0.00123014   -0.00243290    0.00000002
     atom    4 type  1   force =     0.00127735    0.00020133   -0.00000003
     atom    5 type  1   force =     0.00477909    0.00062793    0.00000004
     atom    6 type  1   force =     0.00191895   -0.00089716    0.00000001
     atom    7 type  1   force =     0.00356343   -0.00220422   -0.00000002
     atom    8 type  1   force =    -0.00036539    0.00063474   -0.00000001
     atom    9 type  1   force =     0.00012720   -0.00418742    0.00000001
     atom   10 type  1   force =    -0.00018401   -0.00210676   -0.00000000
     atom   11 type  1   force =    -0.00293255   -0.00382645   -0.00000000
     atom   12 type  1   force =    -0.00081460   -0.00100254    0.00000001
     atom   13 type  1   force =     0.00124570   -0.00215731   -0.00000000
     atom   14 type  1   force =     0.00197191   -0.00044425   -0.00000000
     atom   15 type  1   force =     0.00207156   -0.00032560    0.00000001
     atom   16 type  1   force =     0.00420690   -0.00188641    0.00000001
     atom   17 type  1   force =     0.00097987    0.00065559   -0.00000002
     atom   18 type  1   force =     0.00006685   -0.00132889   -0.00000000
     atom   19 type  1   force =     0.00091532   -0.00158865    0.00000002
     atom   20 type  1   force =     0.00112169   -0.00071911   -0.00000002
     atom   21 type  1   force =    -0.00105928   -0.00051512    0.00000001
     atom   22 type  1   force =    -0.00046952   -0.00458503   -0.00000000
     atom   23 type  1   force =    -0.00075274   -0.00195518    0.00000001
     atom   24 type  1   force =    -0.00060042   -0.00192936   -0.00000000
     atom   25 type  1   force =     0.00120156    0.00018654    0.00000002
     atom   26 type  1   force =     0.00305219    0.00199860    0.00000001
     atom   27 type  1   force =     0.00286227   -0.00033169   -0.00000002
     atom   28 type  1   force =    -0.00121505   -0.00229261    0.00000001
     atom   29 type  2   force =    -0.00236189    0.00177171   -0.00000000
     atom   30 type  2   force =    -0.00034835    0.00293392   -0.00000004
     atom   31 type  1   force =     0.00259005   -0.00008595   -0.00000002
     atom   32 type  1   force =    -0.00114211   -0.00263922    0.00000000
     atom   33 type  1   force =    -0.00325753   -0.00164409   -0.00000001
     atom   34 type  1   force =    -0.00076052   -0.00095013   -0.00000000
     atom   35 type  1   force =    -0.00045626    0.00079204    0.00000001
     atom   36 type  1   force =    -0.00104239    0.00120625    0.00000002
     atom   37 type  1   force =     0.00029925    0.00101176    0.00000000
     atom   38 type  1   force =    -0.00024596   -0.00057846   -0.00000000
     atom   39 type  1   force =    -0.00061156    0.00054100    0.00000001
     atom   40 type  2   force =     0.00058793   -0.00100288   -0.00000001
     atom   41 type  1   force =    -0.00018175    0.00079906    0.00000000
     atom   42 type  1   force =     0.00062557   -0.00007958   -0.00000001
     atom   43 type  1   force =    -0.00103278    0.00024937    0.00000001
     atom   44 type  1   force =    -0.00052440    0.00150223   -0.00000002
     atom   45 type  1   force =    -0.00142783   -0.00038434    0.00000001
     atom   46 type  1   force =    -0.00088835    0.00153315    0.00000000
     atom   47 type  1   force =     0.00104621    0.00104470   -0.00000001
     atom   48 type  1   force =     0.00054985    0.00191963    0.00000001
     atom   49 type  1   force =     0.00257637    0.00148399   -0.00000000
     atom   50 type  1   force =     0.00012190    0.00150068    0.00000001
     atom   51 type  1   force =    -0.00160340    0.00276061    0.00000001
     atom   52 type  1   force =    -0.00135609    0.00065058    0.00000000
     atom   53 type  1   force =    -0.00257478   -0.00149383   -0.00000002
     atom   54 type  1   force =    -0.00194528    0.00048662   -0.00000002
     atom   55 type  1   force =    -0.00158197   -0.00157858   -0.00000001
     atom   56 type  1   force =    -0.00246507    0.00391578    0.00000001
     atom   57 type  1   force =    -0.00038545    0.00066978   -0.00000000
     atom   58 type  1   force =    -0.00215771    0.00409142    0.00000000
     atom   59 type  1   force =     0.00215949    0.00058585    0.00000001
     atom   60 type  1   force =    -0.00102015    0.00211614   -0.00000001
     atom   61 type  1   force =     0.00083759    0.00142031   -0.00000001
     atom   62 type  1   force =    -0.00132906    0.00230772    0.00000000
     atom   63 type  1   force =    -0.00165163   -0.00002145    0.00000001
     atom   64 type  1   force =    -0.00132373    0.00195119    0.00000002
     atom   65 type  1   force =    -0.00215517    0.00007493   -0.00000000
     atom   66 type  1   force =     0.00122152    0.00038663   -0.00000002
     atom   67 type  1   force =    -0.00002132    0.00210323    0.00000004
     atom   68 type  1   force =    -0.00053807    0.00093443   -0.00000001
     atom   69 type  1   force =    -0.00181156    0.00107289    0.00000000
     atom   70 type  1   force =    -0.00094492   -0.00087253   -0.00000000
     atom   71 type  1   force =     0.00101114    0.00191031    0.00000002

     Total force =     0.020520     Total SCF correction =     0.000007
     Energy error            =      6.5E-04 Ry
     Gradient error          =      4.8E-03 Ry/Bohr

     number of scf cycles    =  10
     number of bfgs steps    =   9

     energy             old  =    -854.7606558165 Ry
     energy             new  =    -854.7613102055 Ry

     CASE: energy            _new < energy            _old

     new trust radius        =       0.0076765231 bohr
     new conv_thr            =            4.8E-11 Ry


ATOMIC_POSITIONS (crystal)
C                0.0572603587        0.0546066165        0.0000000027
C                0.1127428969        0.1102948344       -0.0000000005
C                0.0572601809        0.2214658858       -0.0000000005
C                0.1126016343        0.2778567346       -0.0000000023
C                0.0559884230        0.3891362633        0.0000000024
C                0.1104308944        0.4454467288        0.0000000016
C                0.0523168707        0.5568540151        0.0000000008
C                0.1070060978        0.6131634577       -0.0000000004
C                0.0523170406        0.7241622531       -0.0000000012
C                0.1104315489        0.7774550079       -0.0000000016
C                0.0559888525        0.8882080021        0.0000000007
C                0.1126020851        0.9428741968        0.0000000040
C                0.2235878519        0.0548723881       -0.0000000003
C                0.2787326257        0.1113486930       -0.0000000017
C                0.2229316226        0.2232357293       -0.0000000016
C                0.2779559335        0.2804072249        0.0000000009
C                0.2212403250        0.3908977743        0.0000000015
C                0.2756986355        0.4487077134        0.0000000015
C                0.2153777304        0.5589774591        0.0000000004
C                0.2756992491        0.6089257115       -0.0000000005
C                0.2212410632        0.7211941409       -0.0000000003
C                0.2779569174        0.7749688643        0.0000000011
C                0.2229321560        0.8871648943        0.0000000016
C                0.2787328535        0.9432512271        0.0000000001
C                0.3889199676        0.0572357007       -0.0000000023
C                0.4442018264        0.1154280060       -0.0000000017
C                0.3888126219        0.2291031993       -0.0000000008
C                0.4438977302        0.2892992827       -0.0000000000
C1               0.3835799688        0.4050581658        0.0000000015
C1               0.3835809183        0.5446936515       -0.0000000013
C                0.4438986101        0.6001354011        0.0000000001
C                0.3888135192        0.7154164883        0.0000000016
C                0.4442023509        0.7737030022       -0.0000000000
C                0.3889202275        0.8871771754       -0.0000000008
C                0.4441667957        0.9445831840       -0.0000000021
C                0.5543149413        0.0581448478       -0.0000000006
C                0.6096019645        0.1144727296       -0.0000000005
C                0.5552491716        0.2253079246       -0.0000000020
C                0.6157747967        0.2762809675       -0.0000000035
C1               0.5679200428        0.3827073936       -0.0000000034
C                0.6157755060        0.4412780191        0.0000000007
C                0.5552500685        0.5527765482        0.0000000004
C                0.6096025907        0.6092591034        0.0000000002
C                0.5543154829        0.7208739809       -0.0000000010
C                0.6100596662        0.7774938586       -0.0000000003
C                0.5547859283        0.8892740267       -0.0000000008
C                0.6100594903        0.9457807090       -0.0000000005
C                0.7218314439        0.0568819952        0.0000000021
C                0.7801472796        0.1095865750        0.0000000012
C                0.7262792864        0.2204869144        0.0000000002
C                0.7814533076        0.2759402479        0.0000000019
C                0.7262797973        0.3865676662        0.0000000021
C                0.7801476628        0.4435999072        0.0000000017
C                0.7218320475        0.5546203833       -0.0000000013
C                0.7765526358        0.6108139593       -0.0000000012
C                0.7204562953        0.7227651927       -0.0000000013
C                0.7759272997        0.7787034075       -0.0000000013
C                0.7204561091        0.8901126974       -0.0000000011
C                0.7765522170        0.9459676802       -0.0000000007
C                0.8903735946        0.0545176588        0.0000000025
C                0.9469885177        0.1097495496        0.0000000025
C                0.8922503075        0.2205415085        0.0000000026
C                0.9469885120        0.2765950201        0.0000000010
C                0.8903737629        0.3884421236        0.0000000004
C                0.9447938665        0.4446325732       -0.0000000007
C                0.8873120882        0.5556991185       -0.0000000001
C                0.9424525162        0.6120162588        0.0000000015
C                0.8868106657        0.7232615840       -0.0000000010
C                0.9424525141        0.7788648989       -0.0000000020
C                0.8873119698        0.8903224921       -0.0000000020
C                0.9447938245        0.9439069602        0.0000000018



     Writing config-only to output data dir /home/gregb26/links/scratch/qe_tmp/vacancy_relaxed/series/6x6/nspin2/vac_6x6_relax_nspin2.save/ :
     XML data file
     NEW-OLD atomic charge density approx. for the potential

     negative rho (up, down):  7.911E-07 7.987E-07
     Generating pointlists ...

     total cpu time spent up to now is      514.7 secs

     per-process dynamical memory:   234.2 Mb

     Self-consistent Calculation

     iteration #  1     ecut=   100.00 Ry     beta= 0.30
     Davidson diagonalization with overlap
     ethr =  1.00E-06,  avg # of iterations =  5.0

     Threshold (ethr) on eigenvalues was too large:
     Diagonalizing with lowered threshold

     Davidson diagonalization with overlap
     ethr =  6.41E-08,  avg # of iterations =  2.0

     negative rho (up, down):  5.571E-07 5.197E-07

     total cpu time spent up to now is      519.6 secs

     total energy              =    -854.76161103 Ry
     estimated scf accuracy    <       0.00019610 Ry

     total magnetization       =     1.97 Bohr mag/cell
     absolute magnetization    =     5.30 Bohr mag/cell

     iteration #  2     ecut=   100.00 Ry     beta= 0.30
     Davidson diagonalization with overlap
     ethr =  6.90E-08,  avg # of iterations =  2.0

     negative rho (up, down):  3.525E-07 3.292E-07

     total cpu time spent up to now is      521.4 secs

     total energy              =    -854.76161428 Ry
     estimated scf accuracy    <       0.00006366 Ry

     total magnetization       =     1.97 Bohr mag/cell
     absolute magnetization    =     5.30 Bohr mag/cell

     iteration #  3     ecut=   100.00 Ry     beta= 0.30
     Davidson diagonalization with overlap
     ethr =  2.24E-08,  avg # of iterations =  2.0

     negative rho (up, down):  1.387E-07 1.296E-07

     total cpu time spent up to now is      523.2 secs

     total energy              =    -854.76161590 Ry
     estimated scf accuracy    <       0.00002579 Ry

     total magnetization       =     1.97 Bohr mag/cell
     absolute magnetization    =     5.30 Bohr mag/cell

     iteration #  4     ecut=   100.00 Ry     beta= 0.30
     Davidson diagonalization with overlap
     ethr =  9.08E-09,  avg # of iterations =  2.0

     negative rho (up, down):  5.337E-08 4.994E-08

     total cpu time spent up to now is      525.3 secs

     total energy              =    -854.76161947 Ry
     estimated scf accuracy    <       0.00000326 Ry

     total magnetization       =     1.97 Bohr mag/cell
     absolute magnetization    =     5.29 Bohr mag/cell

     iteration #  5     ecut=   100.00 Ry     beta= 0.30
     Davidson diagonalization with overlap
     ethr =  1.15E-09,  avg # of iterations =  2.0

     negative rho (up, down):  1.819E-08 1.706E-08

     total cpu time spent up to now is      527.5 secs

     total energy              =    -854.76162020 Ry
     estimated scf accuracy    <       0.00000071 Ry

     total magnetization       =     1.97 Bohr mag/cell
     absolute magnetization    =     5.29 Bohr mag/cell

     iteration #  6     ecut=   100.00 Ry     beta= 0.30
     Davidson diagonalization with overlap
     ethr =  2.51E-10,  avg # of iterations =  3.5

     total cpu time spent up to now is      529.9 secs

     total energy              =    -854.76162049 Ry
     estimated scf accuracy    <       0.00000018 Ry

     total magnetization       =     1.97 Bohr mag/cell
     absolute magnetization    =     5.28 Bohr mag/cell

     iteration #  7     ecut=   100.00 Ry     beta= 0.30
     Davidson diagonalization with overlap
     ethr =  6.24E-11,  avg # of iterations =  4.0

     total cpu time spent up to now is      532.2 secs

     total energy              =    -854.76162066 Ry
     estimated scf accuracy    <       0.00000007 Ry

     total magnetization       =     1.97 Bohr mag/cell
     absolute magnetization    =     5.28 Bohr mag/cell

     iteration #  8     ecut=   100.00 Ry     beta= 0.30
     Davidson diagonalization with overlap
     ethr =  2.64E-11,  avg # of iterations =  4.5

     total cpu time spent up to now is      535.0 secs

     total energy              =    -854.76162079 Ry
     estimated scf accuracy    <       0.00000003 Ry

     total magnetization       =     1.97 Bohr mag/cell
     absolute magnetization    =     5.27 Bohr mag/cell

     iteration #  9     ecut=   100.00 Ry     beta= 0.30
     Davidson diagonalization with overlap
     ethr =  1.03E-11,  avg # of iterations =  4.0

     total cpu time spent up to now is      537.7 secs

     total energy              =    -854.76162087 Ry
     estimated scf accuracy    <       0.00000002 Ry

     total magnetization       =     1.97 Bohr mag/cell
     absolute magnetization    =     5.27 Bohr mag/cell

     iteration # 10     ecut=   100.00 Ry     beta= 0.30
     Davidson diagonalization with overlap
     ethr =  7.02E-12,  avg # of iterations =  5.0

     total cpu time spent up to now is      540.6 secs

     total energy              =    -854.76162093 Ry
     estimated scf accuracy    <       0.00000001 Ry

     total magnetization       =     1.97 Bohr mag/cell
     absolute magnetization    =     5.27 Bohr mag/cell

     iteration # 11     ecut=   100.00 Ry     beta= 0.30
     Davidson diagonalization with overlap
     ethr =  3.65E-12,  avg # of iterations =  6.5

     total cpu time spent up to now is      544.4 secs

     total energy              =    -854.76162101 Ry
     estimated scf accuracy    <          3.1E-09 Ry

     total magnetization       =     1.97 Bohr mag/cell
     absolute magnetization    =     5.26 Bohr mag/cell

     iteration # 12     ecut=   100.00 Ry     beta= 0.30
     Davidson diagonalization with overlap
     ethr =  1.09E-12,  avg # of iterations =  7.0

     total cpu time spent up to now is      548.2 secs

     total energy              =    -854.76162103 Ry
     estimated scf accuracy    <          8.5E-10 Ry

     total magnetization       =     1.97 Bohr mag/cell
     absolute magnetization    =     5.26 Bohr mag/cell

     iteration # 13     ecut=   100.00 Ry     beta= 0.30
     Davidson diagonalization with overlap
     ethr =  2.99E-13,  avg # of iterations =  7.0

     total cpu time spent up to now is      552.2 secs

     total energy              =    -854.76162104 Ry
     estimated scf accuracy    <          2.0E-10 Ry

     total magnetization       =     1.97 Bohr mag/cell
     absolute magnetization    =     5.25 Bohr mag/cell

     iteration # 14     ecut=   100.00 Ry     beta= 0.30
     Davidson diagonalization with overlap
     ethr =  1.00E-13,  avg # of iterations =  5.0

     total cpu time spent up to now is      555.4 secs

     total energy              =    -854.76162104 Ry
     estimated scf accuracy    <          7.8E-11 Ry

     total magnetization       =     1.97 Bohr mag/cell
     absolute magnetization    =     5.25 Bohr mag/cell

     iteration # 15     ecut=   100.00 Ry     beta= 0.30
     Davidson diagonalization with overlap
     ethr =  1.00E-13,  avg # of iterations =  2.0

     Magnetic moment per site  (integrated on atomic sphere of radius R)
     atom   1 (R=0.038)  charge=  1.5059  magn=  0.0282
     atom   2 (R=0.038)  charge=  1.5035  magn= -0.0130
     atom   3 (R=0.038)  charge=  1.5059  magn=  0.0282
     atom   4 (R=0.038)  charge=  1.5044  magn= -0.0241
     atom   5 (R=0.038)  charge=  1.5043  magn=  0.0319
     atom   6 (R=0.038)  charge=  1.5057  magn= -0.0235
     atom   7 (R=0.038)  charge=  1.5117  magn=  0.0275
     atom   8 (R=0.038)  charge=  1.5211  magn= -0.0119
     atom   9 (R=0.038)  charge=  1.5117  magn=  0.0275
     atom  10 (R=0.038)  charge=  1.5057  magn= -0.0235
     atom  11 (R=0.038)  charge=  1.5043  magn=  0.0319
     atom  12 (R=0.038)  charge=  1.5044  magn= -0.0241
     atom  13 (R=0.038)  charge=  1.5003  magn=  0.0322
     atom  14 (R=0.038)  charge=  1.5017  magn= -0.0241
     atom  15 (R=0.038)  charge=  1.4987  magn=  0.0286
     atom  16 (R=0.038)  charge=  1.5015  magn= -0.0120
     atom  17 (R=0.038)  charge=  1.5020  magn=  0.0297
     atom  18 (R=0.038)  charge=  1.5174  magn= -0.0160
     atom  19 (R=0.038)  charge=  1.5333  magn=  0.0281
     atom  20 (R=0.038)  charge=  1.5174  magn= -0.0160
     atom  21 (R=0.038)  charge=  1.5020  magn=  0.0297
     atom  22 (R=0.038)  charge=  1.5015  magn= -0.0120
     atom  23 (R=0.038)  charge=  1.4987  magn=  0.0286
     atom  24 (R=0.038)  charge=  1.5017  magn= -0.0241
     atom  25 (R=0.038)  charge=  1.4883  magn=  0.0292
     atom  26 (R=0.038)  charge=  1.4826  magn= -0.0263
     atom  27 (R=0.038)  charge=  1.4689  magn=  0.0315
     atom  28 (R=0.038)  charge=  1.4451  magn= -0.0274
     atom  29 (R=0.038)  charge=  1.3828  magn=  0.0487
     atom  30 (R=0.038)  charge=  1.3828  magn=  0.0487
     atom  31 (R=0.038)  charge=  1.4451  magn= -0.0274
     atom  32 (R=0.038)  charge=  1.4689  magn=  0.0315
     atom  33 (R=0.038)  charge=  1.4826  magn= -0.0263
     atom  34 (R=0.038)  charge=  1.4883  magn=  0.0292
     atom  35 (R=0.038)  charge=  1.4874  magn= -0.0142
     atom  36 (R=0.038)  charge=  1.5010  magn=  0.0264
     atom  37 (R=0.038)  charge=  1.4949  magn= -0.0147
     atom  38 (R=0.038)  charge=  1.4996  magn=  0.0409
     atom  39 (R=0.038)  charge=  1.5273  magn= -0.0233
     atom  40 (R=0.038)  charge=  1.4804  magn=  0.3376
     atom  41 (R=0.038)  charge=  1.5273  magn= -0.0233
     atom  42 (R=0.038)  charge=  1.4996  magn=  0.0409
     atom  43 (R=0.038)  charge=  1.4949  magn= -0.0147
     atom  44 (R=0.038)  charge=  1.5010  magn=  0.0264
     atom  45 (R=0.038)  charge=  1.4973  magn= -0.0249
     atom  46 (R=0.038)  charge=  1.4989  magn=  0.0290
     atom  47 (R=0.038)  charge=  1.4973  magn= -0.0249
     atom  48 (R=0.038)  charge=  1.4997  magn=  0.0335
     atom  49 (R=0.038)  charge=  1.5107  magn= -0.0220
     atom  50 (R=0.038)  charge=  1.5128  magn=  0.0478
     atom  51 (R=0.038)  charge=  1.5120  magn= -0.0178
     atom  52 (R=0.038)  charge=  1.5128  magn=  0.0478
     atom  53 (R=0.038)  charge=  1.5107  magn= -0.0220
     atom  54 (R=0.038)  charge=  1.4997  magn=  0.0335
     atom  55 (R=0.038)  charge=  1.5027  magn= -0.0253
     atom  56 (R=0.038)  charge=  1.5019  magn=  0.0268
     atom  57 (R=0.038)  charge=  1.5011  magn= -0.0131
     atom  58 (R=0.038)  charge=  1.5019  magn=  0.0268
     atom  59 (R=0.038)  charge=  1.5027  magn= -0.0253
     atom  60 (R=0.038)  charge=  1.5087  magn=  0.0290
     atom  61 (R=0.038)  charge=  1.5074  magn= -0.0252
     atom  62 (R=0.038)  charge=  1.5108  magn=  0.0319
     atom  63 (R=0.038)  charge=  1.5074  magn= -0.0252
     atom  64 (R=0.038)  charge=  1.5087  magn=  0.0290
     atom  65 (R=0.038)  charge=  1.5045  magn= -0.0129
     atom  66 (R=0.038)  charge=  1.5054  magn=  0.0286
     atom  67 (R=0.038)  charge=  1.5090  magn= -0.0238
     atom  68 (R=0.038)  charge=  1.5044  magn=  0.0317
     atom  69 (R=0.038)  charge=  1.5090  magn= -0.0238
     atom  70 (R=0.038)  charge=  1.5054  magn=  0.0286
     atom  71 (R=0.038)  charge=  1.5045  magn= -0.0129

     total cpu time spent up to now is      557.6 secs

     End of self-consistent calculation

 ------ SPIN UP ------------


          k = 0.0000 0.0000 0.0000 (171510 PWs)   bands (ev):

   -23.8047 -23.2497 -23.2155 -23.1943 -23.1508 -23.0719 -22.8666 -21.9244
   -21.9072 -21.8883 -21.8679 -21.7750 -21.6606 -21.3132 -21.2526 -21.2475
   -21.1909 -21.1045 -20.7345 -19.4626 -19.4613 -19.4455 -19.4150 -19.4135
   -19.3897 -19.3839 -19.3644 -19.3070 -19.3068 -19.1940 -18.8488 -18.5836
   -18.5049 -18.0213 -17.5166 -17.4324 -17.3658 -16.9662 -16.8695 -16.7748
   -16.4682 -15.7619 -15.7593 -15.7555 -15.7391 -15.7256 -15.7253 -15.7059
   -15.6746 -15.6498 -15.4304 -15.3994 -14.8061 -14.7165 -14.4952 -13.9782
   -13.9746 -13.9036 -13.7490 -13.7430 -13.0653 -12.4434 -12.4305 -12.3956
   -12.3833 -12.3772 -12.3753 -12.3170 -12.3049 -12.3014 -12.2805 -12.1680
   -12.1224 -12.1108 -12.0425 -12.0026 -11.8933 -11.6204 -11.6084 -11.1976
   -11.1818 -11.1637 -11.1282 -11.0600 -10.9302 -10.8184 -10.7978 -10.7584
   -10.6963 -10.6769 -10.6639 -10.6557 -10.4549 -10.4393 -10.3212 -10.1402
   -10.0907 -10.0434 -10.0204  -9.7892  -9.7727  -9.6930  -9.6637  -9.6479
    -9.6452  -9.6289  -9.6249  -9.6145  -9.5424  -9.4199  -8.9911  -8.9556
    -8.9453  -8.9338  -8.9156  -8.8680  -8.8339  -8.5719  -8.5353  -8.4887
    -8.4702  -8.4149  -8.3928  -7.6227  -7.5122  -7.0418  -7.0141  -7.0011
    -6.9822  -6.9793  -6.9593  -6.9479  -6.9298  -6.8926  -6.8885  -6.8244
    -6.7624  -6.6244  -6.5817  -5.5275  -5.0529  -4.4087  -4.3817  -4.1180
    -3.7538  -2.6466  -2.6056  -2.5467  -2.5079  -1.9073  -1.9025  -1.8325
    -1.8141  -1.8038  -1.7673  -1.7543  -1.7218  -1.7012  -1.6173  -1.4943
    -0.9800  -0.4056  -0.1340  -0.1267  -0.1240  -0.1152  -0.0848  -0.0730
     0.0317   0.5158   0.5953   0.6089

 ------ SPIN DOWN ----------


          k = 0.0000 0.0000 0.0000 (171510 PWs)   bands (ev):

   -23.7796 -23.2138 -23.1949 -23.1692 -23.1315 -23.0500 -22.8051 -21.8855
   -21.8673 -21.8649 -21.8450 -21.7613 -21.6227 -21.2670 -21.2281 -21.2266
   -21.1560 -21.0895 -20.6532 -19.4370 -19.4352 -19.4245 -19.4018 -19.3853
   -19.3614 -19.3583 -19.3410 -19.2856 -19.2167 -19.1770 -18.8200 -18.5584
   -18.4522 -17.9130 -17.4822 -17.4046 -17.3505 -16.9553 -16.7508 -16.7478
   -16.4312 -15.7427 -15.7396 -15.7289 -15.7105 -15.7070 -15.7008 -15.6765
   -15.6504 -15.6335 -15.3762 -15.3249 -14.7839 -14.6930 -14.4094 -13.9451
   -13.9443 -13.8898 -13.7271 -13.6821 -12.9685 -12.4224 -12.4168 -12.3859
   -12.3687 -12.3610 -12.3425 -12.2923 -12.2809 -12.2798 -12.2499 -12.1502
   -12.0964 -12.0758 -12.0244 -11.9756 -11.8516 -11.6030 -11.5276 -11.1536
   -11.1416 -11.1180 -11.0912 -11.0198 -10.8789 -10.7622 -10.7511 -10.7443
   -10.6839 -10.6622 -10.6425 -10.6402 -10.4402 -10.4117 -10.2161 -10.1020
   -10.0659 -10.0142 -10.0045  -9.7645  -9.7386  -9.6711  -9.6116  -9.6052
    -9.6023  -9.6019  -9.5950  -9.5829  -9.5137  -9.3540  -8.9281  -8.9194
    -8.8929  -8.8926  -8.8894  -8.8191  -8.8130  -8.5171  -8.5166  -8.4677
    -8.3717  -8.3695  -8.1876  -7.5411  -7.4914  -6.9836  -6.9676  -6.9592
    -6.9587  -6.9203  -6.9167  -6.8953  -6.8922  -6.8516  -6.8030  -6.7889
    -6.7108  -6.5819  -6.5089  -5.3367  -4.4000  -4.0800  -4.0775  -3.7115
    -2.8805  -2.5778  -2.5039  -2.4640  -2.3985  -1.8566  -1.8509  -1.8008
    -1.7680  -1.7453  -1.7233  -1.7218  -1.6810  -1.6534  -1.4236  -1.4205
    -0.9702  -0.3063  -0.1274  -0.1183  -0.1170  -0.1090  -0.0752  -0.0662
     0.0589   0.5681   0.6214   0.6775

     the Fermi energy is    -4.2737 ev

!    total energy              =    -854.76162104 Ry
     estimated scf accuracy    <          2.3E-11 Ry
     smearing contrib. (-TS)   =       0.00181870 Ry
     internal energy E=F+TS    =    -854.76343974 Ry

     The total energy is F=E-TS. E is the sum of the following terms:
     one-electron contribution =   -9609.49287005 Ry
     hartree contribution      =    4831.22523794 Ry
     xc contribution           =    -303.88152604 Ry
     ewald contribution        =    4227.38571842 Ry

     total magnetization       =     1.97 Bohr mag/cell
     absolute magnetization    =     5.25 Bohr mag/cell

     convergence has been achieved in  15 iterations

     Forces acting on atoms (cartesian axes, Ry/au):

     atom    1 type  1   force =    -0.00089754    0.00027995    0.00000001
     atom    2 type  1   force =     0.00009668   -0.00016050    0.00000001
     atom    3 type  1   force =     0.00020667    0.00091428   -0.00000000
     atom    4 type  1   force =     0.00237578    0.00052419    0.00000002
     atom    5 type  1   force =    -0.00026330   -0.00007251   -0.00000002
     atom    6 type  1   force =     0.00034774   -0.00000713   -0.00000000
     atom    7 type  1   force =     0.00100506   -0.00017758    0.00000001
     atom    8 type  1   force =     0.00115977   -0.00200534    0.00000002
     atom    9 type  1   force =    -0.00034896   -0.00095968   -0.00000000
     atom   10 type  1   force =    -0.00017035   -0.00030259   -0.00000001
     atom   11 type  1   force =     0.00019458    0.00019810    0.00000002
     atom   12 type  1   force =    -0.00164388   -0.00179521   -0.00000002
     atom   13 type  1   force =     0.00084573   -0.00146514   -0.00000001
     atom   14 type  1   force =     0.00143960    0.00044159    0.00000000
     atom   15 type  1   force =     0.00307932   -0.00060031    0.00000000
     atom   16 type  1   force =     0.00127412   -0.00032016   -0.00000000
     atom   17 type  1   force =     0.00007115   -0.00064961   -0.00000001
     atom   18 type  1   force =    -0.00040267    0.00047825   -0.00000001
     atom   19 type  1   force =    -0.00026588    0.00046393    0.00000003
     atom   20 type  1   force =    -0.00020988    0.00058759    0.00000000
     atom   21 type  1   force =     0.00052716   -0.00038778    0.00000000
     atom   22 type  1   force =    -0.00036031   -0.00125591   -0.00000002
     atom   23 type  1   force =    -0.00101765   -0.00296663    0.00000000
     atom   24 type  1   force =    -0.00110123   -0.00102646   -0.00000000
     atom   25 type  1   force =     0.00108229    0.00000571    0.00000001
     atom   26 type  1   force =     0.00140568    0.00091098   -0.00000000
     atom   27 type  1   force =     0.00097418   -0.00079079    0.00000000
     atom   28 type  1   force =     0.00145905    0.00050135   -0.00000001
     atom   29 type  2   force =    -0.00202893   -0.00084565    0.00000000
     atom   30 type  2   force =     0.00174773    0.00133861    0.00000001
     atom   31 type  1   force =    -0.00116224   -0.00101184    0.00000001
     atom   32 type  1   force =     0.00019873   -0.00123698    0.00000001
     atom   33 type  1   force =    -0.00149003   -0.00076155   -0.00000000
     atom   34 type  1   force =    -0.00054633   -0.00093373   -0.00000002
     atom   35 type  1   force =    -0.00042394    0.00073556    0.00000003
     atom   36 type  1   force =     0.00072945    0.00059580   -0.00000000
     atom   37 type  1   force =     0.00082883    0.00209520   -0.00000001
     atom   38 type  1   force =    -0.00047584   -0.00088470   -0.00000001
     atom   39 type  1   force =    -0.00064924    0.00001987    0.00000001
     atom   40 type  2   force =     0.00073955   -0.00129616   -0.00000002
     atom   41 type  1   force =     0.00031349    0.00057297   -0.00000000
     atom   42 type  1   force =     0.00099763   -0.00002778   -0.00000001
     atom   43 type  1   force =    -0.00222823    0.00032921   -0.00000000
     atom   44 type  1   force =    -0.00088574   -0.00033332    0.00000001
     atom   45 type  1   force =    -0.00151778    0.00251861   -0.00000002
     atom   46 type  1   force =    -0.00050274    0.00087035   -0.00000002
     atom   47 type  1   force =    -0.00142591    0.00257433    0.00000000
     atom   48 type  1   force =     0.00056277    0.00026594   -0.00000004
     atom   49 type  1   force =    -0.00002620    0.00074908    0.00000000
     atom   50 type  1   force =    -0.00041103    0.00014967   -0.00000001
     atom   51 type  1   force =    -0.00057488    0.00099666    0.00000001
     atom   52 type  1   force =     0.00007124    0.00042870    0.00000000
     atom   53 type  1   force =    -0.00063550    0.00039710   -0.00000001
     atom   54 type  1   force =    -0.00051507   -0.00035309    0.00000002
     atom   55 type  1   force =    -0.00008905    0.00013915   -0.00000000
     atom   56 type  1   force =    -0.00167732   -0.00123275    0.00000001
     atom   57 type  1   force =    -0.00087660    0.00151650   -0.00000001
     atom   58 type  1   force =     0.00190605    0.00083627    0.00000000
     atom   59 type  1   force =    -0.00007462    0.00014211    0.00000002
     atom   60 type  1   force =     0.00025588    0.00060332    0.00000001
     atom   61 type  1   force =     0.00017029    0.00078341   -0.00000000
     atom   62 type  1   force =    -0.00123965    0.00214318    0.00000001
     atom   63 type  1   force =    -0.00076079    0.00024777    0.00000001
     atom   64 type  1   force =    -0.00065134    0.00007794   -0.00000000
     atom   65 type  1   force =     0.00111979    0.00050707    0.00000001
     atom   66 type  1   force =    -0.00161149   -0.00057306    0.00000000
     atom   67 type  1   force =     0.00118863   -0.00061309   -0.00000002
     atom   68 type  1   force =     0.00054588   -0.00094698   -0.00000003
     atom   69 type  1   force =    -0.00006350   -0.00133868   -0.00000000
     atom   70 type  1   force =     0.00130113    0.00111310    0.00000003
     atom   71 type  1   force =    -0.00099601   -0.00072071   -0.00000001

     Total force =     0.012362     Total SCF correction =     0.000004
     Energy error            =      3.1E-04 Ry
     Gradient error          =      3.1E-03 Ry/Bohr

     number of scf cycles    =  11
     number of bfgs steps    =  10

     energy             old  =    -854.7613102055 Ry
     energy             new  =    -854.7616210408 Ry

     CASE: energy            _new < energy            _old

     new trust radius        =       0.0051153772 bohr
     new conv_thr            =            3.1E-11 Ry


ATOMIC_POSITIONS (crystal)
C                0.0573089025        0.0545580865        0.0000000031
C                0.1128277564        0.1102525063       -0.0000000002
C                0.0573088263        0.2214657855       -0.0000000005
C                0.1126845807        0.2779546984       -0.0000000019
C                0.0560175920        0.3892019663        0.0000000022
C                0.1104972475        0.4454912952        0.0000000014
C                0.0523356464        0.5569224074        0.0000000009
C                0.1070890254        0.6131220590        0.0000000000
C                0.0523358033        0.7240750803       -0.0000000013
C                0.1104976452        0.7773441884       -0.0000000018
C                0.0560177587        0.8881134035        0.0000000015
C                0.1126849414        0.9426932617        0.0000000034
C                0.2237426535        0.0547949868       -0.0000000007
C                0.2788023953        0.1113987441       -0.0000000015
C                0.2230578164        0.2233193682       -0.0000000015
C                0.2780593041        0.2804742231        0.0000000010
C                0.2212896944        0.3909281479        0.0000000009
C                0.2756700338        0.4487430241        0.0000000012
C                0.2153815093        0.5589756302        0.0000000019
C                0.2756705924        0.6089192084       -0.0000000008
C                0.2212903002        0.7211145166        0.0000000001
C                0.2780599585        0.7747988187        0.0000000005
C                0.2230583589        0.8869551635        0.0000000017
C                0.2788026955        0.9431313813       -0.0000000000
C                0.3889585620        0.0572912563       -0.0000000017
C                0.4441873002        0.1155926611       -0.0000000016
C                0.3889204719        0.2291780214       -0.0000000010
C                0.4439430787        0.2893504189       -0.0000000005
C1               0.3835594229        0.4050765579        0.0000000016
C1               0.3835601516        0.5446962143       -0.0000000013
C                0.4439438043        0.6000391110        0.0000000003
C                0.3889212167        0.7152340583        0.0000000019
C                0.4441878793        0.7735528893       -0.0000000002
C                0.3889588534        0.8870830234       -0.0000000015
C                0.4441050033        0.9446141090       -0.0000000006
C                0.5542620556        0.0582349975       -0.0000000005
C                0.6095305078        0.1145781173       -0.0000000007
C                0.5552666649        0.2252999797       -0.0000000022
C                0.6157651887        0.2762647636       -0.0000000029
C1               0.5679889285        0.3826726262       -0.0000000045
C                0.6157658672        0.4413038795        0.0000000008
C                0.5552672860        0.5527668880       -0.0000000001
C                0.6095310561        0.6092250770        0.0000000002
C                0.5542625231        0.7208365658       -0.0000000011
C                0.6098787945        0.7775647126       -0.0000000008
C                0.5547057742        0.8893140751       -0.0000000017
C                0.6098785026        0.9458906483       -0.0000000004
C                0.7218109123        0.0569710477        0.0000000007
C                0.7801093427        0.1096869665        0.0000000012
C                0.7262236243        0.2205467764       -0.0000000001
C                0.7813609555        0.2759863965        0.0000000025
C                0.7262240572        0.3865632796        0.0000000021
C                0.7801096756        0.4435374220        0.0000000011
C                0.7218112967        0.5545518549       -0.0000000011
C                0.7765147965        0.6107872374       -0.0000000014
C                0.7203525369        0.7227282175       -0.0000000009
C                0.7757438848        0.7787951124       -0.0000000018
C                0.7203523518        0.8902534884       -0.0000000009
C                0.7765145954        0.9460320968       -0.0000000000
C                0.8903355728        0.0545770454        0.0000000029
C                0.9470091191        0.1097844663        0.0000000023
C                0.8921411730        0.2205960181        0.0000000030
C                0.9470090446        0.2765396444        0.0000000014
C                0.8903357137        0.3884207481        0.0000000006
C                0.9447853189        0.4446681861       -0.0000000002
C                0.8872657275        0.5556749858       -0.0000000003
C                0.9424501152        0.6120716142        0.0000000014
C                0.8867546869        0.7232895812       -0.0000000023
C                0.9424501733        0.7788118615       -0.0000000021
C                0.8872655075        0.8903930659       -0.0000000007
C                0.9447854414        0.9438798399        0.0000000015



     Writing config-only to output data dir /home/gregb26/links/scratch/qe_tmp/vacancy_relaxed/series/6x6/nspin2/vac_6x6_relax_nspin2.save/ :
     XML data file
     NEW-OLD atomic charge density approx. for the potential

     negative rho (up, down):  4.318E-07 4.372E-07
     Generating pointlists ...

     total cpu time spent up to now is      558.9 secs

     per-process dynamical memory:   234.7 Mb

     Self-consistent Calculation

     iteration #  1     ecut=   100.00 Ry     beta= 0.30
     Davidson diagonalization with overlap
     ethr =  1.00E-06,  avg # of iterations =  3.5

     Threshold (ethr) on eigenvalues was too large:
     Diagonalizing with lowered threshold

     Davidson diagonalization with overlap
     ethr =  1.24E-08,  avg # of iterations =  5.0

     negative rho (up, down):  2.953E-07 2.936E-07

     total cpu time spent up to now is      565.5 secs

     total energy              =    -854.76173335 Ry
     estimated scf accuracy    <       0.00007713 Ry

     total magnetization       =     1.97 Bohr mag/cell
     absolute magnetization    =     5.25 Bohr mag/cell

     iteration #  2     ecut=   100.00 Ry     beta= 0.30
     Davidson diagonalization with overlap
     ethr =  2.72E-08,  avg # of iterations =  2.0

     negative rho (up, down):  2.003E-07 1.994E-07

     total cpu time spent up to now is      567.6 secs

     total energy              =    -854.76173778 Ry
     estimated scf accuracy    <       0.00002317 Ry

     total magnetization       =     1.97 Bohr mag/cell
     absolute magnetization    =     5.25 Bohr mag/cell

     iteration #  3     ecut=   100.00 Ry     beta= 0.30
     Davidson diagonalization with overlap
     ethr =  8.16E-09,  avg # of iterations =  1.5

     negative rho (up, down):  8.916E-08 8.908E-08

     total cpu time spent up to now is      569.5 secs

     total energy              =    -854.76173819 Ry
     estimated scf accuracy    <       0.00000928 Ry

     total magnetization       =     1.97 Bohr mag/cell
     absolute magnetization    =     5.25 Bohr mag/cell

     iteration #  4     ecut=   100.00 Ry     beta= 0.30
     Davidson diagonalization with overlap
     ethr =  3.27E-09,  avg # of iterations =  2.0

     negative rho (up, down):  2.624E-08 2.640E-08

     total cpu time spent up to now is      571.4 secs

     total energy              =    -854.76173893 Ry
     estimated scf accuracy    <       0.00000153 Ry

     total magnetization       =     1.97 Bohr mag/cell
     absolute magnetization    =     5.24 Bohr mag/cell

     iteration #  5     ecut=   100.00 Ry     beta= 0.30
     Davidson diagonalization with overlap
     ethr =  5.38E-10,  avg # of iterations =  2.0

     total cpu time spent up to now is      573.6 secs

     total energy              =    -854.76173917 Ry
     estimated scf accuracy    <       0.00000019 Ry

     total magnetization       =     1.97 Bohr mag/cell
     absolute magnetization    =     5.24 Bohr mag/cell

     iteration #  6     ecut=   100.00 Ry     beta= 0.30
     Davidson diagonalization with overlap
     ethr =  6.65E-11,  avg # of iterations =  4.5

     total cpu time spent up to now is      576.2 secs

     total energy              =    -854.76173922 Ry
     estimated scf accuracy    <       0.00000004 Ry

     total magnetization       =     1.97 Bohr mag/cell
     absolute magnetization    =     5.24 Bohr mag/cell

     iteration #  7     ecut=   100.00 Ry     beta= 0.30
     Davidson diagonalization with overlap
     ethr =  1.39E-11,  avg # of iterations =  3.0

     total cpu time spent up to now is      578.4 secs

     total energy              =    -854.76173924 Ry
     estimated scf accuracy    <       0.00000001 Ry

     total magnetization       =     1.97 Bohr mag/cell
     absolute magnetization    =     5.24 Bohr mag/cell

     iteration #  8     ecut=   100.00 Ry     beta= 0.30
     Davidson diagonalization with overlap
     ethr =  3.85E-12,  avg # of iterations =  4.0

     total cpu time spent up to now is      580.9 secs

     total energy              =    -854.76173924 Ry
     estimated scf accuracy    <          3.0E-09 Ry

     total magnetization       =     1.97 Bohr mag/cell
     absolute magnetization    =     5.24 Bohr mag/cell

     iteration #  9     ecut=   100.00 Ry     beta= 0.30
     Davidson diagonalization with overlap
     ethr =  1.05E-12,  avg # of iterations =  4.0

     total cpu time spent up to now is      583.6 secs

     total energy              =    -854.76173925 Ry
     estimated scf accuracy    <          1.1E-09 Ry

     total magnetization       =     1.97 Bohr mag/cell
     absolute magnetization    =     5.24 Bohr mag/cell

     iteration # 10     ecut=   100.00 Ry     beta= 0.30
     Davidson diagonalization with overlap
     ethr =  3.90E-13,  avg # of iterations =  4.0

     total cpu time spent up to now is      586.5 secs

     total energy              =    -854.76173925 Ry
     estimated scf accuracy    <          6.7E-10 Ry

     total magnetization       =     1.97 Bohr mag/cell
     absolute magnetization    =     5.24 Bohr mag/cell

     iteration # 11     ecut=   100.00 Ry     beta= 0.30
     Davidson diagonalization with overlap
     ethr =  2.35E-13,  avg # of iterations =  5.0

     total cpu time spent up to now is      589.4 secs

     total energy              =    -854.76173925 Ry
     estimated scf accuracy    <          3.6E-10 Ry

     total magnetization       =     1.97 Bohr mag/cell
     absolute magnetization    =     5.24 Bohr mag/cell

     iteration # 12     ecut=   100.00 Ry     beta= 0.30
     Davidson diagonalization with overlap
     ethr =  1.27E-13,  avg # of iterations =  5.0

     total cpu time spent up to now is      592.4 secs

     total energy              =    -854.76173925 Ry
     estimated scf accuracy    <          1.9E-10 Ry

     total magnetization       =     1.97 Bohr mag/cell
     absolute magnetization    =     5.24 Bohr mag/cell

     iteration # 13     ecut=   100.00 Ry     beta= 0.30
     Davidson diagonalization with overlap
     ethr =  1.00E-13,  avg # of iterations =  5.0

     total cpu time spent up to now is      595.7 secs

     total energy              =    -854.76173926 Ry
     estimated scf accuracy    <          8.2E-11 Ry

     total magnetization       =     1.97 Bohr mag/cell
     absolute magnetization    =     5.24 Bohr mag/cell

     iteration # 14     ecut=   100.00 Ry     beta= 0.30
     Davidson diagonalization with overlap
     ethr =  1.00E-13,  avg # of iterations =  4.0

     Magnetic moment per site  (integrated on atomic sphere of radius R)
     atom   1 (R=0.038)  charge=  1.5048  magn=  0.0282
     atom   2 (R=0.038)  charge=  1.5027  magn= -0.0129
     atom   3 (R=0.038)  charge=  1.5048  magn=  0.0282
     atom   4 (R=0.038)  charge=  1.5036  magn= -0.0240
     atom   5 (R=0.038)  charge=  1.5041  magn=  0.0318
     atom   6 (R=0.038)  charge=  1.5056  magn= -0.0234
     atom   7 (R=0.038)  charge=  1.5116  magn=  0.0273
     atom   8 (R=0.038)  charge=  1.5221  magn= -0.0118
     atom   9 (R=0.038)  charge=  1.5116  magn=  0.0273
     atom  10 (R=0.038)  charge=  1.5056  magn= -0.0234
     atom  11 (R=0.038)  charge=  1.5041  magn=  0.0318
     atom  12 (R=0.038)  charge=  1.5036  magn= -0.0240
     atom  13 (R=0.038)  charge=  1.4996  magn=  0.0323
     atom  14 (R=0.038)  charge=  1.5016  magn= -0.0240
     atom  15 (R=0.038)  charge=  1.4985  magn=  0.0285
     atom  16 (R=0.038)  charge=  1.5020  magn= -0.0120
     atom  17 (R=0.038)  charge=  1.5027  magn=  0.0294
     atom  18 (R=0.038)  charge=  1.5180  magn= -0.0160
     atom  19 (R=0.038)  charge=  1.5342  magn=  0.0282
     atom  20 (R=0.038)  charge=  1.5180  magn= -0.0160
     atom  21 (R=0.038)  charge=  1.5027  magn=  0.0294
     atom  22 (R=0.038)  charge=  1.5020  magn= -0.0120
     atom  23 (R=0.038)  charge=  1.4985  magn=  0.0285
     atom  24 (R=0.038)  charge=  1.5016  magn= -0.0240
     atom  25 (R=0.038)  charge=  1.4881  magn=  0.0290
     atom  26 (R=0.038)  charge=  1.4829  magn= -0.0262
     atom  27 (R=0.038)  charge=  1.4698  magn=  0.0314
     atom  28 (R=0.038)  charge=  1.4457  magn= -0.0273
     atom  29 (R=0.038)  charge=  1.3830  magn=  0.0487
     atom  30 (R=0.038)  charge=  1.3830  magn=  0.0487
     atom  31 (R=0.038)  charge=  1.4457  magn= -0.0273
     atom  32 (R=0.038)  charge=  1.4698  magn=  0.0314
     atom  33 (R=0.038)  charge=  1.4829  magn= -0.0262
     atom  34 (R=0.038)  charge=  1.4881  magn=  0.0290
     atom  35 (R=0.038)  charge=  1.4872  magn= -0.0141
     atom  36 (R=0.038)  charge=  1.5014  magn=  0.0263
     atom  37 (R=0.038)  charge=  1.4953  magn= -0.0146
     atom  38 (R=0.038)  charge=  1.5005  magn=  0.0406
     atom  39 (R=0.038)  charge=  1.5279  magn= -0.0232
     atom  40 (R=0.038)  charge=  1.4807  magn=  0.3375
     atom  41 (R=0.038)  charge=  1.5279  magn= -0.0232
     atom  42 (R=0.038)  charge=  1.5005  magn=  0.0406
     atom  43 (R=0.038)  charge=  1.4953  magn= -0.0146
     atom  44 (R=0.038)  charge=  1.5014  magn=  0.0263
     atom  45 (R=0.038)  charge=  1.4973  magn= -0.0249
     atom  46 (R=0.038)  charge=  1.4993  magn=  0.0289
     atom  47 (R=0.038)  charge=  1.4973  magn= -0.0249
     atom  48 (R=0.038)  charge=  1.4995  magn=  0.0334
     atom  49 (R=0.038)  charge=  1.5109  magn= -0.0218
     atom  50 (R=0.038)  charge=  1.5136  magn=  0.0476
     atom  51 (R=0.038)  charge=  1.5126  magn= -0.0177
     atom  52 (R=0.038)  charge=  1.5136  magn=  0.0476
     atom  53 (R=0.038)  charge=  1.5109  magn= -0.0218
     atom  54 (R=0.038)  charge=  1.4995  magn=  0.0334
     atom  55 (R=0.038)  charge=  1.5026  magn= -0.0251
     atom  56 (R=0.038)  charge=  1.5013  magn=  0.0268
     atom  57 (R=0.038)  charge=  1.5000  magn= -0.0130
     atom  58 (R=0.038)  charge=  1.5013  magn=  0.0268
     atom  59 (R=0.038)  charge=  1.5026  magn= -0.0251
     atom  60 (R=0.038)  charge=  1.5080  magn=  0.0290
     atom  61 (R=0.038)  charge=  1.5069  magn= -0.0251
     atom  62 (R=0.038)  charge=  1.5106  magn=  0.0319
     atom  63 (R=0.038)  charge=  1.5069  magn= -0.0251
     atom  64 (R=0.038)  charge=  1.5080  magn=  0.0290
     atom  65 (R=0.038)  charge=  1.5042  magn= -0.0129
     atom  66 (R=0.038)  charge=  1.5051  magn=  0.0284
     atom  67 (R=0.038)  charge=  1.5084  magn= -0.0238
     atom  68 (R=0.038)  charge=  1.5040  magn=  0.0316
     atom  69 (R=0.038)  charge=  1.5084  magn= -0.0238
     atom  70 (R=0.038)  charge=  1.5051  magn=  0.0284
     atom  71 (R=0.038)  charge=  1.5042  magn= -0.0129

     total cpu time spent up to now is      598.4 secs

     End of self-consistent calculation

 ------ SPIN UP ------------


          k = 0.0000 0.0000 0.0000 (171510 PWs)   bands (ev):

   -23.8031 -23.2523 -23.2123 -23.1891 -23.1511 -23.0763 -22.8689 -21.9254
   -21.9083 -21.8900 -21.8683 -21.7731 -21.6550 -21.3141 -21.2541 -21.2475
   -21.1923 -21.1044 -20.7348 -19.4595 -19.4587 -19.4483 -19.4152 -19.4145
   -19.3909 -19.3821 -19.3637 -19.3099 -19.3067 -19.1928 -18.8466 -18.5834
   -18.5056 -18.0250 -17.5162 -17.4330 -17.3652 -16.9663 -16.8689 -16.7741
   -16.4651 -15.7627 -15.7581 -15.7554 -15.7382 -15.7283 -15.7248 -15.7086
   -15.6748 -15.6507 -15.4288 -15.3991 -14.8069 -14.7171 -14.4947 -13.9776
   -13.9772 -13.9007 -13.7497 -13.7441 -13.0696 -12.4416 -12.4334 -12.3925
   -12.3801 -12.3785 -12.3710 -12.3187 -12.3059 -12.3007 -12.2799 -12.1682
   -12.1213 -12.1123 -12.0414 -12.0039 -11.8920 -11.6256 -11.6074 -11.1976
   -11.1793 -11.1614 -11.1283 -11.0636 -10.9302 -10.8203 -10.8018 -10.7569
   -10.6993 -10.6800 -10.6640 -10.6544 -10.4498 -10.4343 -10.3221 -10.1418
   -10.0888 -10.0428 -10.0214  -9.7899  -9.7761  -9.6924  -9.6659  -9.6478
    -9.6462  -9.6269  -9.6236  -9.6149  -9.5412  -9.4154  -8.9915  -8.9587
    -8.9441  -8.9348  -8.9154  -8.8695  -8.8333  -8.5707  -8.5348  -8.4907
    -8.4702  -8.4138  -8.3921  -7.6199  -7.5123  -7.0409  -7.0133  -7.0017
    -6.9820  -6.9809  -6.9588  -6.9475  -6.9293  -6.8914  -6.8864  -6.8272
    -6.7611  -6.6245  -6.5827  -5.5292  -5.0505  -4.4087  -4.3815  -4.1176
    -3.7531  -2.6454  -2.5983  -2.5485  -2.5075  -1.9082  -1.9008  -1.8334
    -1.8149  -1.8045  -1.7671  -1.7532  -1.7227  -1.7012  -1.6154  -1.4954
    -0.9798  -0.4049  -0.1327  -0.1266  -0.1234  -0.1151  -0.0854  -0.0739
     0.0312   0.5169   0.5931   0.6119

 ------ SPIN DOWN ----------


          k = 0.0000 0.0000 0.0000 (171510 PWs)   bands (ev):

   -23.7778 -23.2137 -23.1918 -23.1665 -23.1316 -23.0544 -22.8076 -21.8881
   -21.8692 -21.8642 -21.8452 -21.7593 -21.6172 -21.2682 -21.2298 -21.2267
   -21.1570 -21.0895 -20.6538 -19.4344 -19.4319 -19.4271 -19.4010 -19.3864
   -19.3628 -19.3563 -19.3393 -19.2898 -19.2173 -19.1759 -18.8179 -18.5582
   -18.4532 -17.9167 -17.4817 -17.4053 -17.3500 -16.9554 -16.7499 -16.7475
   -16.4277 -15.7435 -15.7385 -15.7297 -15.7089 -15.7070 -15.7026 -15.6787
   -15.6510 -15.6345 -15.3758 -15.3235 -14.7848 -14.6937 -14.4087 -13.9470
   -13.9445 -13.8869 -13.7279 -13.6833 -12.9731 -12.4194 -12.4193 -12.3827
   -12.3643 -12.3576 -12.3433 -12.2920 -12.2827 -12.2807 -12.2505 -12.1504
   -12.0955 -12.0770 -12.0238 -11.9770 -11.8503 -11.6082 -11.5264 -11.1516
   -11.1392 -11.1178 -11.0912 -11.0235 -10.8791 -10.7660 -10.7532 -10.7431
   -10.6868 -10.6652 -10.6413 -10.6401 -10.4351 -10.4072 -10.2166 -10.1039
   -10.0639 -10.0141 -10.0055  -9.7654  -9.7420  -9.6700  -9.6096  -9.6072
    -9.6038  -9.6007  -9.5950  -9.5832  -9.5124  -9.3496  -8.9312  -8.9196
    -8.8928  -8.8914  -8.8911  -8.8200  -8.8125  -8.5173  -8.5162  -8.4696
    -8.3713  -8.3699  -8.1855  -7.5383  -7.4917  -6.9828  -6.9676  -6.9600
    -6.9571  -6.9215  -6.9173  -6.8937  -6.8902  -6.8511  -6.8029  -6.7916
    -6.7093  -6.5819  -6.5104  -5.3386  -4.4001  -4.0809  -4.0771  -3.7102
    -2.8778  -2.5766  -2.5058  -2.4637  -2.3914  -1.8552  -1.8520  -1.8009
    -1.7689  -1.7459  -1.7230  -1.7215  -1.6821  -1.6534  -1.4247  -1.4190
    -0.9701  -0.3057  -0.1261  -0.1182  -0.1164  -0.1089  -0.0758  -0.0670
     0.0584   0.5701   0.6191   0.6795

     the Fermi energy is    -4.2736 ev

!    total energy              =    -854.76173926 Ry
     estimated scf accuracy    <          3.0E-11 Ry
     smearing contrib. (-TS)   =       0.00181991 Ry
     internal energy E=F+TS    =    -854.76355916 Ry

     The total energy is F=E-TS. E is the sum of the following terms:
     one-electron contribution =   -9609.43724039 Ry
     hartree contribution      =    4831.19743492 Ry
     xc contribution           =    -303.88149809 Ry
     ewald contribution        =    4227.35774440 Ry

     total magnetization       =     1.97 Bohr mag/cell
     absolute magnetization    =     5.24 Bohr mag/cell

     convergence has been achieved in  14 iterations

     Forces acting on atoms (cartesian axes, Ry/au):

     atom    1 type  1   force =    -0.00088544   -0.00050149   -0.00000000
     atom    2 type  1   force =     0.00024364   -0.00042398    0.00000001
     atom    3 type  1   force =     0.00087813    0.00051909   -0.00000000
     atom    4 type  1   force =     0.00024544   -0.00018699    0.00000002
     atom    5 type  1   force =    -0.00020172    0.00003020   -0.00000002
     atom    6 type  1   force =    -0.00068407    0.00086739    0.00000001
     atom    7 type  1   force =    -0.00028361   -0.00072555    0.00000000
     atom    8 type  1   force =     0.00009241   -0.00016134    0.00000001
     atom    9 type  1   force =     0.00077001   -0.00011597   -0.00000001
     atom   10 type  1   force =    -0.00040670    0.00102696    0.00000002
     atom   11 type  1   force =     0.00007350    0.00018625   -0.00000000
     atom   12 type  1   force =     0.00004222   -0.00030393   -0.00000001
     atom   13 type  1   force =    -0.00006871    0.00011971   -0.00000000
     atom   14 type  1   force =     0.00072084    0.00015363   -0.00000001
     atom   15 type  1   force =     0.00120499    0.00005843    0.00000001
     atom   16 type  1   force =     0.00078869   -0.00045021   -0.00000001
     atom   17 type  1   force =    -0.00026314   -0.00012687    0.00000000
     atom   18 type  1   force =     0.00051924   -0.00058362    0.00000001
     atom   19 type  1   force =     0.00023491   -0.00040384   -0.00000001
     atom   20 type  1   force =     0.00024713   -0.00074010    0.00000001
     atom   21 type  1   force =     0.00024134    0.00016715   -0.00000001
     atom   22 type  1   force =    -0.00000365   -0.00090728    0.00000001
     atom   23 type  1   force =    -0.00065396   -0.00101094    0.00000000
     atom   24 type  1   force =    -0.00049214   -0.00054602    0.00000000
     atom   25 type  1   force =     0.00080409    0.00037968    0.00000000
     atom   26 type  1   force =    -0.00012538   -0.00068276    0.00000000
     atom   27 type  1   force =    -0.00001182    0.00049489    0.00000001
     atom   28 type  1   force =     0.00135838    0.00075272   -0.00000000
     atom   29 type  2   force =    -0.00121531   -0.00062408   -0.00000000
     atom   30 type  2   force =     0.00114819    0.00074243    0.00000001
     atom   31 type  1   force =    -0.00133069   -0.00079752    0.00000000
     atom   32 type  1   force =    -0.00042352    0.00025987   -0.00000002
     atom   33 type  1   force =     0.00065342   -0.00022978    0.00000001
     atom   34 type  1   force =    -0.00072993   -0.00050590    0.00000000
     atom   35 type  1   force =    -0.00020677    0.00035813   -0.00000001
     atom   36 type  1   force =     0.00064172    0.00090100   -0.00000000
     atom   37 type  1   force =     0.00056974   -0.00046456   -0.00000000
     atom   38 type  1   force =     0.00032507    0.00062692   -0.00000001
     atom   39 type  1   force =     0.00025516    0.00027998    0.00000000
     atom   40 type  2   force =     0.00017169   -0.00028860   -0.00000001
     atom   41 type  1   force =    -0.00037998   -0.00008233   -0.00000002
     atom   42 type  1   force =    -0.00070521    0.00003265    0.00000001
     atom   43 type  1   force =     0.00011456   -0.00072462   -0.00000000
     atom   44 type  1   force =    -0.00110154   -0.00010669    0.00000000
     atom   45 type  1   force =    -0.00073814   -0.00032214   -0.00000001
     atom   46 type  1   force =    -0.00077692    0.00134223    0.00000001
     atom   47 type  1   force =     0.00064858    0.00047556   -0.00000001
     atom   48 type  1   force =    -0.00021006    0.00038278   -0.00000001
     atom   49 type  1   force =    -0.00076985   -0.00046275   -0.00000000
     atom   50 type  1   force =    -0.00056248   -0.00019898    0.00000000
     atom   51 type  1   force =    -0.00018826    0.00032145   -0.00000000
     atom   52 type  1   force =     0.00045437    0.00038890    0.00000000
     atom   53 type  1   force =     0.00078343    0.00043534   -0.00000000
     atom   54 type  1   force =    -0.00022734    0.00037222    0.00000001
     atom   55 type  1   force =    -0.00091187    0.00016306    0.00000001
     atom   56 type  1   force =    -0.00026823    0.00067416    0.00000000
     atom   57 type  1   force =     0.00013341   -0.00022998   -0.00000000
     atom   58 type  1   force =    -0.00045304    0.00056769   -0.00000000
     atom   59 type  1   force =     0.00031343    0.00087168   -0.00000001
     atom   60 type  1   force =     0.00025972   -0.00094353   -0.00000001
     atom   61 type  1   force =    -0.00099994    0.00065286    0.00000001
     atom   62 type  1   force =    -0.00005396    0.00009651   -0.00000001
     atom   63 type  1   force =    -0.00006584    0.00119086    0.00000000
     atom   64 type  1   force =     0.00068700   -0.00069651   -0.00000001
     atom   65 type  1   force =    -0.00052469   -0.00007958    0.00000001
     atom   66 type  1   force =     0.00088869   -0.00027702    0.00000001
     atom   67 type  1   force =    -0.00069314   -0.00095943   -0.00000001
     atom   68 type  1   force =    -0.00020083    0.00034485    0.00000001
     atom   69 type  1   force =     0.00117772    0.00012198    0.00000000
     atom   70 type  1   force =    -0.00020318   -0.00091272   -0.00000000
     atom   71 type  1   force =     0.00033022    0.00041841    0.00000000

     Total force =     0.007047     Total SCF correction =     0.000006
     Energy error            =      1.2E-04 Ry
     Gradient error          =      1.4E-03 Ry/Bohr

     number of scf cycles    =  12
     number of bfgs steps    =  11

     energy             old  =    -854.7616210408 Ry
     energy             new  =    -854.7617392557 Ry

     CASE: energy            _new < energy            _old

     new trust radius        =       0.0025881583 bohr
     new conv_thr            =            1.2E-11 Ry


ATOMIC_POSITIONS (crystal)
C                0.0573195011        0.0545071743        0.0000000030
C                0.1128646089        0.1102340689        0.0000000004
C                0.0573193563        0.2215062180       -0.0000000007
C                0.1127127416        0.2779786544       -0.0000000010
C                0.0560248633        0.3892097545        0.0000000015
C                0.1104716913        0.4455104537        0.0000000018
C                0.0523647692        0.5569062421        0.0000000012
C                0.1071074668        0.6131128301        0.0000000004
C                0.0523648744        0.7240621616       -0.0000000016
C                0.1104720513        0.7773506966       -0.0000000012
C                0.0560250759        0.8880982489        0.0000000015
C                0.1127130633        0.9426412906        0.0000000029
C                0.2237781024        0.0547772740       -0.0000000009
C                0.2788289199        0.1114303088       -0.0000000017
C                0.2231136055        0.2233704358       -0.0000000010
C                0.2781274570        0.2804912706        0.0000000005
C                0.2212911797        0.3909411754        0.0000000009
C                0.2756700715        0.4487448957        0.0000000015
C                0.2153858334        0.5589735424        0.0000000019
C                0.2756706050        0.6089174216       -0.0000000004
C                0.2212916592        0.7211001220       -0.0000000001
C                0.2781280087        0.7747137526        0.0000000007
C                0.2231140010        0.8868484436        0.0000000018
C                0.2788292109        0.9430733750       -0.0000000000
C                0.3889678727        0.0573411227       -0.0000000015
C                0.4442017442        0.1156287678       -0.0000000015
C                0.3889378137        0.2292330866       -0.0000000008
C                0.4439474570        0.2894308682       -0.0000000006
C1               0.3835336102        0.4050657431        0.0000000015
C1               0.3835342192        0.5447330066       -0.0000000009
C                0.4439480631        0.5999544311        0.0000000005
C                0.3889384253        0.7151617695        0.0000000013
C                0.4442022017        0.7735024535        0.0000000000
C                0.3889681634        0.8870238899       -0.0000000016
C                0.4440689590        0.9446321393       -0.0000000005
C                0.5542284310        0.0583076396       -0.0000000006
C                0.6095339635        0.1146181981       -0.0000000007
C                0.5552534894        0.2253428003       -0.0000000025
C                0.6157955024        0.2762451107       -0.0000000028
C1               0.5680552435        0.3826395808       -0.0000000050
C                0.6157960053        0.4412929443        0.0000000002
C                0.5552540222        0.5527372527        0.0000000001
C                0.6095343912        0.6091815017        0.0000000001
C                0.5542289270        0.7207974385       -0.0000000011
C                0.6098301631        0.7775554681       -0.0000000015
C                0.5546195679        0.8893571050       -0.0000000017
C                0.6098299559        0.9459484190       -0.0000000006
C                0.7217863252        0.0570002050        0.0000000002
C                0.7800988855        0.1096824095        0.0000000012
C                0.7262125024        0.2205310471       -0.0000000001
C                0.7813219364        0.2760058011        0.0000000026
C                0.7262128848        0.3865901671        0.0000000021
C                0.7800991658        0.4435523736        0.0000000009
C                0.7217866751        0.5545472169       -0.0000000007
C                0.7764818666        0.6107644714       -0.0000000012
C                0.7202968237        0.7227377722       -0.0000000008
C                0.7757097915        0.7788121812       -0.0000000020
C                0.7202966302        0.8902995125       -0.0000000010
C                0.7764816694        0.9460877519       -0.0000000002
C                0.8903720159        0.0545567028        0.0000000025
C                0.9469670065        0.1097963065        0.0000000025
C                0.8921154528        0.2206089260        0.0000000027
C                0.9469669687        0.2765698817        0.0000000015
C                0.8903721298        0.3884046450        0.0000000003
C                0.9447738110        0.4446622285        0.0000000004
C                0.8872824491        0.5556782474        0.0000000001
C                0.9424679827        0.6120321403        0.0000000009
C                0.8867314535        0.7233011380       -0.0000000021
C                0.9424680074        0.7788335103       -0.0000000021
C                0.8872824097        0.8903729521       -0.0000000005
C                0.9447738024        0.9438974188        0.0000000016



     Writing config-only to output data dir /home/gregb26/links/scratch/qe_tmp/vacancy_relaxed/series/6x6/nspin2/vac_6x6_relax_nspin2.save/ :
     XML data file
     NEW-OLD atomic charge density approx. for the potential

     negative rho (up, down):  1.743E-07 1.789E-07
     Generating pointlists ...

     total cpu time spent up to now is      599.5 secs

     per-process dynamical memory:   234.7 Mb

     Self-consistent Calculation

     iteration #  1     ecut=   100.00 Ry     beta= 0.30
     Davidson diagonalization with overlap
     ethr =  1.00E-06,  avg # of iterations =  3.0

     Threshold (ethr) on eigenvalues was too large:
     Diagonalizing with lowered threshold

     Davidson diagonalization with overlap
     ethr =  2.83E-09,  avg # of iterations =  6.0

     negative rho (up, down):  1.398E-07 1.342E-07

     total cpu time spent up to now is      605.8 secs

     total energy              =    -854.76176539 Ry
     estimated scf accuracy    <       0.00001953 Ry

     total magnetization       =     1.97 Bohr mag/cell
     absolute magnetization    =     5.24 Bohr mag/cell

     iteration #  2     ecut=   100.00 Ry     beta= 0.30
     Davidson diagonalization with overlap
     ethr =  6.88E-09,  avg # of iterations =  2.0

     negative rho (up, down):  8.872E-08 8.533E-08

     total cpu time spent up to now is      607.7 secs

     total energy              =    -854.76176610 Ry
     estimated scf accuracy    <       0.00000552 Ry

     total magnetization       =     1.97 Bohr mag/cell
     absolute magnetization    =     5.24 Bohr mag/cell

     iteration #  3     ecut=   100.00 Ry     beta= 0.30
     Davidson diagonalization with overlap
     ethr =  1.94E-09,  avg # of iterations =  1.5

     negative rho (up, down):  4.064E-08 3.924E-08

     total cpu time spent up to now is      609.5 secs

     total energy              =    -854.76176628 Ry
     estimated scf accuracy    <       0.00000215 Ry

     total magnetization       =     1.97 Bohr mag/cell
     absolute magnetization    =     5.24 Bohr mag/cell

     iteration #  4     ecut=   100.00 Ry     beta= 0.30
     Davidson diagonalization with overlap
     ethr =  7.56E-10,  avg # of iterations =  2.0

     negative rho (up, down):  1.442E-08 1.403E-08

     total cpu time spent up to now is      611.6 secs

     total energy              =    -854.76176653 Ry
     estimated scf accuracy    <       0.00000037 Ry

     total magnetization       =     1.97 Bohr mag/cell
     absolute magnetization    =     5.24 Bohr mag/cell

     iteration #  5     ecut=   100.00 Ry     beta= 0.30
     Davidson diagonalization with overlap
     ethr =  1.29E-10,  avg # of iterations =  2.0

     total cpu time spent up to now is      613.7 secs

     total energy              =    -854.76176660 Ry
     estimated scf accuracy    <       0.00000006 Ry

     total magnetization       =     1.97 Bohr mag/cell
     absolute magnetization    =     5.25 Bohr mag/cell

     iteration #  6     ecut=   100.00 Ry     beta= 0.30
     Davidson diagonalization with overlap
     ethr =  2.20E-11,  avg # of iterations =  4.0

     total cpu time spent up to now is      616.2 secs

     total energy              =    -854.76176662 Ry
     estimated scf accuracy    <       0.00000001 Ry

     total magnetization       =     1.97 Bohr mag/cell
     absolute magnetization    =     5.25 Bohr mag/cell

     iteration #  7     ecut=   100.00 Ry     beta= 0.30
     Davidson diagonalization with overlap
     ethr =  4.49E-12,  avg # of iterations =  4.0

     total cpu time spent up to now is      618.5 secs

     total energy              =    -854.76176663 Ry
     estimated scf accuracy    <          5.9E-09 Ry

     total magnetization       =     1.97 Bohr mag/cell
     absolute magnetization    =     5.25 Bohr mag/cell

     iteration #  8     ecut=   100.00 Ry     beta= 0.30
     Davidson diagonalization with overlap
     ethr =  2.08E-12,  avg # of iterations =  4.0

     total cpu time spent up to now is      621.1 secs

     total energy              =    -854.76176664 Ry
     estimated scf accuracy    <          1.9E-09 Ry

     total magnetization       =     1.97 Bohr mag/cell
     absolute magnetization    =     5.25 Bohr mag/cell

     iteration #  9     ecut=   100.00 Ry     beta= 0.30
     Davidson diagonalization with overlap
     ethr =  6.68E-13,  avg # of iterations =  4.0

     total cpu time spent up to now is      623.9 secs

     total energy              =    -854.76176665 Ry
     estimated scf accuracy    <          1.1E-09 Ry

     total magnetization       =     1.97 Bohr mag/cell
     absolute magnetization    =     5.25 Bohr mag/cell

     iteration # 10     ecut=   100.00 Ry     beta= 0.30
     Davidson diagonalization with overlap
     ethr =  3.99E-13,  avg # of iterations =  4.5

     total cpu time spent up to now is      626.8 secs

     total energy              =    -854.76176665 Ry
     estimated scf accuracy    <          6.4E-10 Ry

     total magnetization       =     1.97 Bohr mag/cell
     absolute magnetization    =     5.25 Bohr mag/cell

     iteration # 11     ecut=   100.00 Ry     beta= 0.30
     Davidson diagonalization with overlap
     ethr =  2.24E-13,  avg # of iterations =  5.0

     total cpu time spent up to now is      630.1 secs

     total energy              =    -854.76176665 Ry
     estimated scf accuracy    <          3.0E-10 Ry

     total magnetization       =     1.97 Bohr mag/cell
     absolute magnetization    =     5.25 Bohr mag/cell

     iteration # 12     ecut=   100.00 Ry     beta= 0.30
     Davidson diagonalization with overlap
     ethr =  1.07E-13,  avg # of iterations =  5.0

     total cpu time spent up to now is      633.7 secs

     total energy              =    -854.76176665 Ry
     estimated scf accuracy    <          1.1E-10 Ry

     total magnetization       =     1.97 Bohr mag/cell
     absolute magnetization    =     5.25 Bohr mag/cell

     iteration # 13     ecut=   100.00 Ry     beta= 0.30
     Davidson diagonalization with overlap
     ethr =  1.00E-13,  avg # of iterations =  5.5

     total cpu time spent up to now is      636.8 secs

     total energy              =    -854.76176665 Ry
     estimated scf accuracy    <          3.1E-11 Ry

     total magnetization       =     1.97 Bohr mag/cell
     absolute magnetization    =     5.25 Bohr mag/cell

     iteration # 14     ecut=   100.00 Ry     beta= 0.30
     Davidson diagonalization with overlap
     ethr =  1.00E-13,  avg # of iterations =  3.0

     Magnetic moment per site  (integrated on atomic sphere of radius R)
     atom   1 (R=0.038)  charge=  1.5041  magn=  0.0284
     atom   2 (R=0.038)  charge=  1.5020  magn= -0.0130
     atom   3 (R=0.038)  charge=  1.5041  magn=  0.0284
     atom   4 (R=0.038)  charge=  1.5035  magn= -0.0241
     atom   5 (R=0.038)  charge=  1.5042  magn=  0.0318
     atom   6 (R=0.038)  charge=  1.5058  magn= -0.0235
     atom   7 (R=0.038)  charge=  1.5118  magn=  0.0275
     atom   8 (R=0.038)  charge=  1.5222  magn= -0.0119
     atom   9 (R=0.038)  charge=  1.5118  magn=  0.0275
     atom  10 (R=0.038)  charge=  1.5058  magn= -0.0235
     atom  11 (R=0.038)  charge=  1.5042  magn=  0.0318
     atom  12 (R=0.038)  charge=  1.5035  magn= -0.0241
     atom  13 (R=0.038)  charge=  1.4992  magn=  0.0324
     atom  14 (R=0.038)  charge=  1.5014  magn= -0.0241
     atom  15 (R=0.038)  charge=  1.4984  magn=  0.0287
     atom  16 (R=0.038)  charge=  1.5025  magn= -0.0120
     atom  17 (R=0.038)  charge=  1.5027  magn=  0.0296
     atom  18 (R=0.038)  charge=  1.5182  magn= -0.0161
     atom  19 (R=0.038)  charge=  1.5344  magn=  0.0282
     atom  20 (R=0.038)  charge=  1.5182  magn= -0.0161
     atom  21 (R=0.038)  charge=  1.5027  magn=  0.0296
     atom  22 (R=0.038)  charge=  1.5025  magn= -0.0120
     atom  23 (R=0.038)  charge=  1.4984  magn=  0.0287
     atom  24 (R=0.038)  charge=  1.5014  magn= -0.0241
     atom  25 (R=0.038)  charge=  1.4881  magn=  0.0292
     atom  26 (R=0.038)  charge=  1.4831  magn= -0.0263
     atom  27 (R=0.038)  charge=  1.4699  magn=  0.0315
     atom  28 (R=0.038)  charge=  1.4462  magn= -0.0274
     atom  29 (R=0.038)  charge=  1.3835  magn=  0.0487
     atom  30 (R=0.038)  charge=  1.3835  magn=  0.0487
     atom  31 (R=0.038)  charge=  1.4462  magn= -0.0274
     atom  32 (R=0.038)  charge=  1.4699  magn=  0.0315
     atom  33 (R=0.038)  charge=  1.4831  magn= -0.0263
     atom  34 (R=0.038)  charge=  1.4881  magn=  0.0292
     atom  35 (R=0.038)  charge=  1.4872  magn= -0.0142
     atom  36 (R=0.038)  charge=  1.5016  magn=  0.0264
     atom  37 (R=0.038)  charge=  1.4954  magn= -0.0147
     atom  38 (R=0.038)  charge=  1.5006  magn=  0.0408
     atom  39 (R=0.038)  charge=  1.5283  magn= -0.0233
     atom  40 (R=0.038)  charge=  1.4810  magn=  0.3377
     atom  41 (R=0.038)  charge=  1.5283  magn= -0.0233
     atom  42 (R=0.038)  charge=  1.5006  magn=  0.0408
     atom  43 (R=0.038)  charge=  1.4954  magn= -0.0147
     atom  44 (R=0.038)  charge=  1.5016  magn=  0.0264
     atom  45 (R=0.038)  charge=  1.4970  magn= -0.0250
     atom  46 (R=0.038)  charge=  1.4991  magn=  0.0290
     atom  47 (R=0.038)  charge=  1.4970  magn= -0.0250
     atom  48 (R=0.038)  charge=  1.4999  magn=  0.0334
     atom  49 (R=0.038)  charge=  1.5108  magn= -0.0220
     atom  50 (R=0.038)  charge=  1.5138  magn=  0.0477
     atom  51 (R=0.038)  charge=  1.5125  magn= -0.0177
     atom  52 (R=0.038)  charge=  1.5138  magn=  0.0477
     atom  53 (R=0.038)  charge=  1.5108  magn= -0.0220
     atom  54 (R=0.038)  charge=  1.4999  magn=  0.0334
     atom  55 (R=0.038)  charge=  1.5023  magn= -0.0253
     atom  56 (R=0.038)  charge=  1.5010  magn=  0.0269
     atom  57 (R=0.038)  charge=  1.4996  magn= -0.0131
     atom  58 (R=0.038)  charge=  1.5010  magn=  0.0269
     atom  59 (R=0.038)  charge=  1.5023  magn= -0.0253
     atom  60 (R=0.038)  charge=  1.5082  magn=  0.0290
     atom  61 (R=0.038)  charge=  1.5069  magn= -0.0252
     atom  62 (R=0.038)  charge=  1.5105  magn=  0.0320
     atom  63 (R=0.038)  charge=  1.5069  magn= -0.0252
     atom  64 (R=0.038)  charge=  1.5082  magn=  0.0290
     atom  65 (R=0.038)  charge=  1.5042  magn= -0.0129
     atom  66 (R=0.038)  charge=  1.5050  magn=  0.0285
     atom  67 (R=0.038)  charge=  1.5082  magn= -0.0239
     atom  68 (R=0.038)  charge=  1.5034  magn=  0.0317
     atom  69 (R=0.038)  charge=  1.5082  magn= -0.0239
     atom  70 (R=0.038)  charge=  1.5050  magn=  0.0285
     atom  71 (R=0.038)  charge=  1.5042  magn= -0.0129

     total cpu time spent up to now is      639.1 secs

     End of self-consistent calculation

 ------ SPIN UP ------------


          k = 0.0000 0.0000 0.0000 (171510 PWs)   bands (ev):

   -23.8025 -23.2529 -23.2128 -23.1859 -23.1505 -23.0781 -22.8697 -21.9254
   -21.9074 -21.8910 -21.8699 -21.7731 -21.6528 -21.3138 -21.2532 -21.2472
   -21.1924 -21.1065 -20.7365 -19.4583 -19.4579 -19.4482 -19.4158 -19.4154
   -19.3925 -19.3812 -19.3649 -19.3092 -19.3052 -19.1947 -18.8451 -18.5850
   -18.5053 -18.0265 -17.5165 -17.4328 -17.3661 -16.9655 -16.8687 -16.7748
   -16.4633 -15.7642 -15.7572 -15.7549 -15.7380 -15.7303 -15.7257 -15.7089
   -15.6745 -15.6502 -15.4280 -15.3991 -14.8065 -14.7170 -14.4938 -13.9785
   -13.9762 -13.9034 -13.7505 -13.7432 -13.0698 -12.4417 -12.4338 -12.3905
   -12.3800 -12.3777 -12.3705 -12.3209 -12.3051 -12.2995 -12.2783 -12.1680
   -12.1214 -12.1119 -12.0432 -12.0058 -11.8916 -11.6258 -11.6078 -11.1974
   -11.1796 -11.1596 -11.1278 -11.0652 -10.9294 -10.8210 -10.8026 -10.7570
   -10.7000 -10.6813 -10.6650 -10.6548 -10.4481 -10.4317 -10.3210 -10.1413
   -10.0906 -10.0433 -10.0204  -9.7910  -9.7759  -9.6925  -9.6660  -9.6472
    -9.6470  -9.6275  -9.6248  -9.6160  -9.5413  -9.4137  -8.9915  -8.9569
    -8.9439  -8.9342  -8.9151  -8.8693  -8.8350  -8.5694  -8.5361  -8.4904
    -8.4716  -8.4105  -8.3931  -7.6191  -7.5129  -7.0403  -7.0133  -7.0007
    -6.9825  -6.9810  -6.9603  -6.9473  -6.9304  -6.8899  -6.8863  -6.8274
    -6.7599  -6.6265  -6.5824  -5.5296  -5.0510  -4.4084  -4.3816  -4.1181
    -3.7520  -2.6457  -2.5972  -2.5481  -2.5079  -1.9092  -1.9023  -1.8335
    -1.8124  -1.8040  -1.7682  -1.7534  -1.7215  -1.7014  -1.6148  -1.4949
    -0.9797  -0.4029  -0.1320  -0.1265  -0.1234  -0.1149  -0.0857  -0.0741
     0.0310   0.5166   0.5943   0.6105

 ------ SPIN DOWN ----------


          k = 0.0000 0.0000 0.0000 (171510 PWs)   bands (ev):

   -23.7771 -23.2133 -23.1922 -23.1642 -23.1309 -23.0562 -22.8083 -21.8880
   -21.8701 -21.8632 -21.8469 -21.7594 -21.6150 -21.2679 -21.2290 -21.2263
   -21.1574 -21.0917 -20.6555 -19.4341 -19.4307 -19.4269 -19.4020 -19.3863
   -19.3644 -19.3549 -19.3402 -19.2896 -19.2160 -19.1779 -18.8164 -18.5598
   -18.4534 -17.9179 -17.4821 -17.4051 -17.3509 -16.9549 -16.7503 -16.7467
   -16.4262 -15.7444 -15.7378 -15.7305 -15.7096 -15.7076 -15.7036 -15.6788
   -15.6507 -15.6340 -15.3759 -15.3225 -14.7841 -14.6936 -14.4080 -13.9461
   -13.9453 -13.8897 -13.7288 -13.6824 -12.9735 -12.4198 -12.4195 -12.3806
   -12.3611 -12.3575 -12.3444 -12.2910 -12.2852 -12.2797 -12.2492 -12.1502
   -12.0956 -12.0768 -12.0255 -11.9790 -11.8498 -11.6084 -11.5268 -11.1504
   -11.1395 -11.1168 -11.0907 -11.0250 -10.8785 -10.7673 -10.7539 -10.7431
   -10.6874 -10.6665 -10.6418 -10.6405 -10.4334 -10.4044 -10.2163 -10.1033
   -10.0661 -10.0142 -10.0045  -9.7663  -9.7418  -9.6706  -9.6100  -9.6069
    -9.6044  -9.6018  -9.5944  -9.5841  -9.5129  -9.3477  -8.9295  -8.9197
    -8.8925  -8.8912  -8.8903  -8.8202  -8.8141  -8.5176  -8.5171  -8.4692
    -8.3722  -8.3713  -8.1808  -7.5374  -7.4923  -6.9825  -6.9677  -6.9588
    -6.9565  -6.9213  -6.9195  -6.8932  -6.8912  -6.8514  -6.8014  -6.7916
    -6.7077  -6.5839  -6.5108  -5.3388  -4.3999  -4.0801  -4.0774  -3.7093
    -2.8770  -2.5770  -2.5054  -2.4640  -2.3903  -1.8566  -1.8527  -1.8010
    -1.7668  -1.7453  -1.7228  -1.7224  -1.6813  -1.6534  -1.4241  -1.4181
    -0.9699  -0.3039  -0.1254  -0.1180  -0.1164  -0.1087  -0.0761  -0.0673
     0.0582   0.5690   0.6203   0.6788

     the Fermi energy is    -4.2735 ev

!    total energy              =    -854.76176665 Ry
     estimated scf accuracy    <          1.1E-11 Ry
     smearing contrib. (-TS)   =       0.00181430 Ry
     internal energy E=F+TS    =    -854.76358095 Ry

     The total energy is F=E-TS. E is the sum of the following terms:
     one-electron contribution =   -9609.42816031 Ry
     hartree contribution      =    4831.19351148 Ry
     xc contribution           =    -303.88282915 Ry
     ewald contribution        =    4227.35389702 Ry

     total magnetization       =     1.97 Bohr mag/cell
     absolute magnetization    =     5.25 Bohr mag/cell

     convergence has been achieved in  14 iterations

     Forces acting on atoms (cartesian axes, Ry/au):

     atom    1 type  1   force =     0.00011513    0.00006024   -0.00000001
     atom    2 type  1   force =    -0.00014017    0.00024485    0.00000000
     atom    3 type  1   force =    -0.00010799   -0.00007087    0.00000001
     atom    4 type  1   force =     0.00013392   -0.00036960    0.00000001
     atom    5 type  1   force =    -0.00051634    0.00051290   -0.00000001
     atom    6 type  1   force =    -0.00015554   -0.00005636    0.00000000
     atom    7 type  1   force =    -0.00049713   -0.00012902    0.00000000
     atom    8 type  1   force =     0.00002445   -0.00004082    0.00000001
     atom    9 type  1   force =     0.00036021    0.00036644   -0.00000001
     atom   10 type  1   force =     0.00012571    0.00010609    0.00000000
     atom   11 type  1   force =    -0.00018400    0.00070621    0.00000000
     atom   12 type  1   force =     0.00025250   -0.00030006    0.00000000
     atom   13 type  1   force =    -0.00007466    0.00013113    0.00000001
     atom   14 type  1   force =     0.00040044    0.00051211   -0.00000000
     atom   15 type  1   force =    -0.00022420   -0.00019772   -0.00000000
     atom   16 type  1   force =     0.00031473    0.00047693   -0.00000000
     atom   17 type  1   force =    -0.00014284    0.00006776   -0.00000000
     atom   18 type  1   force =     0.00006886   -0.00008281    0.00000000
     atom   19 type  1   force =     0.00030308   -0.00052517   -0.00000001
     atom   20 type  1   force =     0.00003812   -0.00009823    0.00000000
     atom   21 type  1   force =     0.00001497    0.00015876   -0.00000000
     atom   22 type  1   force =    -0.00057095   -0.00003276    0.00000000
     atom   23 type  1   force =     0.00028488    0.00009662   -0.00000000
     atom   24 type  1   force =    -0.00064376   -0.00008940    0.00000000
     atom   25 type  1   force =     0.00020667   -0.00005067   -0.00000001
     atom   26 type  1   force =    -0.00027282    0.00015508    0.00000000
     atom   27 type  1   force =     0.00010600   -0.00014121   -0.00000000
     atom   28 type  1   force =     0.00030235    0.00036525    0.00000000
     atom   29 type  2   force =    -0.00016434   -0.00070222   -0.00000001
     atom   30 type  2   force =     0.00069130   -0.00020832    0.00000002
     atom   31 type  1   force =    -0.00046706   -0.00007795   -0.00000001
     atom   32 type  1   force =     0.00006946   -0.00016026   -0.00000001
     atom   33 type  1   force =     0.00000199    0.00031350   -0.00000001
     atom   34 type  1   force =    -0.00005910   -0.00020284    0.00000002
     atom   35 type  1   force =    -0.00032812    0.00056851   -0.00000001
     atom   36 type  1   force =     0.00068977   -0.00034922   -0.00000001
     atom   37 type  1   force =     0.00002755    0.00016682    0.00000000
     atom   38 type  1   force =     0.00064493    0.00009515   -0.00000001
     atom   39 type  1   force =    -0.00003373    0.00094922   -0.00000001
     atom   40 type  2   force =    -0.00007352    0.00011218    0.00000001
     atom   41 type  1   force =    -0.00079783    0.00050599   -0.00000001
     atom   42 type  1   force =    -0.00040745   -0.00051092   -0.00000001
     atom   43 type  1   force =    -0.00015970    0.00005821   -0.00000000
     atom   44 type  1   force =    -0.00004407   -0.00076910    0.00000002
     atom   45 type  1   force =    -0.00052115    0.00027970   -0.00000000
     atom   46 type  1   force =    -0.00002865    0.00004979    0.00000001
     atom   47 type  1   force =     0.00001564    0.00059033    0.00000000
     atom   48 type  1   force =     0.00010095    0.00014496    0.00000000
     atom   49 type  1   force =    -0.00011108   -0.00087760    0.00000000
     atom   50 type  1   force =     0.00010546   -0.00073122    0.00000001
     atom   51 type  1   force =     0.00016018   -0.00027163   -0.00000001
     atom   52 type  1   force =     0.00057554   -0.00045979    0.00000000
     atom   53 type  1   force =     0.00081505   -0.00034213    0.00000000
     atom   54 type  1   force =    -0.00017678   -0.00001516   -0.00000000
     atom   55 type  1   force =     0.00054016    0.00038499   -0.00000000
     atom   56 type  1   force =    -0.00005309    0.00003540   -0.00000001
     atom   57 type  1   force =     0.00009237   -0.00016540    0.00000001
     atom   58 type  1   force =    -0.00000292    0.00006325   -0.00000000
     atom   59 type  1   force =    -0.00060529   -0.00027816    0.00000000
     atom   60 type  1   force =    -0.00054894    0.00054997    0.00000001
     atom   61 type  1   force =    -0.00006672   -0.00059812    0.00000001
     atom   62 type  1   force =    -0.00021044    0.00036181   -0.00000001
     atom   63 type  1   force =     0.00055236   -0.00023969   -0.00000000
     atom   64 type  1   force =    -0.00020062    0.00074951    0.00000000
     atom   65 type  1   force =     0.00044286   -0.00051517   -0.00000000
     atom   66 type  1   force =    -0.00042177    0.00010550    0.00000000
     atom   67 type  1   force =     0.00025194    0.00011427   -0.00000002
     atom   68 type  1   force =     0.00006618   -0.00011323    0.00000000
     atom   69 type  1   force =    -0.00022630   -0.00016297    0.00000000
     atom   70 type  1   force =     0.00011858    0.00042047    0.00000001
     atom   71 type  1   force =     0.00022477   -0.00064409   -0.00000001

     Total force =     0.004292     Total SCF correction =     0.000004
     Energy error            =      2.7E-05 Ry
     Gradient error          =      9.5E-04 Ry/Bohr

     number of scf cycles    =  13
     number of bfgs steps    =  12

     energy             old  =    -854.7617392557 Ry
     energy             new  =    -854.7617666547 Ry

     CASE: energy            _new < energy            _old

     new trust radius        =       0.0010109118 bohr
     new conv_thr            =            2.7E-12 Ry


ATOMIC_POSITIONS (crystal)
C                0.0573260840        0.0544948758        0.0000000025
C                0.1128626264        0.1102350889        0.0000000007
C                0.0573259933        0.2215119631       -0.0000000004
C                0.1127319568        0.2779734952       -0.0000000006
C                0.0560004343        0.3892175857        0.0000000011
C                0.1104620491        0.4455098945        0.0000000020
C                0.0523661939        0.5568860711        0.0000000014
C                0.1071106490        0.6131112614        0.0000000008
C                0.0523662655        0.7240809326       -0.0000000021
C                0.1104624015        0.7773608980       -0.0000000009
C                0.0560006205        0.8881149397        0.0000000017
C                0.1127322316        0.9426272937        0.0000000028
C                0.2237816225        0.0547755480       -0.0000000006
C                0.2788252018        0.1114633053       -0.0000000019
C                0.2231299377        0.2233709607       -0.0000000008
C                0.2781380456        0.2805193080        0.0000000003
C                0.2212823863        0.3909511782        0.0000000008
C                0.2756778570        0.4487382822        0.0000000017
C                0.2154047544        0.5589640980        0.0000000014
C                0.2756782877        0.6089164077       -0.0000000002
C                0.2212828343        0.7210990377       -0.0000000003
C                0.2781385171        0.7746751915        0.0000000008
C                0.2231302731        0.8868317020        0.0000000017
C                0.2788254384        0.9430441709        0.0000000000
C                0.3889752055        0.0573578607       -0.0000000017
C                0.4441938354        0.1156413146       -0.0000000014
C                0.3889480824        0.2292488280       -0.0000000008
C                0.4439394280        0.2894703651       -0.0000000005
C1               0.3835457444        0.4050474493        0.0000000010
C1               0.3835463216        0.5447392496       -0.0000000001
C                0.4439399598        0.5999230584        0.0000000001
C                0.3889485876        0.7151358640        0.0000000007
C                0.4441942635        0.7734978383       -0.0000000003
C                0.3889754513        0.8869998898       -0.0000000008
C                0.4440336034        0.9446498223       -0.0000000010
C                0.5542463013        0.0583271414       -0.0000000010
C                0.6095283868        0.1146422500       -0.0000000008
C                0.5552610210        0.2253708278       -0.0000000027
C                0.6157773899        0.2762683280       -0.0000000029
C1               0.5680639803        0.3826349953       -0.0000000047
C                0.6157779039        0.4412879656       -0.0000000002
C                0.5552614821        0.5527016476        0.0000000000
C                0.6095287983        0.6091629422       -0.0000000001
C                0.5542466742        0.7207601044       -0.0000000005
C                0.6097994018        0.7775502273       -0.0000000016
C                0.5545933076        0.8893702158       -0.0000000012
C                0.6097991996        0.9459843099       -0.0000000007
C                0.7217773019        0.0570126066        0.0000000001
C                0.7801242012        0.1096495983        0.0000000013
C                0.7262400507        0.2204980629        0.0000000004
C                0.7813261409        0.2760037661        0.0000000023
C                0.7262404108        0.3865954279        0.0000000023
C                0.7801244421        0.4435598567        0.0000000009
C                0.7217776380        0.5545437926       -0.0000000006
C                0.7764696954        0.6107837958       -0.0000000011
C                0.7202787268        0.7227429505       -0.0000000012
C                0.7757092635        0.7788123578       -0.0000000018
C                0.7202785698        0.8903123969       -0.0000000011
C                0.7764695525        0.9460804598       -0.0000000003
C                0.8903553640        0.0545562426        0.0000000028
C                0.9469771100        0.1097734817        0.0000000027
C                0.8920994812        0.2206168811        0.0000000024
C                0.9469770530        0.2765826624        0.0000000014
C                0.8903555213        0.3884217528        0.0000000003
C                0.9447969675        0.4446507675        0.0000000004
C                0.8872746402        0.5556766646        0.0000000003
C                0.9424679996        0.6120307627        0.0000000003
C                0.8867288080        0.7233024664       -0.0000000019
C                0.9424680527        0.7788347932       -0.0000000021
C                0.8872745558        0.8903823668       -0.0000000003
C                0.9447970172        0.9438856568        0.0000000014



     Writing config-only to output data dir /home/gregb26/links/scratch/qe_tmp/vacancy_relaxed/series/6x6/nspin2/vac_6x6_relax_nspin2.save/ :
     XML data file
     NEW-OLD atomic charge density approx. for the potential

     negative rho (up, down):  7.022E-08 7.095E-08
     Generating pointlists ...

     total cpu time spent up to now is      640.3 secs

     per-process dynamical memory:   234.7 Mb

     Self-consistent Calculation

     iteration #  1     ecut=   100.00 Ry     beta= 0.30
     Davidson diagonalization with overlap
     ethr =  1.00E-06,  avg # of iterations =  2.0

     Threshold (ethr) on eigenvalues was too large:
     Diagonalizing with lowered threshold

     Davidson diagonalization with overlap
     ethr =  6.65E-10,  avg # of iterations =  6.0

     negative rho (up, down):  4.692E-08 4.664E-08

     total cpu time spent up to now is      646.6 secs

     total energy              =    -854.76177365 Ry
     estimated scf accuracy    <       0.00000579 Ry

     total magnetization       =     1.97 Bohr mag/cell
     absolute magnetization    =     5.26 Bohr mag/cell

     iteration #  2     ecut=   100.00 Ry     beta= 0.30
     Davidson diagonalization with overlap
     ethr =  2.04E-09,  avg # of iterations =  2.0

     negative rho (up, down):  2.685E-08 2.678E-08

     total cpu time spent up to now is      648.6 secs

     total energy              =    -854.76177385 Ry
     estimated scf accuracy    <       0.00000135 Ry

     total magnetization       =     1.97 Bohr mag/cell
     absolute magnetization    =     5.26 Bohr mag/cell

     iteration #  3     ecut=   100.00 Ry     beta= 0.30
     Davidson diagonalization with overlap
     ethr =  4.76E-10,  avg # of iterations =  2.0

     negative rho (up, down):  1.298E-08 1.302E-08

     total cpu time spent up to now is      650.6 secs

     total energy              =    -854.76177393 Ry
     estimated scf accuracy    <       0.00000046 Ry

     total magnetization       =     1.97 Bohr mag/cell
     absolute magnetization    =     5.26 Bohr mag/cell

     iteration #  4     ecut=   100.00 Ry     beta= 0.30
     Davidson diagonalization with overlap
     ethr =  1.63E-10,  avg # of iterations =  2.0

     total cpu time spent up to now is      652.7 secs

     total energy              =    -854.76177399 Ry
     estimated scf accuracy    <       0.00000010 Ry

     total magnetization       =     1.97 Bohr mag/cell
     absolute magnetization    =     5.26 Bohr mag/cell

     iteration #  5     ecut=   100.00 Ry     beta= 0.30
     Davidson diagonalization with overlap
     ethr =  3.68E-11,  avg # of iterations =  2.0

     total cpu time spent up to now is      654.6 secs

     total energy              =    -854.76177402 Ry
     estimated scf accuracy    <       0.00000002 Ry

     total magnetization       =     1.97 Bohr mag/cell
     absolute magnetization    =     5.26 Bohr mag/cell

     iteration #  6     ecut=   100.00 Ry     beta= 0.30
     Davidson diagonalization with overlap
     ethr =  7.24E-12,  avg # of iterations =  3.5

     total cpu time spent up to now is      657.1 secs

     total energy              =    -854.76177403 Ry
     estimated scf accuracy    <          5.6E-09 Ry

     total magnetization       =     1.97 Bohr mag/cell
     absolute magnetization    =     5.26 Bohr mag/cell

     iteration #  7     ecut=   100.00 Ry     beta= 0.30
     Davidson diagonalization with overlap
     ethr =  1.97E-12,  avg # of iterations =  4.0

     total cpu time spent up to now is      659.5 secs

     total energy              =    -854.76177404 Ry
     estimated scf accuracy    <          3.2E-09 Ry

     total magnetization       =     1.97 Bohr mag/cell
     absolute magnetization    =     5.27 Bohr mag/cell

     iteration #  8     ecut=   100.00 Ry     beta= 0.30
     Davidson diagonalization with overlap
     ethr =  1.13E-12,  avg # of iterations =  4.5

     total cpu time spent up to now is      662.3 secs

     total energy              =    -854.76177405 Ry
     estimated scf accuracy    <          1.6E-09 Ry

     total magnetization       =     1.97 Bohr mag/cell
     absolute magnetization    =     5.27 Bohr mag/cell

     iteration #  9     ecut=   100.00 Ry     beta= 0.30
     Davidson diagonalization with overlap
     ethr =  5.76E-13,  avg # of iterations =  4.0

     total cpu time spent up to now is      665.0 secs

     total energy              =    -854.76177405 Ry
     estimated scf accuracy    <          1.1E-09 Ry

     total magnetization       =     1.97 Bohr mag/cell
     absolute magnetization    =     5.27 Bohr mag/cell

     iteration # 10     ecut=   100.00 Ry     beta= 0.30
     Davidson diagonalization with overlap
     ethr =  3.78E-13,  avg # of iterations =  5.5

     total cpu time spent up to now is      668.2 secs

     total energy              =    -854.76177406 Ry
     estimated scf accuracy    <          4.8E-10 Ry

     total magnetization       =     1.97 Bohr mag/cell
     absolute magnetization    =     5.27 Bohr mag/cell

     iteration # 11     ecut=   100.00 Ry     beta= 0.30
     Davidson diagonalization with overlap
     ethr =  1.69E-13,  avg # of iterations =  6.5

     total cpu time spent up to now is      671.9 secs

     total energy              =    -854.76177406 Ry
     estimated scf accuracy    <          1.7E-10 Ry

     total magnetization       =     1.97 Bohr mag/cell
     absolute magnetization    =     5.27 Bohr mag/cell

     iteration # 12     ecut=   100.00 Ry     beta= 0.30
     Davidson diagonalization with overlap
     ethr =  1.00E-13,  avg # of iterations =  5.5

     total cpu time spent up to now is      675.3 secs

     total energy              =    -854.76177406 Ry
     estimated scf accuracy    <          4.0E-11 Ry

     total magnetization       =     1.97 Bohr mag/cell
     absolute magnetization    =     5.27 Bohr mag/cell

     iteration # 13     ecut=   100.00 Ry     beta= 0.30
     Davidson diagonalization with overlap
     ethr =  1.00E-13,  avg # of iterations =  4.0

     total cpu time spent up to now is      678.0 secs

     total energy              =    -854.76177406 Ry
     estimated scf accuracy    <          9.8E-12 Ry

     total magnetization       =     1.97 Bohr mag/cell
     absolute magnetization    =     5.27 Bohr mag/cell

     iteration # 14     ecut=   100.00 Ry     beta= 0.30
     Davidson diagonalization with overlap
     ethr =  1.00E-13,  avg # of iterations =  1.0

     total cpu time spent up to now is      679.8 secs

     total energy              =    -854.76177406 Ry
     estimated scf accuracy    <          3.9E-12 Ry

     total magnetization       =     1.97 Bohr mag/cell
     absolute magnetization    =     5.27 Bohr mag/cell

     iteration # 15     ecut=   100.00 Ry     beta= 0.30
     Davidson diagonalization with overlap
     ethr =  1.00E-13,  avg # of iterations =  1.0

     Magnetic moment per site  (integrated on atomic sphere of radius R)
     atom   1 (R=0.038)  charge=  1.5041  magn=  0.0285
     atom   2 (R=0.038)  charge=  1.5020  magn= -0.0131
     atom   3 (R=0.038)  charge=  1.5041  magn=  0.0285
     atom   4 (R=0.038)  charge=  1.5034  magn= -0.0243
     atom   5 (R=0.038)  charge=  1.5044  magn=  0.0319
     atom   6 (R=0.038)  charge=  1.5058  magn= -0.0237
     atom   7 (R=0.038)  charge=  1.5117  magn=  0.0275
     atom   8 (R=0.038)  charge=  1.5219  magn= -0.0119
     atom   9 (R=0.038)  charge=  1.5117  magn=  0.0275
     atom  10 (R=0.038)  charge=  1.5058  magn= -0.0237
     atom  11 (R=0.038)  charge=  1.5044  magn=  0.0319
     atom  12 (R=0.038)  charge=  1.5034  magn= -0.0243
     atom  13 (R=0.038)  charge=  1.4989  magn=  0.0325
     atom  14 (R=0.038)  charge=  1.5014  magn= -0.0242
     atom  15 (R=0.038)  charge=  1.4985  magn=  0.0288
     atom  16 (R=0.038)  charge=  1.5025  magn= -0.0121
     atom  17 (R=0.038)  charge=  1.5028  magn=  0.0297
     atom  18 (R=0.038)  charge=  1.5182  magn= -0.0162
     atom  19 (R=0.038)  charge=  1.5343  magn=  0.0281
     atom  20 (R=0.038)  charge=  1.5182  magn= -0.0162
     atom  21 (R=0.038)  charge=  1.5028  magn=  0.0297
     atom  22 (R=0.038)  charge=  1.5025  magn= -0.0121
     atom  23 (R=0.038)  charge=  1.4985  magn=  0.0288
     atom  24 (R=0.038)  charge=  1.5014  magn= -0.0242
     atom  25 (R=0.038)  charge=  1.4881  magn=  0.0294
     atom  26 (R=0.038)  charge=  1.4830  magn= -0.0264
     atom  27 (R=0.038)  charge=  1.4699  magn=  0.0315
     atom  28 (R=0.038)  charge=  1.4463  magn= -0.0275
     atom  29 (R=0.038)  charge=  1.3838  magn=  0.0488
     atom  30 (R=0.038)  charge=  1.3838  magn=  0.0488
     atom  31 (R=0.038)  charge=  1.4463  magn= -0.0275
     atom  32 (R=0.038)  charge=  1.4699  magn=  0.0315
     atom  33 (R=0.038)  charge=  1.4830  magn= -0.0264
     atom  34 (R=0.038)  charge=  1.4881  magn=  0.0294
     atom  35 (R=0.038)  charge=  1.4871  magn= -0.0142
     atom  36 (R=0.038)  charge=  1.5017  magn=  0.0265
     atom  37 (R=0.038)  charge=  1.4955  magn= -0.0147
     atom  38 (R=0.038)  charge=  1.5007  magn=  0.0410
     atom  39 (R=0.038)  charge=  1.5284  magn= -0.0234
     atom  40 (R=0.038)  charge=  1.4814  magn=  0.3377
     atom  41 (R=0.038)  charge=  1.5284  magn= -0.0234
     atom  42 (R=0.038)  charge=  1.5007  magn=  0.0410
     atom  43 (R=0.038)  charge=  1.4955  magn= -0.0147
     atom  44 (R=0.038)  charge=  1.5017  magn=  0.0265
     atom  45 (R=0.038)  charge=  1.4969  magn= -0.0251
     atom  46 (R=0.038)  charge=  1.4989  magn=  0.0290
     atom  47 (R=0.038)  charge=  1.4969  magn= -0.0251
     atom  48 (R=0.038)  charge=  1.4999  magn=  0.0335
     atom  49 (R=0.038)  charge=  1.5111  magn= -0.0221
     atom  50 (R=0.038)  charge=  1.5136  magn=  0.0479
     atom  51 (R=0.038)  charge=  1.5125  magn= -0.0178
     atom  52 (R=0.038)  charge=  1.5136  magn=  0.0479
     atom  53 (R=0.038)  charge=  1.5111  magn= -0.0221
     atom  54 (R=0.038)  charge=  1.4999  magn=  0.0335
     atom  55 (R=0.038)  charge=  1.5023  magn= -0.0254
     atom  56 (R=0.038)  charge=  1.5009  magn=  0.0270
     atom  57 (R=0.038)  charge=  1.4994  magn= -0.0131
     atom  58 (R=0.038)  charge=  1.5009  magn=  0.0270
     atom  59 (R=0.038)  charge=  1.5023  magn= -0.0254
     atom  60 (R=0.038)  charge=  1.5084  magn=  0.0292
     atom  61 (R=0.038)  charge=  1.5067  magn= -0.0253
     atom  62 (R=0.038)  charge=  1.5103  magn=  0.0321
     atom  63 (R=0.038)  charge=  1.5067  magn= -0.0253
     atom  64 (R=0.038)  charge=  1.5084  magn=  0.0292
     atom  65 (R=0.038)  charge=  1.5044  magn= -0.0130
     atom  66 (R=0.038)  charge=  1.5048  magn=  0.0287
     atom  67 (R=0.038)  charge=  1.5082  magn= -0.0240
     atom  68 (R=0.038)  charge=  1.5034  magn=  0.0318
     atom  69 (R=0.038)  charge=  1.5082  magn= -0.0240
     atom  70 (R=0.038)  charge=  1.5048  magn=  0.0287
     atom  71 (R=0.038)  charge=  1.5044  magn= -0.0130

     total cpu time spent up to now is      681.5 secs

     End of self-consistent calculation

 ------ SPIN UP ------------


          k = 0.0000 0.0000 0.0000 (171510 PWs)   bands (ev):

   -23.8023 -23.2523 -23.2133 -23.1851 -23.1499 -23.0785 -22.8697 -21.9246
   -21.9064 -21.8917 -21.8704 -21.7732 -21.6530 -21.3127 -21.2531 -21.2475
   -21.1917 -21.1076 -20.7375 -19.4579 -19.4574 -19.4486 -19.4156 -19.4146
   -19.3938 -19.3802 -19.3644 -19.3097 -19.3051 -19.1959 -18.8448 -18.5851
   -18.5055 -18.0268 -17.5163 -17.4331 -17.3670 -16.9649 -16.8683 -16.7757
   -16.4624 -15.7644 -15.7579 -15.7544 -15.7386 -15.7291 -15.7249 -15.7090
   -15.6759 -15.6502 -15.4277 -15.3997 -14.8061 -14.7174 -14.4930 -13.9785
   -13.9761 -13.9035 -13.7498 -13.7445 -13.0703 -12.4411 -12.4334 -12.3908
   -12.3791 -12.3780 -12.3690 -12.3219 -12.3057 -12.2995 -12.2775 -12.1686
   -12.1212 -12.1122 -12.0446 -12.0054 -11.8914 -11.6258 -11.6075 -11.1969
   -11.1801 -11.1591 -11.1273 -11.0655 -10.9289 -10.8212 -10.8026 -10.7577
   -10.7004 -10.6813 -10.6652 -10.6547 -10.4472 -10.4315 -10.3204 -10.1406
   -10.0913 -10.0430 -10.0199  -9.7919  -9.7776  -9.6910  -9.6653  -9.6477
    -9.6462  -9.6282  -9.6240  -9.6165  -9.5414  -9.4140  -8.9907  -8.9582
    -8.9422  -8.9343  -8.9153  -8.8685  -8.8358  -8.5690  -8.5350  -8.4920
    -8.4725  -8.4106  -8.3938  -7.6190  -7.5123  -7.0404  -7.0136  -7.0010
    -6.9824  -6.9803  -6.9604  -6.9464  -6.9297  -6.8900  -6.8864  -6.8283
    -6.7599  -6.6269  -6.5826  -5.5299  -5.0500  -4.4082  -4.3818  -4.1186
    -3.7517  -2.6455  -2.5990  -2.5483  -2.5077  -1.9096  -1.9013  -1.8332
    -1.8135  -1.8046  -1.7674  -1.7525  -1.7227  -1.7014  -1.6143  -1.4950
    -0.9797  -0.4019  -0.1318  -0.1265  -0.1234  -0.1148  -0.0857  -0.0742
     0.0309   0.5165   0.5945   0.6099

 ------ SPIN DOWN ----------


          k = 0.0000 0.0000 0.0000 (171510 PWs)   bands (ev):

   -23.7769 -23.2125 -23.1928 -23.1636 -23.1303 -23.0565 -22.8083 -21.8870
   -21.8707 -21.8622 -21.8473 -21.7596 -21.6151 -21.2668 -21.2287 -21.2266
   -21.1569 -21.0927 -20.6565 -19.4337 -19.4304 -19.4271 -19.4019 -19.3851
   -19.3656 -19.3540 -19.3397 -19.2900 -19.2161 -19.1791 -18.8161 -18.5599
   -18.4536 -17.9180 -17.4820 -17.4053 -17.3520 -16.9544 -16.7512 -16.7460
   -16.4254 -15.7447 -15.7385 -15.7299 -15.7087 -15.7063 -15.7041 -15.6788
   -15.6522 -15.6341 -15.3764 -15.3224 -14.7838 -14.6939 -14.4074 -13.9459
   -13.9453 -13.8898 -13.7281 -13.6837 -12.9742 -12.4194 -12.4188 -12.3808
   -12.3603 -12.3570 -12.3435 -12.2910 -12.2861 -12.2798 -12.2487 -12.1507
   -12.0954 -12.0773 -12.0269 -11.9787 -11.8496 -11.6084 -11.5264 -11.1497
   -11.1399 -11.1164 -11.0902 -11.0252 -10.8780 -10.7674 -10.7540 -10.7437
   -10.6877 -10.6665 -10.6418 -10.6405 -10.4326 -10.4042 -10.2159 -10.1026
   -10.0668 -10.0138 -10.0040  -9.7672  -9.7435  -9.6689  -9.6107  -9.6062
    -9.6048  -9.6011  -9.5938  -9.5843  -9.5132  -9.3479  -8.9307  -8.9188
    -8.8927  -8.8902  -8.8894  -8.8199  -8.8149  -8.5172  -8.5165  -8.4708
    -8.3729  -8.3720  -8.1803  -7.5372  -7.4916  -6.9826  -6.9680  -6.9590
    -6.9565  -6.9201  -6.9194  -6.8925  -6.8905  -6.8513  -6.8015  -6.7928
    -6.7079  -6.5843  -6.5111  -5.3390  -4.3997  -4.0794  -4.0778  -3.7091
    -2.8767  -2.5768  -2.5055  -2.4637  -2.3919  -1.8558  -1.8532  -1.8006
    -1.7681  -1.7459  -1.7219  -1.7216  -1.6820  -1.6535  -1.4242  -1.4177
    -0.9699  -0.3028  -0.1252  -0.1180  -0.1164  -0.1086  -0.0761  -0.0674
     0.0581   0.5684   0.6205   0.6789

     the Fermi energy is    -4.2735 ev

!    total energy              =    -854.76177406 Ry
     estimated scf accuracy    <          1.5E-12 Ry
     smearing contrib. (-TS)   =       0.00180934 Ry
     internal energy E=F+TS    =    -854.76358340 Ry

     The total energy is F=E-TS. E is the sum of the following terms:
     one-electron contribution =   -9609.41305294 Ry
     hartree contribution      =    4831.18622185 Ry
     xc contribution           =    -303.88291867 Ry
     ewald contribution        =    4227.34616637 Ry

     total magnetization       =     1.97 Bohr mag/cell
     absolute magnetization    =     5.27 Bohr mag/cell

     convergence has been achieved in  15 iterations

     Forces acting on atoms (cartesian axes, Ry/au):

     atom    1 type  1   force =     0.00019664   -0.00012058    0.00000002
     atom    2 type  1   force =    -0.00003258    0.00005804   -0.00000000
     atom    3 type  1   force =     0.00000680   -0.00023017    0.00000002
     atom    4 type  1   force =    -0.00015359    0.00003230    0.00000000
     atom    5 type  1   force =    -0.00001761   -0.00036417    0.00000000
     atom    6 type  1   force =    -0.00020408   -0.00002079   -0.00000002
     atom    7 type  1   force =     0.00011493    0.00009449   -0.00000000
     atom    8 type  1   force =     0.00008888   -0.00015403    0.00000000
     atom    9 type  1   force =    -0.00013865   -0.00005287   -0.00000000
     atom   10 type  1   force =     0.00012049    0.00016836    0.00000003
     atom   11 type  1   force =     0.00032392   -0.00016683   -0.00000001
     atom   12 type  1   force =     0.00004973    0.00015045   -0.00000002
     atom   13 type  1   force =    -0.00007574    0.00013244   -0.00000001
     atom   14 type  1   force =    -0.00018293   -0.00000143   -0.00000000
     atom   15 type  1   force =     0.00013174    0.00011998    0.00000001
     atom   16 type  1   force =    -0.00024247    0.00013550   -0.00000001
     atom   17 type  1   force =     0.00014300    0.00001928    0.00000002
     atom   18 type  1   force =    -0.00001650    0.00010566    0.00000001
     atom   19 type  1   force =     0.00006473   -0.00011089   -0.00000005
     atom   20 type  1   force =    -0.00008221    0.00006753   -0.00000003
     atom   21 type  1   force =    -0.00008845   -0.00011344    0.00000001
     atom   22 type  1   force =     0.00000571    0.00027979    0.00000001
     atom   23 type  1   force =    -0.00016942   -0.00005342    0.00000000
     atom   24 type  1   force =     0.00009343    0.00015900    0.00000001
     atom   25 type  1   force =    -0.00011011    0.00018915    0.00000002
     atom   26 type  1   force =     0.00019838   -0.00010560    0.00000000
     atom   27 type  1   force =    -0.00002628    0.00008511    0.00000001
     atom   28 type  1   force =     0.00008818   -0.00025808   -0.00000003
     atom   29 type  2   force =     0.00000400   -0.00036184   -0.00000002
     atom   30 type  2   force =     0.00031177   -0.00018208   -0.00000004
     atom   31 type  1   force =     0.00017869   -0.00020397   -0.00000001
     atom   32 type  1   force =    -0.00006062    0.00006607   -0.00000001
     atom   33 type  1   force =    -0.00000799   -0.00022284   -0.00000000
     atom   34 type  1   force =    -0.00010870    0.00019062    0.00000001
     atom   35 type  1   force =     0.00000965   -0.00001649   -0.00000000
     atom   36 type  1   force =    -0.00002741    0.00013316    0.00000001
     atom   37 type  1   force =     0.00035980    0.00002314   -0.00000001
     atom   38 type  1   force =     0.00016160    0.00025600    0.00000001
     atom   39 type  1   force =     0.00016007   -0.00032172    0.00000000
     atom   40 type  2   force =    -0.00025089    0.00044047    0.00000000
     atom   41 type  1   force =     0.00019189   -0.00030024   -0.00000000
     atom   42 type  1   force =    -0.00030262   -0.00001205    0.00000000
     atom   43 type  1   force =    -0.00020063   -0.00029917    0.00000001
     atom   44 type  1   force =    -0.00010331    0.00008950   -0.00000001
     atom   45 type  1   force =     0.00001816    0.00015817   -0.00000000
     atom   46 type  1   force =    -0.00009548    0.00016381    0.00000002
     atom   47 type  1   force =    -0.00014587    0.00006235   -0.00000002
     atom   48 type  1   force =    -0.00025478   -0.00023647    0.00000000
     atom   49 type  1   force =    -0.00014747    0.00017376   -0.00000001
     atom   50 type  1   force =     0.00008761    0.00007655    0.00000000
     atom   51 type  1   force =     0.00011036   -0.00019666   -0.00000000
     atom   52 type  1   force =    -0.00010859   -0.00003479   -0.00000001
     atom   53 type  1   force =    -0.00007791    0.00021346    0.00000001
     atom   54 type  1   force =     0.00032958    0.00010228    0.00000001
     atom   55 type  1   force =     0.00003308    0.00024336    0.00000001
     atom   56 type  1   force =     0.00019542    0.00000881   -0.00000000
     atom   57 type  1   force =    -0.00009336    0.00016153    0.00000001
     atom   58 type  1   force =    -0.00010785   -0.00016670    0.00000000
     atom   59 type  1   force =    -0.00022737    0.00009371   -0.00000001
     atom   60 type  1   force =     0.00008366   -0.00050037   -0.00000001
     atom   61 type  1   force =    -0.00002251    0.00016434    0.00000002
     atom   62 type  1   force =     0.00028474   -0.00049156   -0.00000000
     atom   63 type  1   force =    -0.00013071    0.00010064    0.00000000
     atom   64 type  1   force =     0.00039038   -0.00032151    0.00000001
     atom   65 type  1   force =    -0.00008226    0.00041742   -0.00000000
     atom   66 type  1   force =     0.00003968   -0.00000573    0.00000000
     atom   67 type  1   force =    -0.00009713    0.00022273    0.00000001
     atom   68 type  1   force =     0.00009746   -0.00017076   -0.00000000
     atom   69 type  1   force =    -0.00014431    0.00019645    0.00000000
     atom   70 type  1   force =    -0.00001569   -0.00003869   -0.00000001
     atom   71 type  1   force =    -0.00032010    0.00028055    0.00000001

     Total force =     0.002179     Total SCF correction =     0.000001
     Energy error            =      7.4E-06 Ry
     Gradient error          =      5.0E-04 Ry/Bohr

     number of scf cycles    =  14
     number of bfgs steps    =  13

     energy             old  =    -854.7617666547 Ry
     energy             new  =    -854.7617740607 Ry

     CASE: energy            _new < energy            _old

     new trust radius        =       0.0007635718 bohr
     new conv_thr            =            1.0E-12 Ry


ATOMIC_POSITIONS (crystal)
C                0.0573357119        0.0544944126        0.0000000029
C                0.1128593804        0.1102367431        0.0000000006
C                0.0573356349        0.2215028241        0.0000000002
C                0.1127305259        0.2779691595       -0.0000000006
C                0.0560058548        0.3892079330        0.0000000012
C                0.1104570989        0.4455070373        0.0000000014
C                0.0523632995        0.5568876909        0.0000000014
C                0.1071196572        0.6131067607        0.0000000010
C                0.0523633968        0.7240822044       -0.0000000023
C                0.1104573936        0.7773687729        0.0000000002
C                0.0560060282        0.8881191907        0.0000000014
C                0.1127307695        0.9426331209        0.0000000023
C                0.2237745332        0.0547791185       -0.0000000008
C                0.2788196571        0.1114649352       -0.0000000019
C                0.2231289575        0.2233736568       -0.0000000004
C                0.2781264051        0.2805242925       -0.0000000001
C                0.2212847171        0.3909530930        0.0000000015
C                0.2756838740        0.4487368270        0.0000000021
C                0.2154163138        0.5589583362       -0.0000000002
C                0.2756842832        0.6089119085       -0.0000000012
C                0.2212851333        0.7210948364        0.0000000000
C                0.2781268357        0.7746819507        0.0000000012
C                0.2231292739        0.8868300298        0.0000000018
C                0.2788198554        0.9430481500        0.0000000004
C                0.3889689435        0.0573617631       -0.0000000010
C                0.4441994729        0.1156370664       -0.0000000014
C                0.3889435343        0.2292470933       -0.0000000005
C                0.4439491487        0.2894631288       -0.0000000013
C1               0.3835648448        0.4050268281        0.0000000004
C1               0.3835653559        0.5447408638       -0.0000000012
C                0.4439496093        0.5999206193       -0.0000000002
C                0.3889439987        0.7151421854        0.0000000003
C                0.4441998432        0.7734964970       -0.0000000005
C                0.3889691609        0.8870022839       -0.0000000005
C                0.4440302118        0.9446515219       -0.0000000011
C                0.5542470609        0.0583297226       -0.0000000008
C                0.6095345855        0.1146494057       -0.0000000009
C                0.5552590822        0.2253806381       -0.0000000026
C                0.6157773249        0.2762743579       -0.0000000028
C1               0.5680324447        0.3826508052       -0.0000000046
C                0.6157777494        0.4412818923       -0.0000000004
C                0.5552595345        0.5526937587        0.0000000000
C                0.6095349595        0.6091495854        0.0000000001
C                0.5542474024        0.7207567221       -0.0000000005
C                0.6097913267        0.7775547213       -0.0000000016
C                0.5545851654        0.8893742622       -0.0000000004
C                0.6097911564        0.9459878459       -0.0000000012
C                0.7217799786        0.0570017961        0.0000000002
C                0.7801215444        0.1096461047        0.0000000010
C                0.7262433586        0.2204983008        0.0000000006
C                0.7813370185        0.2759982601        0.0000000022
C                0.7262436525        0.3865919613        0.0000000022
C                0.7801217927        0.4435659514        0.0000000011
C                0.7217802704        0.5545518693       -0.0000000002
C                0.7764612231        0.6107983098       -0.0000000007
C                0.7202807024        0.7227479272       -0.0000000014
C                0.7757037500        0.7788150925       -0.0000000014
C                0.7202805660        0.8903053425       -0.0000000010
C                0.7764610673        0.9460744134       -0.0000000007
C                0.8903664600        0.0545442644        0.0000000027
C                0.9469769328        0.1097719580        0.0000000033
C                0.8921177898        0.2206077433        0.0000000023
C                0.9469769093        0.2765843507        0.0000000015
C                0.8903665714        0.3884226505        0.0000000006
C                0.9447874610        0.4446608791        0.0000000004
C                0.8872731450        0.5556770269        0.0000000004
C                0.9424572150        0.6120390161        0.0000000005
C                0.8867338048        0.7232999422       -0.0000000019
C                0.9424572453        0.7788373372       -0.0000000021
C                0.8872730738        0.8903834502       -0.0000000004
C                0.9447875154        0.9438850554        0.0000000015



     Writing config-only to output data dir /home/gregb26/links/scratch/qe_tmp/vacancy_relaxed/series/6x6/nspin2/vac_6x6_relax_nspin2.save/ :
     XML data file
     NEW-OLD atomic charge density approx. for the potential

     negative rho (up, down):  2.274E-08 2.325E-08
     Generating pointlists ...

     total cpu time spent up to now is      682.8 secs

     per-process dynamical memory:   234.7 Mb

     Self-consistent Calculation

     iteration #  1     ecut=   100.00 Ry     beta= 0.30
     Davidson diagonalization with overlap
     ethr =  1.00E-06,  avg # of iterations =  2.0

     Threshold (ethr) on eigenvalues was too large:
     Diagonalizing with lowered threshold

     Davidson diagonalization with overlap
     ethr =  8.52E-11,  avg # of iterations =  7.0

     negative rho (up, down):  2.010E-08 1.497E-08

     total cpu time spent up to now is      689.2 secs

     total energy              =    -854.76177607 Ry
     estimated scf accuracy    <       0.00000078 Ry

     total magnetization       =     1.97 Bohr mag/cell
     absolute magnetization    =     5.27 Bohr mag/cell

     iteration #  2     ecut=   100.00 Ry     beta= 0.30
     Davidson diagonalization with overlap
     ethr =  2.73E-10,  avg # of iterations =  2.0

     negative rho (up, down):  1.082E-08 7.986E-09

     total cpu time spent up to now is      691.2 secs

     total energy              =    -854.76177612 Ry
     estimated scf accuracy    <       0.00000017 Ry

     total magnetization       =     1.97 Bohr mag/cell
     absolute magnetization    =     5.27 Bohr mag/cell

     iteration #  3     ecut=   100.00 Ry     beta= 0.30
     Davidson diagonalization with overlap
     ethr =  6.05E-11,  avg # of iterations =  2.0

     total cpu time spent up to now is      693.1 secs

     total energy              =    -854.76177614 Ry
     estimated scf accuracy    <       0.00000005 Ry

     total magnetization       =     1.97 Bohr mag/cell
     absolute magnetization    =     5.27 Bohr mag/cell

     iteration #  4     ecut=   100.00 Ry     beta= 0.30
     Davidson diagonalization with overlap
     ethr =  1.91E-11,  avg # of iterations =  3.0

     total cpu time spent up to now is      695.3 secs

     total energy              =    -854.76177615 Ry
     estimated scf accuracy    <       0.00000001 Ry

     total magnetization       =     1.97 Bohr mag/cell
     absolute magnetization    =     5.27 Bohr mag/cell

     iteration #  5     ecut=   100.00 Ry     beta= 0.30
     Davidson diagonalization with overlap
     ethr =  4.54E-12,  avg # of iterations =  2.0

     total cpu time spent up to now is      697.3 secs

     total energy              =    -854.76177615 Ry
     estimated scf accuracy    <          2.4E-09 Ry

     total magnetization       =     1.97 Bohr mag/cell
     absolute magnetization    =     5.27 Bohr mag/cell

     iteration #  6     ecut=   100.00 Ry     beta= 0.30
     Davidson diagonalization with overlap
     ethr =  8.55E-13,  avg # of iterations =  4.0

     total cpu time spent up to now is      699.9 secs

     total energy              =    -854.76177616 Ry
     estimated scf accuracy    <          6.6E-10 Ry

     total magnetization       =     1.97 Bohr mag/cell
     absolute magnetization    =     5.28 Bohr mag/cell

     iteration #  7     ecut=   100.00 Ry     beta= 0.30
     Davidson diagonalization with overlap
     ethr =  2.33E-13,  avg # of iterations =  4.0

     total cpu time spent up to now is      702.4 secs

     total energy              =    -854.76177616 Ry
     estimated scf accuracy    <          3.5E-10 Ry

     total magnetization       =     1.97 Bohr mag/cell
     absolute magnetization    =     5.28 Bohr mag/cell

     iteration #  8     ecut=   100.00 Ry     beta= 0.30
     Davidson diagonalization with overlap
     ethr =  1.23E-13,  avg # of iterations =  4.5

     total cpu time spent up to now is      705.3 secs

     total energy              =    -854.76177616 Ry
     estimated scf accuracy    <          1.7E-10 Ry

     total magnetization       =     1.97 Bohr mag/cell
     absolute magnetization    =     5.28 Bohr mag/cell

     iteration #  9     ecut=   100.00 Ry     beta= 0.30
     Davidson diagonalization with overlap
     ethr =  1.00E-13,  avg # of iterations =  4.0

     total cpu time spent up to now is      708.0 secs

     total energy              =    -854.76177616 Ry
     estimated scf accuracy    <          9.9E-11 Ry

     total magnetization       =     1.97 Bohr mag/cell
     absolute magnetization    =     5.28 Bohr mag/cell

     iteration # 10     ecut=   100.00 Ry     beta= 0.30
     Davidson diagonalization with overlap
     ethr =  1.00E-13,  avg # of iterations =  4.0

     total cpu time spent up to now is      710.5 secs

     total energy              =    -854.76177616 Ry
     estimated scf accuracy    <          5.8E-11 Ry

     total magnetization       =     1.97 Bohr mag/cell
     absolute magnetization    =     5.28 Bohr mag/cell

     iteration # 11     ecut=   100.00 Ry     beta= 0.30
     Davidson diagonalization with overlap
     ethr =  1.00E-13,  avg # of iterations =  4.5

     total cpu time spent up to now is      713.3 secs

     total energy              =    -854.76177616 Ry
     estimated scf accuracy    <          2.2E-11 Ry

     total magnetization       =     1.97 Bohr mag/cell
     absolute magnetization    =     5.28 Bohr mag/cell

     iteration # 12     ecut=   100.00 Ry     beta= 0.30
     Davidson diagonalization with overlap
     ethr =  1.00E-13,  avg # of iterations =  3.5

     total cpu time spent up to now is      715.9 secs

     total energy              =    -854.76177616 Ry
     estimated scf accuracy    <          7.5E-12 Ry

     total magnetization       =     1.97 Bohr mag/cell
     absolute magnetization    =     5.28 Bohr mag/cell

     iteration # 13     ecut=   100.00 Ry     beta= 0.30
     Davidson diagonalization with overlap
     ethr =  1.00E-13,  avg # of iterations =  2.0

     total cpu time spent up to now is      717.9 secs

     total energy              =    -854.76177616 Ry
     estimated scf accuracy    <          2.7E-12 Ry

     total magnetization       =     1.97 Bohr mag/cell
     absolute magnetization    =     5.28 Bohr mag/cell

     iteration # 14     ecut=   100.00 Ry     beta= 0.30
     Davidson diagonalization with overlap
     ethr =  1.00E-13,  avg # of iterations =  2.0

     Magnetic moment per site  (integrated on atomic sphere of radius R)
     atom   1 (R=0.038)  charge=  1.5042  magn=  0.0286
     atom   2 (R=0.038)  charge=  1.5021  magn= -0.0131
     atom   3 (R=0.038)  charge=  1.5042  magn=  0.0286
     atom   4 (R=0.038)  charge=  1.5035  magn= -0.0243
     atom   5 (R=0.038)  charge=  1.5044  magn=  0.0319
     atom   6 (R=0.038)  charge=  1.5058  magn= -0.0237
     atom   7 (R=0.038)  charge=  1.5117  magn=  0.0276
     atom   8 (R=0.038)  charge=  1.5218  magn= -0.0119
     atom   9 (R=0.038)  charge=  1.5117  magn=  0.0276
     atom  10 (R=0.038)  charge=  1.5058  magn= -0.0237
     atom  11 (R=0.038)  charge=  1.5044  magn=  0.0319
     atom  12 (R=0.038)  charge=  1.5035  magn= -0.0243
     atom  13 (R=0.038)  charge=  1.4989  magn=  0.0325
     atom  14 (R=0.038)  charge=  1.5014  magn= -0.0243
     atom  15 (R=0.038)  charge=  1.4985  magn=  0.0289
     atom  16 (R=0.038)  charge=  1.5025  magn= -0.0121
     atom  17 (R=0.038)  charge=  1.5028  magn=  0.0298
     atom  18 (R=0.038)  charge=  1.5182  magn= -0.0163
     atom  19 (R=0.038)  charge=  1.5343  magn=  0.0282
     atom  20 (R=0.038)  charge=  1.5182  magn= -0.0163
     atom  21 (R=0.038)  charge=  1.5028  magn=  0.0298
     atom  22 (R=0.038)  charge=  1.5025  magn= -0.0121
     atom  23 (R=0.038)  charge=  1.4985  magn=  0.0289
     atom  24 (R=0.038)  charge=  1.5014  magn= -0.0243
     atom  25 (R=0.038)  charge=  1.4881  magn=  0.0294
     atom  26 (R=0.038)  charge=  1.4830  magn= -0.0265
     atom  27 (R=0.038)  charge=  1.4698  magn=  0.0316
     atom  28 (R=0.038)  charge=  1.4464  magn= -0.0276
     atom  29 (R=0.038)  charge=  1.3838  magn=  0.0489
     atom  30 (R=0.038)  charge=  1.3838  magn=  0.0489
     atom  31 (R=0.038)  charge=  1.4464  magn= -0.0276
     atom  32 (R=0.038)  charge=  1.4698  magn=  0.0316
     atom  33 (R=0.038)  charge=  1.4830  magn= -0.0265
     atom  34 (R=0.038)  charge=  1.4881  magn=  0.0294
     atom  35 (R=0.038)  charge=  1.4871  magn= -0.0142
     atom  36 (R=0.038)  charge=  1.5017  magn=  0.0266
     atom  37 (R=0.038)  charge=  1.4954  magn= -0.0147
     atom  38 (R=0.038)  charge=  1.5007  magn=  0.0410
     atom  39 (R=0.038)  charge=  1.5283  magn= -0.0234
     atom  40 (R=0.038)  charge=  1.4813  magn=  0.3377
     atom  41 (R=0.038)  charge=  1.5284  magn= -0.0234
     atom  42 (R=0.038)  charge=  1.5007  magn=  0.0410
     atom  43 (R=0.038)  charge=  1.4954  magn= -0.0147
     atom  44 (R=0.038)  charge=  1.5017  magn=  0.0266
     atom  45 (R=0.038)  charge=  1.4968  magn= -0.0252
     atom  46 (R=0.038)  charge=  1.4989  magn=  0.0290
     atom  47 (R=0.038)  charge=  1.4968  magn= -0.0252
     atom  48 (R=0.038)  charge=  1.4999  magn=  0.0335
     atom  49 (R=0.038)  charge=  1.5110  magn= -0.0221
     atom  50 (R=0.038)  charge=  1.5135  magn=  0.0480
     atom  51 (R=0.038)  charge=  1.5124  magn= -0.0178
     atom  52 (R=0.038)  charge=  1.5135  magn=  0.0480
     atom  53 (R=0.038)  charge=  1.5110  magn= -0.0221
     atom  54 (R=0.038)  charge=  1.4999  magn=  0.0335
     atom  55 (R=0.038)  charge=  1.5023  magn= -0.0255
     atom  56 (R=0.038)  charge=  1.5010  magn=  0.0270
     atom  57 (R=0.038)  charge=  1.4995  magn= -0.0132
     atom  58 (R=0.038)  charge=  1.5010  magn=  0.0270
     atom  59 (R=0.038)  charge=  1.5023  magn= -0.0255
     atom  60 (R=0.038)  charge=  1.5084  magn=  0.0292
     atom  61 (R=0.038)  charge=  1.5067  magn= -0.0254
     atom  62 (R=0.038)  charge=  1.5104  magn=  0.0321
     atom  63 (R=0.038)  charge=  1.5067  magn= -0.0254
     atom  64 (R=0.038)  charge=  1.5084  magn=  0.0292
     atom  65 (R=0.038)  charge=  1.5044  magn= -0.0130
     atom  66 (R=0.038)  charge=  1.5049  magn=  0.0287
     atom  67 (R=0.038)  charge=  1.5082  magn= -0.0241
     atom  68 (R=0.038)  charge=  1.5034  magn=  0.0318
     atom  69 (R=0.038)  charge=  1.5082  magn= -0.0241
     atom  70 (R=0.038)  charge=  1.5049  magn=  0.0287
     atom  71 (R=0.038)  charge=  1.5044  magn= -0.0130

     total cpu time spent up to now is      720.0 secs

     End of self-consistent calculation

 ------ SPIN UP ------------


          k = 0.0000 0.0000 0.0000 (171510 PWs)   bands (ev):

   -23.8023 -23.2519 -23.2134 -23.1855 -23.1497 -23.0784 -22.8698 -21.9243
   -21.9065 -21.8917 -21.8700 -21.7735 -21.6533 -21.3128 -21.2530 -21.2473
   -21.1916 -21.1076 -20.7376 -19.4579 -19.4577 -19.4483 -19.4158 -19.4147
   -19.3936 -19.3803 -19.3642 -19.3093 -19.3050 -19.1962 -18.8450 -18.5848
   -18.5056 -18.0269 -17.5162 -17.4333 -17.3667 -16.9646 -16.8684 -16.7760
   -16.4627 -15.7643 -15.7579 -15.7543 -15.7387 -15.7294 -15.7251 -15.7087
   -15.6756 -15.6501 -15.4276 -15.4002 -14.8060 -14.7173 -14.4931 -13.9786
   -13.9759 -13.9036 -13.7503 -13.7442 -13.0701 -12.4413 -12.4333 -12.3907
   -12.3790 -12.3779 -12.3697 -12.3218 -12.3058 -12.2993 -12.2775 -12.1692
   -12.1214 -12.1121 -12.0441 -12.0056 -11.8914 -11.6256 -11.6072 -11.1966
   -11.1802 -11.1593 -11.1272 -11.0654 -10.9295 -10.8213 -10.8023 -10.7574
   -10.6997 -10.6815 -10.6650 -10.6548 -10.4480 -10.4315 -10.3206 -10.1406
   -10.0913 -10.0428 -10.0199  -9.7921  -9.7770  -9.6916  -9.6651  -9.6478
    -9.6462  -9.6277  -9.6247  -9.6161  -9.5416  -9.4143  -8.9908  -8.9585
    -8.9423  -8.9343  -8.9152  -8.8684  -8.8358  -8.5686  -8.5357  -8.4913
    -8.4727  -8.4105  -8.3936  -7.6184  -7.5134  -7.0404  -7.0134  -7.0008
    -6.9827  -6.9803  -6.9605  -6.9469  -6.9296  -6.8899  -6.8862  -6.8282
    -6.7599  -6.6267  -6.5829  -5.5301  -5.0499  -4.4081  -4.3819  -4.1187
    -3.7516  -2.6452  -2.6010  -2.5488  -2.5078  -1.9097  -1.9015  -1.8334
    -1.8129  -1.8042  -1.7677  -1.7526  -1.7228  -1.7015  -1.6141  -1.4957
    -0.9797  -0.4020  -0.1319  -0.1265  -0.1234  -0.1148  -0.0857  -0.0742
     0.0308   0.5165   0.5945   0.6099

 ------ SPIN DOWN ----------


          k = 0.0000 0.0000 0.0000 (171510 PWs)   bands (ev):

   -23.7769 -23.2122 -23.1928 -23.1639 -23.1301 -23.0564 -22.8083 -21.8870
   -21.8705 -21.8620 -21.8470 -21.7599 -21.6155 -21.2668 -21.2286 -21.2264
   -21.1568 -21.0928 -20.6566 -19.4336 -19.4305 -19.4271 -19.4021 -19.3853
   -19.3655 -19.3540 -19.3395 -19.2895 -19.2159 -19.1794 -18.8163 -18.5596
   -18.4538 -17.9179 -17.4819 -17.4055 -17.3517 -16.9541 -16.7514 -16.7461
   -16.4256 -15.7444 -15.7384 -15.7298 -15.7091 -15.7066 -15.7043 -15.6785
   -15.6519 -15.6339 -15.3769 -15.3223 -14.7837 -14.6939 -14.4075 -13.9457
   -13.9454 -13.8898 -13.7286 -13.6835 -12.9739 -12.4193 -12.4191 -12.3807
   -12.3603 -12.3577 -12.3434 -12.2908 -12.2860 -12.2798 -12.2488 -12.1513
   -12.0956 -12.0771 -12.0264 -11.9788 -11.8496 -11.6082 -11.5262 -11.1496
   -11.1399 -11.1165 -11.0901 -11.0251 -10.8786 -10.7671 -10.7541 -10.7435
   -10.6870 -10.6666 -10.6418 -10.6404 -10.4333 -10.4041 -10.2159 -10.1027
   -10.0666 -10.0136 -10.0039  -9.7674  -9.7429  -9.6695  -9.6101  -9.6062
    -9.6047  -9.6018  -9.5936  -9.5842  -9.5134  -9.3482  -8.9310  -8.9188
    -8.8925  -8.8902  -8.8895  -8.8198  -8.8149  -8.5172  -8.5166  -8.4701
    -8.3727  -8.3721  -8.1800  -7.5365  -7.4927  -6.9826  -6.9677  -6.9588
    -6.9567  -6.9204  -6.9197  -6.8926  -6.8903  -6.8510  -6.8015  -6.7926
    -6.7078  -6.5840  -6.5114  -5.3389  -4.3996  -4.0794  -4.0779  -3.7090
    -2.8771  -2.5766  -2.5060  -2.4637  -2.3934  -1.8560  -1.8533  -1.8008
    -1.7674  -1.7453  -1.7222  -1.7217  -1.6821  -1.6536  -1.4247  -1.4175
    -0.9699  -0.3028  -0.1253  -0.1180  -0.1164  -0.1085  -0.0761  -0.0673
     0.0581   0.5685   0.6205   0.6790

     the Fermi energy is    -4.2735 ev

!    total energy              =    -854.76177616 Ry
     estimated scf accuracy    <          8.2E-13 Ry
     smearing contrib. (-TS)   =       0.00180730 Ry
     internal energy E=F+TS    =    -854.76358346 Ry

     The total energy is F=E-TS. E is the sum of the following terms:
     one-electron contribution =   -9609.40408787 Ry
     hartree contribution      =    4831.18158222 Ry
     xc contribution           =    -303.88257908 Ry
     ewald contribution        =    4227.34150127 Ry

     total magnetization       =     1.97 Bohr mag/cell
     absolute magnetization    =     5.28 Bohr mag/cell

     convergence has been achieved in  14 iterations

     Forces acting on atoms (cartesian axes, Ry/au):

     atom    1 type  1   force =    -0.00007596    0.00008420   -0.00000001
     atom    2 type  1   force =     0.00003611   -0.00006178    0.00000001
     atom    3 type  1   force =    -0.00003385    0.00010827    0.00000000
     atom    4 type  1   force =    -0.00009098   -0.00001013    0.00000001
     atom    5 type  1   force =    -0.00004239   -0.00003552   -0.00000000
     atom    6 type  1   force =    -0.00001120   -0.00002767    0.00000000
     atom    7 type  1   force =     0.00011791    0.00004475   -0.00000000
     atom    8 type  1   force =    -0.00000879    0.00001545   -0.00000003
     atom    9 type  1   force =    -0.00009778   -0.00007908    0.00000001
     atom   10 type  1   force =     0.00003007   -0.00000385   -0.00000002
     atom   11 type  1   force =     0.00005232    0.00001961    0.00000001
     atom   12 type  1   force =     0.00005482    0.00007446   -0.00000000
     atom   13 type  1   force =    -0.00000834    0.00001578    0.00000001
     atom   14 type  1   force =    -0.00011101    0.00003808    0.00000001
     atom   15 type  1   force =    -0.00001951    0.00009425   -0.00000001
     atom   16 type  1   force =    -0.00002978   -0.00011119    0.00000001
     atom   17 type  1   force =     0.00008148    0.00012642    0.00000000
     atom   18 type  1   force =    -0.00002117   -0.00009749   -0.00000000
     atom   19 type  1   force =     0.00002996   -0.00005096    0.00000001
     atom   20 type  1   force =     0.00009547   -0.00002941    0.00000000
     atom   21 type  1   force =    -0.00014964   -0.00000583    0.00000000
     atom   22 type  1   force =     0.00011139   -0.00002881   -0.00000000
     atom   23 type  1   force =    -0.00007111    0.00006564   -0.00000000
     atom   24 type  1   force =     0.00002335    0.00011594   -0.00000001
     atom   25 type  1   force =    -0.00005754    0.00003460   -0.00000000
     atom   26 type  1   force =     0.00008253    0.00017061   -0.00000001
     atom   27 type  1   force =     0.00003880    0.00003105   -0.00000001
     atom   28 type  1   force =    -0.00011114   -0.00004908    0.00000000
     atom   29 type  2   force =    -0.00009180   -0.00008742   -0.00000000
     atom   30 type  2   force =     0.00012211    0.00003717   -0.00000000
     atom   31 type  1   force =     0.00009844    0.00007213   -0.00000000
     atom   32 type  1   force =    -0.00004608   -0.00001686   -0.00000001
     atom   33 type  1   force =    -0.00018935    0.00001459    0.00000000
     atom   34 type  1   force =    -0.00000109    0.00006806    0.00000000
     atom   35 type  1   force =    -0.00007319    0.00012684    0.00000001
     atom   36 type  1   force =     0.00008588    0.00003282   -0.00000001
     atom   37 type  1   force =     0.00006830    0.00006624    0.00000000
     atom   38 type  1   force =     0.00017131   -0.00013411    0.00000000
     atom   39 type  1   force =     0.00014482   -0.00015054   -0.00000000
     atom   40 type  2   force =    -0.00004801    0.00007875   -0.00000000
     atom   41 type  1   force =     0.00005882   -0.00020006    0.00000000
     atom   42 type  1   force =     0.00002885   -0.00021455   -0.00000000
     atom   43 type  1   force =    -0.00009295   -0.00002609   -0.00000000
     atom   44 type  1   force =    -0.00007213   -0.00005757   -0.00000000
     atom   45 type  1   force =     0.00007376    0.00001662    0.00000000
     atom   46 type  1   force =    -0.00005529    0.00009518   -0.00000000
     atom   47 type  1   force =    -0.00005228   -0.00005678    0.00000001
     atom   48 type  1   force =    -0.00008969   -0.00005717    0.00000000
     atom   49 type  1   force =    -0.00000920    0.00003050   -0.00000000
     atom   50 type  1   force =     0.00004798    0.00003981   -0.00000000
     atom   51 type  1   force =     0.00010088   -0.00017280   -0.00000000
     atom   52 type  1   force =    -0.00006059   -0.00002301    0.00000000
     atom   53 type  1   force =    -0.00002307    0.00002383    0.00000001
     atom   54 type  1   force =     0.00009422    0.00004898   -0.00000001
     atom   55 type  1   force =     0.00002886    0.00000016    0.00000000
     atom   56 type  1   force =     0.00001341    0.00021140    0.00000000
     atom   57 type  1   force =     0.00002690   -0.00004806    0.00000001
     atom   58 type  1   force =    -0.00019063    0.00009328    0.00000000
     atom   59 type  1   force =    -0.00001608   -0.00002651    0.00000001
     atom   60 type  1   force =     0.00003332   -0.00004392    0.00000000
     atom   61 type  1   force =     0.00007271   -0.00012802    0.00000000
     atom   62 type  1   force =     0.00007773   -0.00013449    0.00000000
     atom   63 type  1   force =     0.00007479   -0.00012662   -0.00000000
     atom   64 type  1   force =     0.00002108   -0.00005148    0.00000000
     atom   65 type  1   force =     0.00005640    0.00000506    0.00000000
     atom   66 type  1   force =     0.00011928    0.00023567    0.00000001
     atom   67 type  1   force =    -0.00003983   -0.00009771   -0.00000000
     atom   68 type  1   force =    -0.00008989    0.00015503    0.00000001
     atom   69 type  1   force =     0.00010397   -0.00001490   -0.00000000
     atom   70 type  1   force =    -0.00026369    0.00001444   -0.00000000
     atom   71 type  1   force =    -0.00003297   -0.00004617    0.00000001

     Total force =     0.001044     Total SCF correction =     0.000000
     Energy error            =      2.1E-06 Ry
     Gradient error          =      2.6E-04 Ry/Bohr

     number of scf cycles    =  15
     number of bfgs steps    =  14

     energy             old  =    -854.7617740607 Ry
     energy             new  =    -854.7617761586 Ry

     CASE: energy            _new < energy            _old

     new trust radius        =       0.0005114168 bohr
     new conv_thr            =            1.0E-12 Ry


ATOMIC_POSITIONS (crystal)
C                0.0573336320        0.0544959259        0.0000000028
C                0.1128621556        0.1102353837        0.0000000009
C                0.0573335732        0.2215034408        0.0000000005
C                0.1127295388        0.2779653962       -0.0000000003
C                0.0560069620        0.3892030506        0.0000000011
C                0.1104561644        0.4455055543        0.0000000012
C                0.0523639436        0.5568923172        0.0000000012
C                0.1071252831        0.6131039549        0.0000000001
C                0.0523640199        0.7240769592       -0.0000000021
C                0.1104564366        0.7773712382       -0.0000000001
C                0.0560071085        0.8881230150        0.0000000016
C                0.1127297527        0.9426379364        0.0000000019
C                0.2237715478        0.0547806489       -0.0000000007
C                0.2788135203        0.1114658910       -0.0000000015
C                0.2231252105        0.2233780083       -0.0000000006
C                0.2781259583        0.2805213189       -0.0000000000
C                0.2212838313        0.3909587297        0.0000000018
C                0.2756930869        0.4487306164        0.0000000020
C                0.2154270836        0.5589529773       -0.0000000003
C                0.2756934547        0.6089089860       -0.0000000015
C                0.2212841851        0.7210901827        0.0000000003
C                0.2781263340        0.7746854572        0.0000000012
C                0.2231254708        0.8868295291        0.0000000017
C                0.2788136924        0.9430534057        0.0000000001
C                0.3889646621        0.0573630554       -0.0000000008
C                0.4441966907        0.1156422762       -0.0000000016
C                0.3889414645        0.2292459651       -0.0000000009
C                0.4439531139        0.2894542489       -0.0000000015
C1               0.3835754140        0.4050057435        0.0000000002
C1               0.3835758548        0.5447514864       -0.0000000017
C                0.4439535384        0.5999255797       -0.0000000005
C                0.3889418650        0.7151454575       -0.0000000001
C                0.4441970019        0.7734941094       -0.0000000004
C                0.3889648327        0.8870053277       -0.0000000002
C                0.4440210695        0.9446560961       -0.0000000008
C                0.5542486646        0.0583340767       -0.0000000009
C                0.6095361663        0.1146548530       -0.0000000010
C                0.5552687449        0.2253806754       -0.0000000025
C                0.6157807199        0.2762786664       -0.0000000028
C1               0.5680124059        0.3826607360       -0.0000000047
C                0.6157811097        0.4412742051       -0.0000000005
C                0.5552691148        0.5526840461       -0.0000000002
C                0.6095364951        0.6091425154        0.0000000001
C                0.5542489557        0.7207507490       -0.0000000007
C                0.6097878856        0.7775591323       -0.0000000015
C                0.5545761263        0.8893787612       -0.0000000003
C                0.6097877509        0.9459867823       -0.0000000009
C                0.7217810524        0.0569943385        0.0000000004
C                0.7801192510        0.1096453682        0.0000000008
C                0.7262424974        0.2205024266        0.0000000006
C                0.7813488423        0.2759923681        0.0000000020
C                0.7262427730        0.3865886082        0.0000000021
C                0.7801194442        0.4435689570        0.0000000014
C                0.7217813285        0.5545582245       -0.0000000002
C                0.7764585562        0.6108049315       -0.0000000005
C                0.7202724007        0.7227583627       -0.0000000013
C                0.7757037993        0.7788150267       -0.0000000008
C                0.7202722853        0.8903031210       -0.0000000009
C                0.7764584301        0.9460703487       -0.0000000006
C                0.8903709052        0.0545405303        0.0000000027
C                0.9469838537        0.1097678186        0.0000000035
C                0.8921284419        0.2206024238        0.0000000023
C                0.9469838314        0.2765815900        0.0000000014
C                0.8903710228        0.3884219098        0.0000000007
C                0.9447860693        0.4446660016        0.0000000006
C                0.8872656176        0.5556891957        0.0000000007
C                0.9424576967        0.6120372336        0.0000000003
C                0.8867264671        0.7233035894       -0.0000000016
C                0.9424577295        0.7788386027       -0.0000000021
C                0.8872655518        0.8903787916       -0.0000000006
C                0.9447861150        0.9438813186        0.0000000017



     Writing config-only to output data dir /home/gregb26/links/scratch/qe_tmp/vacancy_relaxed/series/6x6/nspin2/vac_6x6_relax_nspin2.save/ :
     XML data file
     NEW-OLD atomic charge density approx. for the potential

     negative rho (up, down):  1.679E-08 1.668E-08
     Generating pointlists ...

     total cpu time spent up to now is      721.2 secs

     per-process dynamical memory:   235.2 Mb

     Self-consistent Calculation

     iteration #  1     ecut=   100.00 Ry     beta= 0.30
     Davidson diagonalization with overlap
     ethr =  1.00E-06,  avg # of iterations =  2.0

     Threshold (ethr) on eigenvalues was too large:
     Diagonalizing with lowered threshold

     Davidson diagonalization with overlap
     ethr =  4.18E-11,  avg # of iterations =  7.0

     negative rho (up, down):  1.370E-08 1.042E-08

     total cpu time spent up to now is      727.7 secs

     total energy              =    -854.76177681 Ry
     estimated scf accuracy    <       0.00000035 Ry

     total magnetization       =     1.97 Bohr mag/cell
     absolute magnetization    =     5.28 Bohr mag/cell

     iteration #  2     ecut=   100.00 Ry     beta= 0.30
     Davidson diagonalization with overlap
     ethr =  1.23E-10,  avg # of iterations =  2.0

     total cpu time spent up to now is      729.6 secs

     total energy              =    -854.76177683 Ry
     estimated scf accuracy    <       0.00000009 Ry

     total magnetization       =     1.97 Bohr mag/cell
     absolute magnetization    =     5.28 Bohr mag/cell

     iteration #  3     ecut=   100.00 Ry     beta= 0.30
     Davidson diagonalization with overlap
     ethr =  3.05E-11,  avg # of iterations =  2.0

     total cpu time spent up to now is      731.5 secs

     total energy              =    -854.76177684 Ry
     estimated scf accuracy    <       0.00000003 Ry

     total magnetization       =     1.97 Bohr mag/cell
     absolute magnetization    =     5.28 Bohr mag/cell

     iteration #  4     ecut=   100.00 Ry     beta= 0.30
     Davidson diagonalization with overlap
     ethr =  1.01E-11,  avg # of iterations =  3.0

     total cpu time spent up to now is      733.6 secs

     total energy              =    -854.76177684 Ry
     estimated scf accuracy    <          5.9E-09 Ry

     total magnetization       =     1.97 Bohr mag/cell
     absolute magnetization    =     5.28 Bohr mag/cell

     iteration #  5     ecut=   100.00 Ry     beta= 0.30
     Davidson diagonalization with overlap
     ethr =  2.06E-12,  avg # of iterations =  3.5

     total cpu time spent up to now is      735.8 secs

     total energy              =    -854.76177684 Ry
     estimated scf accuracy    <          1.1E-09 Ry

     total magnetization       =     1.97 Bohr mag/cell
     absolute magnetization    =     5.28 Bohr mag/cell

     iteration #  6     ecut=   100.00 Ry     beta= 0.30
     Davidson diagonalization with overlap
     ethr =  3.91E-13,  avg # of iterations =  5.0

     total cpu time spent up to now is      738.3 secs

     total energy              =    -854.76177684 Ry
     estimated scf accuracy    <          2.5E-10 Ry

     total magnetization       =     1.97 Bohr mag/cell
     absolute magnetization    =     5.28 Bohr mag/cell

     iteration #  7     ecut=   100.00 Ry     beta= 0.30
     Davidson diagonalization with overlap
     ethr =  1.00E-13,  avg # of iterations =  3.5

     total cpu time spent up to now is      740.5 secs

     total energy              =    -854.76177684 Ry
     estimated scf accuracy    <          9.1E-11 Ry

     total magnetization       =     1.97 Bohr mag/cell
     absolute magnetization    =     5.28 Bohr mag/cell

     iteration #  8     ecut=   100.00 Ry     beta= 0.30
     Davidson diagonalization with overlap
     ethr =  1.00E-13,  avg # of iterations =  2.0

     total cpu time spent up to now is      742.5 secs

     total energy              =    -854.76177684 Ry
     estimated scf accuracy    <          1.6E-11 Ry

     total magnetization       =     1.97 Bohr mag/cell
     absolute magnetization    =     5.28 Bohr mag/cell

     iteration #  9     ecut=   100.00 Ry     beta= 0.30
     Davidson diagonalization with overlap
     ethr =  1.00E-13,  avg # of iterations =  1.5

     total cpu time spent up to now is      744.4 secs

     total energy              =    -854.76177684 Ry
     estimated scf accuracy    <          5.6E-12 Ry

     total magnetization       =     1.97 Bohr mag/cell
     absolute magnetization    =     5.28 Bohr mag/cell

     iteration # 10     ecut=   100.00 Ry     beta= 0.30
     Davidson diagonalization with overlap
     ethr =  1.00E-13,  avg # of iterations =  1.0

     total cpu time spent up to now is      746.1 secs

     total energy              =    -854.76177684 Ry
     estimated scf accuracy    <          2.8E-12 Ry

     total magnetization       =     1.97 Bohr mag/cell
     absolute magnetization    =     5.28 Bohr mag/cell

     iteration # 11     ecut=   100.00 Ry     beta= 0.30
     Davidson diagonalization with overlap
     ethr =  1.00E-13,  avg # of iterations =  1.0

     total cpu time spent up to now is      747.8 secs

     total energy              =    -854.76177684 Ry
     estimated scf accuracy    <          1.2E-12 Ry

     total magnetization       =     1.97 Bohr mag/cell
     absolute magnetization    =     5.28 Bohr mag/cell

     iteration # 12     ecut=   100.00 Ry     beta= 0.30
     Davidson diagonalization with overlap
     ethr =  1.00E-13,  avg # of iterations =  1.0

     Magnetic moment per site  (integrated on atomic sphere of radius R)
     atom   1 (R=0.038)  charge=  1.5042  magn=  0.0286
     atom   2 (R=0.038)  charge=  1.5021  magn= -0.0131
     atom   3 (R=0.038)  charge=  1.5042  magn=  0.0286
     atom   4 (R=0.038)  charge=  1.5035  magn= -0.0243
     atom   5 (R=0.038)  charge=  1.5043  magn=  0.0319
     atom   6 (R=0.038)  charge=  1.5057  magn= -0.0237
     atom   7 (R=0.038)  charge=  1.5116  magn=  0.0276
     atom   8 (R=0.038)  charge=  1.5218  magn= -0.0119
     atom   9 (R=0.038)  charge=  1.5116  magn=  0.0276
     atom  10 (R=0.038)  charge=  1.5057  magn= -0.0237
     atom  11 (R=0.038)  charge=  1.5043  magn=  0.0319
     atom  12 (R=0.038)  charge=  1.5035  magn= -0.0243
     atom  13 (R=0.038)  charge=  1.4990  magn=  0.0325
     atom  14 (R=0.038)  charge=  1.5014  magn= -0.0242
     atom  15 (R=0.038)  charge=  1.4985  magn=  0.0289
     atom  16 (R=0.038)  charge=  1.5025  magn= -0.0121
     atom  17 (R=0.038)  charge=  1.5027  magn=  0.0298
     atom  18 (R=0.038)  charge=  1.5182  magn= -0.0163
     atom  19 (R=0.038)  charge=  1.5343  magn=  0.0282
     atom  20 (R=0.038)  charge=  1.5182  magn= -0.0163
     atom  21 (R=0.038)  charge=  1.5027  magn=  0.0298
     atom  22 (R=0.038)  charge=  1.5025  magn= -0.0121
     atom  23 (R=0.038)  charge=  1.4985  magn=  0.0289
     atom  24 (R=0.038)  charge=  1.5014  magn= -0.0242
     atom  25 (R=0.038)  charge=  1.4881  magn=  0.0294
     atom  26 (R=0.038)  charge=  1.4829  magn= -0.0265
     atom  27 (R=0.038)  charge=  1.4699  magn=  0.0316
     atom  28 (R=0.038)  charge=  1.4464  magn= -0.0276
     atom  29 (R=0.038)  charge=  1.3838  magn=  0.0489
     atom  30 (R=0.038)  charge=  1.3838  magn=  0.0489
     atom  31 (R=0.038)  charge=  1.4464  magn= -0.0276
     atom  32 (R=0.038)  charge=  1.4699  magn=  0.0316
     atom  33 (R=0.038)  charge=  1.4829  magn= -0.0265
     atom  34 (R=0.038)  charge=  1.4881  magn=  0.0294
     atom  35 (R=0.038)  charge=  1.4871  magn= -0.0142
     atom  36 (R=0.038)  charge=  1.5016  magn=  0.0266
     atom  37 (R=0.038)  charge=  1.4955  magn= -0.0147
     atom  38 (R=0.038)  charge=  1.5007  magn=  0.0410
     atom  39 (R=0.038)  charge=  1.5284  magn= -0.0234
     atom  40 (R=0.038)  charge=  1.4812  magn=  0.3377
     atom  41 (R=0.038)  charge=  1.5284  magn= -0.0234
     atom  42 (R=0.038)  charge=  1.5007  magn=  0.0410
     atom  43 (R=0.038)  charge=  1.4955  magn= -0.0147
     atom  44 (R=0.038)  charge=  1.5016  magn=  0.0266
     atom  45 (R=0.038)  charge=  1.4968  magn= -0.0252
     atom  46 (R=0.038)  charge=  1.4989  magn=  0.0290
     atom  47 (R=0.038)  charge=  1.4968  magn= -0.0252
     atom  48 (R=0.038)  charge=  1.4999  magn=  0.0335
     atom  49 (R=0.038)  charge=  1.5109  magn= -0.0221
     atom  50 (R=0.038)  charge=  1.5135  magn=  0.0479
     atom  51 (R=0.038)  charge=  1.5124  magn= -0.0178
     atom  52 (R=0.038)  charge=  1.5135  magn=  0.0479
     atom  53 (R=0.038)  charge=  1.5109  magn= -0.0221
     atom  54 (R=0.038)  charge=  1.4999  magn=  0.0335
     atom  55 (R=0.038)  charge=  1.5024  magn= -0.0255
     atom  56 (R=0.038)  charge=  1.5010  magn=  0.0270
     atom  57 (R=0.038)  charge=  1.4996  magn= -0.0132
     atom  58 (R=0.038)  charge=  1.5010  magn=  0.0270
     atom  59 (R=0.038)  charge=  1.5024  magn= -0.0255
     atom  60 (R=0.038)  charge=  1.5083  magn=  0.0292
     atom  61 (R=0.038)  charge=  1.5067  magn= -0.0254
     atom  62 (R=0.038)  charge=  1.5104  magn=  0.0321
     atom  63 (R=0.038)  charge=  1.5067  magn= -0.0254
     atom  64 (R=0.038)  charge=  1.5083  magn=  0.0292
     atom  65 (R=0.038)  charge=  1.5043  magn= -0.0130
     atom  66 (R=0.038)  charge=  1.5049  magn=  0.0287
     atom  67 (R=0.038)  charge=  1.5082  magn= -0.0241
     atom  68 (R=0.038)  charge=  1.5034  magn=  0.0318
     atom  69 (R=0.038)  charge=  1.5082  magn= -0.0241
     atom  70 (R=0.038)  charge=  1.5049  magn=  0.0287
     atom  71 (R=0.038)  charge=  1.5043  magn= -0.0130

     total cpu time spent up to now is      749.5 secs

     End of self-consistent calculation

 ------ SPIN UP ------------


          k = 0.0000 0.0000 0.0000 (171510 PWs)   bands (ev):

   -23.8022 -23.2518 -23.2132 -23.1858 -23.1495 -23.0784 -22.8699 -21.9243
   -21.9065 -21.8914 -21.8698 -21.7738 -21.6534 -21.3128 -21.2529 -21.2473
   -21.1918 -21.1076 -20.7376 -19.4578 -19.4578 -19.4480 -19.4156 -19.4147
   -19.3936 -19.3804 -19.3641 -19.3094 -19.3052 -19.1964 -18.8451 -18.5849
   -18.5056 -18.0270 -17.5162 -17.4332 -17.3665 -16.9646 -16.8685 -16.7760
   -16.4630 -15.7640 -15.7580 -15.7544 -15.7386 -15.7292 -15.7251 -15.7086
   -15.6755 -15.6501 -15.4279 -15.4002 -14.8060 -14.7175 -14.4933 -13.9786
   -13.9758 -13.9037 -13.7503 -13.7441 -13.0699 -12.4409 -12.4331 -12.3907
   -12.3790 -12.3779 -12.3697 -12.3219 -12.3058 -12.2994 -12.2777 -12.1692
   -12.1216 -12.1119 -12.0439 -12.0059 -11.8914 -11.6258 -11.6072 -11.1966
   -11.1800 -11.1595 -11.1271 -11.0654 -10.9299 -10.8215 -10.8022 -10.7576
   -10.6993 -10.6815 -10.6650 -10.6550 -10.4479 -10.4317 -10.3208 -10.1406
   -10.0914 -10.0431 -10.0200  -9.7920  -9.7767  -9.6914  -9.6651  -9.6476
    -9.6463  -9.6277  -9.6245  -9.6159  -9.5419  -9.4143  -8.9908  -8.9585
    -8.9423  -8.9342  -8.9152  -8.8685  -8.8358  -8.5688  -8.5358  -8.4912
    -8.4726  -8.4106  -8.3933  -7.6185  -7.5131  -7.0403  -7.0132  -7.0007
    -6.9826  -6.9804  -6.9605  -6.9468  -6.9296  -6.8901  -6.8864  -6.8283
    -6.7600  -6.6269  -6.5828  -5.5300  -5.0499  -4.4082  -4.3820  -4.1186
    -3.7516  -2.6453  -2.6035  -2.5486  -2.5077  -1.9095  -1.9014  -1.8333
    -1.8129  -1.8043  -1.7677  -1.7529  -1.7226  -1.7017  -1.6142  -1.4958
    -0.9797  -0.4021  -0.1319  -0.1265  -0.1234  -0.1148  -0.0856  -0.0742
     0.0308   0.5166   0.5945   0.6099

 ------ SPIN DOWN ----------


          k = 0.0000 0.0000 0.0000 (171510 PWs)   bands (ev):

   -23.7769 -23.2121 -23.1926 -23.1640 -23.1300 -23.0564 -22.8085 -21.8870
   -21.8702 -21.8621 -21.8469 -21.7602 -21.6155 -21.2669 -21.2285 -21.2264
   -21.1569 -21.0927 -20.6565 -19.4335 -19.4304 -19.4269 -19.4019 -19.3854
   -19.3655 -19.3542 -19.3394 -19.2896 -19.2160 -19.1796 -18.8164 -18.5597
   -18.4538 -17.9180 -17.4818 -17.4055 -17.3515 -16.9541 -16.7514 -16.7462
   -16.4259 -15.7441 -15.7385 -15.7299 -15.7091 -15.7064 -15.7041 -15.6784
   -15.6518 -15.6339 -15.3770 -15.3226 -14.7837 -14.6940 -14.4076 -13.9456
   -13.9454 -13.8899 -13.7286 -13.6834 -12.9737 -12.4190 -12.4187 -12.3807
   -12.3606 -12.3575 -12.3434 -12.2908 -12.2861 -12.2799 -12.2490 -12.1513
   -12.0958 -12.0769 -12.0262 -11.9791 -11.8496 -11.6085 -11.5262 -11.1496
   -11.1398 -11.1166 -11.0900 -11.0251 -10.8789 -10.7669 -10.7543 -10.7437
   -10.6866 -10.6666 -10.6420 -10.6404 -10.4333 -10.4043 -10.2161 -10.1026
   -10.0667 -10.0139 -10.0040  -9.7673  -9.7425  -9.6694  -9.6102  -9.6062
    -9.6043  -9.6015  -9.5936  -9.5842  -9.5136  -9.3482  -8.9309  -8.9188
    -8.8925  -8.8901  -8.8894  -8.8200  -8.8149  -8.5173  -8.5170  -8.4700
    -8.3724  -8.3720  -8.1794  -7.5367  -7.4924  -6.9825  -6.9675  -6.9587
    -6.9567  -6.9204  -6.9196  -6.8927  -6.8904  -6.8512  -6.8015  -6.7928
    -6.7079  -6.5842  -6.5114  -5.3388  -4.3996  -4.0794  -4.0778  -3.7089
    -2.8775  -2.5766  -2.5058  -2.4636  -2.3957  -1.8559  -1.8531  -1.8007
    -1.7674  -1.7455  -1.7222  -1.7218  -1.6820  -1.6537  -1.4248  -1.4174
    -0.9699  -0.3030  -0.1253  -0.1180  -0.1164  -0.1085  -0.0760  -0.0673
     0.0581   0.5685   0.6206   0.6789

     the Fermi energy is    -4.2736 ev

!    total energy              =    -854.76177684 Ry
     estimated scf accuracy    <          5.8E-13 Ry
     smearing contrib. (-TS)   =       0.00180820 Ry
     internal energy E=F+TS    =    -854.76358505 Ry

     The total energy is F=E-TS. E is the sum of the following terms:
     one-electron contribution =   -9609.40226709 Ry
     hartree contribution      =    4831.18062879 Ry
     xc contribution           =    -303.88254272 Ry
     ewald contribution        =    4227.34059597 Ry

     total magnetization       =     1.97 Bohr mag/cell
     absolute magnetization    =     5.28 Bohr mag/cell

     convergence has been achieved in  12 iterations

     Forces acting on atoms (cartesian axes, Ry/au):

     atom    1 type  1   force =     0.00005507   -0.00003702    0.00000000
     atom    2 type  1   force =    -0.00004337    0.00007599   -0.00000001
     atom    3 type  1   force =     0.00000523   -0.00006577    0.00000000
     atom    4 type  1   force =    -0.00000369    0.00005709    0.00000000
     atom    5 type  1   force =     0.00003543    0.00008824   -0.00000001
     atom    6 type  1   force =     0.00008730    0.00000279    0.00000001
     atom    7 type  1   force =    -0.00004107   -0.00006047   -0.00000000
     atom    8 type  1   force =     0.00001528   -0.00002586   -0.00000001
     atom    9 type  1   force =     0.00007289    0.00000549    0.00000001
     atom   10 type  1   force =    -0.00004589   -0.00007336   -0.00000000
     atom   11 type  1   force =    -0.00009378    0.00001376   -0.00000000
     atom   12 type  1   force =    -0.00004715    0.00003281    0.00000000
     atom   13 type  1   force =    -0.00000494    0.00000959    0.00000000
     atom   14 type  1   force =     0.00004074    0.00000683    0.00000000
     atom   15 type  1   force =    -0.00011924   -0.00001485   -0.00000000
     atom   16 type  1   force =     0.00010168    0.00005050    0.00000000
     atom   17 type  1   force =    -0.00008542   -0.00002992   -0.00000000
     atom   18 type  1   force =    -0.00000444   -0.00003643   -0.00000001
     atom   19 type  1   force =     0.00000775   -0.00001302    0.00000001
     atom   20 type  1   force =     0.00003438   -0.00001296    0.00000000
     atom   21 type  1   force =     0.00006918    0.00005975   -0.00000000
     atom   22 type  1   force =    -0.00009434   -0.00006163   -0.00000000
     atom   23 type  1   force =     0.00007309    0.00009668   -0.00000000
     atom   24 type  1   force =    -0.00002556   -0.00003083    0.00000000
     atom   25 type  1   force =    -0.00001955    0.00011139   -0.00000001
     atom   26 type  1   force =     0.00000958    0.00001736    0.00000000
     atom   27 type  1   force =     0.00005309    0.00000329    0.00000000
     atom   28 type  1   force =    -0.00004036   -0.00011563   -0.00000000
     atom   29 type  2   force =    -0.00009270    0.00001285   -0.00000000
     atom   30 type  2   force =     0.00003578    0.00008765    0.00000000
     atom   31 type  1   force =     0.00012006   -0.00002160    0.00000000
     atom   32 type  1   force =    -0.00002935   -0.00004354    0.00000000
     atom   33 type  1   force =    -0.00001989    0.00000113    0.00000000
     atom   34 type  1   force =    -0.00008648    0.00007295    0.00000000
     atom   35 type  1   force =    -0.00002856    0.00004967    0.00000001
     atom   36 type  1   force =    -0.00002867    0.00009354    0.00000000
     atom   37 type  1   force =    -0.00004008   -0.00005591   -0.00000000
     atom   38 type  1   force =     0.00002991   -0.00004720    0.00000000
     atom   39 type  1   force =     0.00009284   -0.00002286   -0.00000001
     atom   40 type  2   force =     0.00006866   -0.00011699    0.00000000
     atom   41 type  1   force =    -0.00002991   -0.00009210   -0.00000001
     atom   42 type  1   force =     0.00002541   -0.00004951   -0.00000000
     atom   43 type  1   force =     0.00006769    0.00000713   -0.00000000
     atom   44 type  1   force =    -0.00006782    0.00007165    0.00000000
     atom   45 type  1   force =    -0.00004394    0.00004880    0.00000001
     atom   46 type  1   force =    -0.00003978    0.00006792   -0.00000001
     atom   47 type  1   force =    -0.00002087    0.00006196    0.00000000
     atom   48 type  1   force =     0.00007928    0.00003243   -0.00000001
     atom   49 type  1   force =     0.00004914   -0.00004942    0.00000001
     atom   50 type  1   force =     0.00007343   -0.00011752   -0.00000001
     atom   51 type  1   force =     0.00002207   -0.00004050   -0.00000000
     atom   52 type  1   force =     0.00006491   -0.00012117   -0.00000000
     atom   53 type  1   force =     0.00001765   -0.00006787   -0.00000000
     atom   54 type  1   force =    -0.00006956   -0.00005240    0.00000000
     atom   55 type  1   force =     0.00004635    0.00009854   -0.00000000
     atom   56 type  1   force =    -0.00002186    0.00004338    0.00000000
     atom   57 type  1   force =    -0.00005207    0.00008883   -0.00000000
     atom   58 type  1   force =    -0.00002761    0.00003968   -0.00000000
     atom   59 type  1   force =    -0.00010888    0.00000901    0.00000000
     atom   60 type  1   force =    -0.00005501    0.00007590   -0.00000000
     atom   61 type  1   force =    -0.00001298   -0.00002402   -0.00000000
     atom   62 type  1   force =     0.00003387   -0.00005824    0.00000000
     atom   63 type  1   force =     0.00002745   -0.00000109   -0.00000000
     atom   64 type  1   force =    -0.00003846    0.00008631    0.00000001
     atom   65 type  1   force =     0.00002520    0.00000606   -0.00000000
     atom   66 type  1   force =     0.00001837   -0.00002078   -0.00000000
     atom   67 type  1   force =     0.00011767    0.00006593    0.00000000
     atom   68 type  1   force =     0.00003300   -0.00005786    0.00000000
     atom   69 type  1   force =    -0.00011624   -0.00006898    0.00000000
     atom   70 type  1   force =     0.00000825   -0.00002699    0.00000000
     atom   71 type  1   force =    -0.00001813   -0.00001859    0.00000000

     Total force =     0.000697     Total SCF correction =     0.000000
     Energy error            =      6.9E-07 Ry
     Gradient error          =      1.2E-04 Ry/Bohr

     number of scf cycles    =  16
     number of bfgs steps    =  15

     energy             old  =    -854.7617761586 Ry
     energy             new  =    -854.7617768438 Ry

     CASE: energy            _new < energy            _old

     new trust radius        =       0.0003361625 bohr
     new conv_thr            =            1.0E-12 Ry


ATOMIC_POSITIONS (crystal)
C                0.0573351150        0.0544956860        0.0000000028
C                0.1128595067        0.1102367365        0.0000000009
C                0.0573350617        0.2215022499        0.0000000007
C                0.1127274966        0.2779665627        0.0000000000
C                0.0560054310        0.3892046475        0.0000000009
C                0.1104574503        0.4455063659        0.0000000013
C                0.0523669606        0.5568907233        0.0000000011
C                0.1071300555        0.6131015824       -0.0000000004
C                0.0523670237        0.7240755508       -0.0000000018
C                0.1104576832        0.7773691981       -0.0000000002
C                0.0560055625        0.8881229865        0.0000000016
C                0.1127276674        0.9426388902        0.0000000019
C                0.2237704374        0.0547812385       -0.0000000005
C                0.2788121110        0.1114680657       -0.0000000012
C                0.2231229344        0.2233779926       -0.0000000007
C                0.2781272735        0.2805240546       -0.0000000000
C                0.2212829338        0.3909581410        0.0000000019
C                0.2756965477        0.4487271807        0.0000000017
C                0.2154329475        0.5589500650       -0.0000000002
C                0.2756968635        0.6089090585       -0.0000000016
C                0.2212832462        0.7210917456        0.0000000002
C                0.2781275855        0.7746814951        0.0000000011
C                0.2231231526        0.8868319075        0.0000000015
C                0.2788122492        0.9430527255        0.0000000002
C                0.3889583116        0.0573682201       -0.0000000008
C                0.4441957293        0.1156460105       -0.0000000015
C                0.3889425812        0.2292474735       -0.0000000009
C                0.4439585003        0.2894465024       -0.0000000016
C1               0.3835770029        0.4049930642        0.0000000001
C1               0.3835773888        0.5447626693       -0.0000000018
C                0.4439588556        0.5999280017       -0.0000000005
C                0.3889429259        0.7151428941       -0.0000000002
C                0.4441959844        0.7734913820       -0.0000000004
C                0.3889584557        0.8870065525       -0.0000000001
C                0.4440141516        0.9446595603       -0.0000000005
C                0.5542446570        0.0583399850       -0.0000000009
C                0.6095381082        0.1146551131       -0.0000000010
C                0.5552741039        0.2253811859       -0.0000000024
C                0.6157857923        0.2762800724       -0.0000000030
C1               0.5680118402        0.3826610252       -0.0000000046
C                0.6157861034        0.4412676442       -0.0000000008
C                0.5552744300        0.5526781604       -0.0000000004
C                0.6095383866        0.6091402949       -0.0000000001
C                0.5542449026        0.7207488150       -0.0000000007
C                0.6097824359        0.7775619698       -0.0000000012
C                0.5545675680        0.8893830123       -0.0000000005
C                0.6097823230        0.9459893254       -0.0000000008
C                0.7217815808        0.0569942413        0.0000000003
C                0.7801202598        0.1096445376        0.0000000010
C                0.7262471442        0.2205013440        0.0000000002
C                0.7813538898        0.2759898045        0.0000000020
C                0.7262473641        0.3865850552        0.0000000020
C                0.7801204423        0.4435687315        0.0000000014
C                0.7217818074        0.5545577416       -0.0000000002
C                0.7764543044        0.6108117773       -0.0000000005
C                0.7202667037        0.7227633335       -0.0000000013
C                0.7756986978        0.7788175376       -0.0000000007
C                0.7202666108        0.8903037519       -0.0000000009
C                0.7764541863        0.9460677003       -0.0000000005
C                0.8903696978        0.0545398456        0.0000000027
C                0.9469851260        0.1097662797        0.0000000036
C                0.8921345500        0.2205993817        0.0000000025
C                0.9469851212        0.2765818553        0.0000000013
C                0.8903697835        0.3884238124        0.0000000009
C                0.9447850257        0.4446690307        0.0000000006
C                0.8872645303        0.5556931186        0.0000000007
C                0.9424588804        0.6120405652        0.0000000004
C                0.8867275706        0.7233030143       -0.0000000014
C                0.9424589073        0.7788340680       -0.0000000021
C                0.8872644833        0.8903759081       -0.0000000004
C                0.9447850527        0.9438793352        0.0000000019



     Writing config-only to output data dir /home/gregb26/links/scratch/qe_tmp/vacancy_relaxed/series/6x6/nspin2/vac_6x6_relax_nspin2.save/ :
     XML data file
     NEW-OLD atomic charge density approx. for the potential

     negative rho (up, down):  8.376E-09 1.127E-08
     Generating pointlists ...

     total cpu time spent up to now is      750.6 secs

     per-process dynamical memory:   235.7 Mb

     Self-consistent Calculation

     iteration #  1     ecut=   100.00 Ry     beta= 0.30
     Davidson diagonalization with overlap
     ethr =  1.00E-06,  avg # of iterations =  1.5

     Threshold (ethr) on eigenvalues was too large:
     Diagonalizing with lowered threshold

     Davidson diagonalization with overlap
     ethr =  1.61E-11,  avg # of iterations =  7.0

     negative rho (up, down):  3.810E-08 4.048E-08

     total cpu time spent up to now is      757.0 secs

     total energy              =    -854.76177716 Ry
     estimated scf accuracy    <       0.00000013 Ry

     total magnetization       =     1.97 Bohr mag/cell
     absolute magnetization    =     5.28 Bohr mag/cell

     iteration #  2     ecut=   100.00 Ry     beta= 0.30
     Davidson diagonalization with overlap
     ethr =  4.46E-11,  avg # of iterations =  2.0

     negative rho (up, down):  2.087E-08 2.241E-08

     total cpu time spent up to now is      758.9 secs

     total energy              =    -854.76177717 Ry
     estimated scf accuracy    <       0.00000003 Ry

     total magnetization       =     1.97 Bohr mag/cell
     absolute magnetization    =     5.28 Bohr mag/cell

     iteration #  3     ecut=   100.00 Ry     beta= 0.30
     Davidson diagonalization with overlap
     ethr =  1.20E-11,  avg # of iterations =  2.0

     negative rho (up, down):  9.735E-09 1.065E-08

     total cpu time spent up to now is      760.9 secs

     total energy              =    -854.76177717 Ry
     estimated scf accuracy    <       0.00000001 Ry

     total magnetization       =     1.97 Bohr mag/cell
     absolute magnetization    =     5.28 Bohr mag/cell

     iteration #  4     ecut=   100.00 Ry     beta= 0.30
     Davidson diagonalization with overlap
     ethr =  4.00E-12,  avg # of iterations =  2.0

     total cpu time spent up to now is      762.9 secs

     total energy              =    -854.76177717 Ry
     estimated scf accuracy    <          2.7E-09 Ry

     total magnetization       =     1.97 Bohr mag/cell
     absolute magnetization    =     5.28 Bohr mag/cell

     iteration #  5     ecut=   100.00 Ry     beta= 0.30
     Davidson diagonalization with overlap
     ethr =  9.35E-13,  avg # of iterations =  2.0

     total cpu time spent up to now is      765.0 secs

     total energy              =    -854.76177717 Ry
     estimated scf accuracy    <          3.5E-10 Ry

     total magnetization       =     1.97 Bohr mag/cell
     absolute magnetization    =     5.28 Bohr mag/cell

     iteration #  6     ecut=   100.00 Ry     beta= 0.30
     Davidson diagonalization with overlap
     ethr =  1.24E-13,  avg # of iterations =  4.0

     total cpu time spent up to now is      767.5 secs

     total energy              =    -854.76177717 Ry
     estimated scf accuracy    <          9.2E-11 Ry

     total magnetization       =     1.97 Bohr mag/cell
     absolute magnetization    =     5.28 Bohr mag/cell

     iteration #  7     ecut=   100.00 Ry     beta= 0.30
     Davidson diagonalization with overlap
     ethr =  1.00E-13,  avg # of iterations =  1.0

     total cpu time spent up to now is      769.3 secs

     total energy              =    -854.76177717 Ry
     estimated scf accuracy    <          3.0E-11 Ry

     total magnetization       =     1.97 Bohr mag/cell
     absolute magnetization    =     5.28 Bohr mag/cell

     iteration #  8     ecut=   100.00 Ry     beta= 0.30
     Davidson diagonalization with overlap
     ethr =  1.00E-13,  avg # of iterations =  1.5

     total cpu time spent up to now is      771.2 secs

     total energy              =    -854.76177717 Ry
     estimated scf accuracy    <          6.0E-12 Ry

     total magnetization       =     1.97 Bohr mag/cell
     absolute magnetization    =     5.28 Bohr mag/cell

     iteration #  9     ecut=   100.00 Ry     beta= 0.30
     Davidson diagonalization with overlap
     ethr =  1.00E-13,  avg # of iterations =  1.0

     total cpu time spent up to now is      773.0 secs

     total energy              =    -854.76177717 Ry
     estimated scf accuracy    <          3.2E-12 Ry

     total magnetization       =     1.97 Bohr mag/cell
     absolute magnetization    =     5.28 Bohr mag/cell

     iteration # 10     ecut=   100.00 Ry     beta= 0.30
     Davidson diagonalization with overlap
     ethr =  1.00E-13,  avg # of iterations =  1.0

     total cpu time spent up to now is      774.7 secs

     total energy              =    -854.76177717 Ry
     estimated scf accuracy    <          2.1E-12 Ry

     total magnetization       =     1.97 Bohr mag/cell
     absolute magnetization    =     5.28 Bohr mag/cell

     iteration # 11     ecut=   100.00 Ry     beta= 0.30
     Davidson diagonalization with overlap
     ethr =  1.00E-13,  avg # of iterations =  1.0

     Magnetic moment per site  (integrated on atomic sphere of radius R)
     atom   1 (R=0.038)  charge=  1.5043  magn=  0.0286
     atom   2 (R=0.038)  charge=  1.5021  magn= -0.0131
     atom   3 (R=0.038)  charge=  1.5043  magn=  0.0286
     atom   4 (R=0.038)  charge=  1.5035  magn= -0.0243
     atom   5 (R=0.038)  charge=  1.5043  magn=  0.0319
     atom   6 (R=0.038)  charge=  1.5057  magn= -0.0237
     atom   7 (R=0.038)  charge=  1.5116  magn=  0.0276
     atom   8 (R=0.038)  charge=  1.5218  magn= -0.0119
     atom   9 (R=0.038)  charge=  1.5116  magn=  0.0276
     atom  10 (R=0.038)  charge=  1.5057  magn= -0.0237
     atom  11 (R=0.038)  charge=  1.5043  magn=  0.0319
     atom  12 (R=0.038)  charge=  1.5035  magn= -0.0243
     atom  13 (R=0.038)  charge=  1.4990  magn=  0.0325
     atom  14 (R=0.038)  charge=  1.5014  magn= -0.0242
     atom  15 (R=0.038)  charge=  1.4985  magn=  0.0289
     atom  16 (R=0.038)  charge=  1.5024  magn= -0.0121
     atom  17 (R=0.038)  charge=  1.5028  magn=  0.0298
     atom  18 (R=0.038)  charge=  1.5182  magn= -0.0163
     atom  19 (R=0.038)  charge=  1.5343  magn=  0.0282
     atom  20 (R=0.038)  charge=  1.5182  magn= -0.0163
     atom  21 (R=0.038)  charge=  1.5028  magn=  0.0298
     atom  22 (R=0.038)  charge=  1.5024  magn= -0.0121
     atom  23 (R=0.038)  charge=  1.4985  magn=  0.0289
     atom  24 (R=0.038)  charge=  1.5014  magn= -0.0242
     atom  25 (R=0.038)  charge=  1.4881  magn=  0.0294
     atom  26 (R=0.038)  charge=  1.4830  magn= -0.0265
     atom  27 (R=0.038)  charge=  1.4699  magn=  0.0316
     atom  28 (R=0.038)  charge=  1.4465  magn= -0.0275
     atom  29 (R=0.038)  charge=  1.3839  magn=  0.0489
     atom  30 (R=0.038)  charge=  1.3839  magn=  0.0489
     atom  31 (R=0.038)  charge=  1.4465  magn= -0.0275
     atom  32 (R=0.038)  charge=  1.4699  magn=  0.0316
     atom  33 (R=0.038)  charge=  1.4830  magn= -0.0265
     atom  34 (R=0.038)  charge=  1.4881  magn=  0.0294
     atom  35 (R=0.038)  charge=  1.4871  magn= -0.0142
     atom  36 (R=0.038)  charge=  1.5016  magn=  0.0266
     atom  37 (R=0.038)  charge=  1.4955  magn= -0.0147
     atom  38 (R=0.038)  charge=  1.5007  magn=  0.0410
     atom  39 (R=0.038)  charge=  1.5284  magn= -0.0234
     atom  40 (R=0.038)  charge=  1.4812  magn=  0.3376
     atom  41 (R=0.038)  charge=  1.5284  magn= -0.0234
     atom  42 (R=0.038)  charge=  1.5007  magn=  0.0410
     atom  43 (R=0.038)  charge=  1.4955  magn= -0.0147
     atom  44 (R=0.038)  charge=  1.5016  magn=  0.0266
     atom  45 (R=0.038)  charge=  1.4968  magn= -0.0252
     atom  46 (R=0.038)  charge=  1.4989  magn=  0.0290
     atom  47 (R=0.038)  charge=  1.4968  magn= -0.0252
     atom  48 (R=0.038)  charge=  1.4999  magn=  0.0335
     atom  49 (R=0.038)  charge=  1.5109  magn= -0.0221
     atom  50 (R=0.038)  charge=  1.5135  magn=  0.0479
     atom  51 (R=0.038)  charge=  1.5124  magn= -0.0178
     atom  52 (R=0.038)  charge=  1.5135  magn=  0.0479
     atom  53 (R=0.038)  charge=  1.5109  magn= -0.0221
     atom  54 (R=0.038)  charge=  1.4999  magn=  0.0335
     atom  55 (R=0.038)  charge=  1.5023  magn= -0.0255
     atom  56 (R=0.038)  charge=  1.5010  magn=  0.0270
     atom  57 (R=0.038)  charge=  1.4995  magn= -0.0132
     atom  58 (R=0.038)  charge=  1.5010  magn=  0.0270
     atom  59 (R=0.038)  charge=  1.5023  magn= -0.0255
     atom  60 (R=0.038)  charge=  1.5083  magn=  0.0292
     atom  61 (R=0.038)  charge=  1.5067  magn= -0.0254
     atom  62 (R=0.038)  charge=  1.5104  magn=  0.0321
     atom  63 (R=0.038)  charge=  1.5067  magn= -0.0254
     atom  64 (R=0.038)  charge=  1.5083  magn=  0.0292
     atom  65 (R=0.038)  charge=  1.5043  magn= -0.0130
     atom  66 (R=0.038)  charge=  1.5048  magn=  0.0287
     atom  67 (R=0.038)  charge=  1.5082  magn= -0.0241
     atom  68 (R=0.038)  charge=  1.5034  magn=  0.0318
     atom  69 (R=0.038)  charge=  1.5082  magn= -0.0241
     atom  70 (R=0.038)  charge=  1.5048  magn=  0.0287
     atom  71 (R=0.038)  charge=  1.5043  magn= -0.0130

     total cpu time spent up to now is      776.5 secs

     End of self-consistent calculation

 ------ SPIN UP ------------


          k = 0.0000 0.0000 0.0000 (171510 PWs)   bands (ev):

   -23.8022 -23.2518 -23.2131 -23.1858 -23.1495 -23.0785 -22.8700 -21.9243
   -21.9065 -21.8914 -21.8698 -21.7739 -21.6534 -21.3127 -21.2529 -21.2474
   -21.1919 -21.1077 -20.7375 -19.4578 -19.4577 -19.4481 -19.4156 -19.4148
   -19.3938 -19.3804 -19.3640 -19.3094 -19.3052 -19.1966 -18.8451 -18.5850
   -18.5057 -18.0269 -17.5162 -17.4332 -17.3666 -16.9647 -16.8686 -16.7760
   -16.4629 -15.7641 -15.7580 -15.7543 -15.7387 -15.7292 -15.7252 -15.7087
   -15.6756 -15.6500 -15.4278 -15.4003 -14.8060 -14.7174 -14.4932 -13.9785
   -13.9758 -13.9036 -13.7503 -13.7442 -13.0699 -12.4408 -12.4330 -12.3906
   -12.3791 -12.3779 -12.3697 -12.3221 -12.3059 -12.2994 -12.2777 -12.1693
   -12.1217 -12.1120 -12.0441 -12.0059 -11.8914 -11.6259 -11.6072 -11.1966
   -11.1800 -11.1595 -11.1271 -11.0654 -10.9296 -10.8215 -10.8021 -10.7577
   -10.6994 -10.6815 -10.6652 -10.6551 -10.4480 -10.4317 -10.3203 -10.1405
   -10.0914 -10.0432 -10.0202  -9.7922  -9.7767  -9.6915  -9.6651  -9.6476
    -9.6463  -9.6279  -9.6247  -9.6159  -9.5420  -9.4143  -8.9908  -8.9584
    -8.9421  -8.9342  -8.9152  -8.8687  -8.8359  -8.5685  -8.5358  -8.4912
    -8.4726  -8.4100  -8.3935  -7.6186  -7.5131  -7.0404  -7.0133  -7.0006
    -6.9827  -6.9804  -6.9605  -6.9469  -6.9295  -6.8900  -6.8864  -6.8285
    -6.7599  -6.6270  -6.5828  -5.5298  -5.0497  -4.4082  -4.3820  -4.1186
    -3.7515  -2.6453  -2.6048  -2.5485  -2.5077  -1.9096  -1.9015  -1.8332
    -1.8130  -1.8042  -1.7677  -1.7527  -1.7226  -1.7016  -1.6141  -1.4957
    -0.9797  -0.4020  -0.1319  -0.1265  -0.1234  -0.1148  -0.0857  -0.0742
     0.0308   0.5167   0.5945   0.6099

 ------ SPIN DOWN ----------


          k = 0.0000 0.0000 0.0000 (171510 PWs)   bands (ev):

   -23.7769 -23.2122 -23.1926 -23.1640 -23.1300 -23.0565 -22.8086 -21.8869
   -21.8702 -21.8621 -21.8469 -21.7603 -21.6155 -21.2668 -21.2285 -21.2265
   -21.1571 -21.0928 -20.6565 -19.4334 -19.4304 -19.4269 -19.4020 -19.3854
   -19.3656 -19.3542 -19.3393 -19.2896 -19.2160 -19.1797 -18.8164 -18.5598
   -18.4539 -17.9179 -17.4818 -17.4055 -17.3516 -16.9542 -16.7514 -16.7463
   -16.4258 -15.7441 -15.7385 -15.7299 -15.7091 -15.7065 -15.7042 -15.6785
   -15.6519 -15.6338 -15.3770 -15.3226 -14.7836 -14.6940 -14.4076 -13.9456
   -13.9453 -13.8899 -13.7286 -13.6835 -12.9737 -12.4190 -12.4187 -12.3806
   -12.3605 -12.3574 -12.3434 -12.2909 -12.2863 -12.2800 -12.2490 -12.1514
   -12.0959 -12.0770 -12.0264 -11.9791 -11.8496 -11.6085 -11.5262 -11.1496
   -11.1397 -11.1166 -11.0900 -11.0252 -10.8787 -10.7668 -10.7543 -10.7438
   -10.6867 -10.6666 -10.6421 -10.6406 -10.4333 -10.4043 -10.2157 -10.1026
   -10.0668 -10.0139 -10.0042  -9.7675  -9.7425  -9.6695  -9.6104  -9.6062
    -9.6044  -9.6017  -9.5937  -9.5842  -9.5137  -9.3482  -8.9309  -8.9188
    -8.8926  -8.8902  -8.8893  -8.8201  -8.8150  -8.5173  -8.5169  -8.4700
    -8.3726  -8.3720  -8.1784  -7.5368  -7.4924  -6.9826  -6.9676  -6.9586
    -6.9568  -6.9205  -6.9196  -6.8927  -6.8903  -6.8512  -6.8015  -6.7929
    -6.7078  -6.5843  -6.5114  -5.3386  -4.3997  -4.0795  -4.0779  -3.7087
    -2.8775  -2.5766  -2.5057  -2.4636  -2.3970  -1.8560  -1.8532  -1.8007
    -1.7674  -1.7454  -1.7222  -1.7216  -1.6820  -1.6536  -1.4248  -1.4174
    -0.9699  -0.3029  -0.1253  -0.1180  -0.1164  -0.1085  -0.0760  -0.0674
     0.0581   0.5687   0.6206   0.6789

     the Fermi energy is    -4.2736 ev

!    total energy              =    -854.76177717 Ry
     estimated scf accuracy    <          8.7E-13 Ry
     smearing contrib. (-TS)   =       0.00180871 Ry
     internal energy E=F+TS    =    -854.76358588 Ry

     The total energy is F=E-TS. E is the sum of the following terms:
     one-electron contribution =   -9609.40586999 Ry
     hartree contribution      =    4831.18245034 Ry
     xc contribution           =    -303.88276806 Ry
     ewald contribution        =    4227.34260183 Ry

     total magnetization       =     1.97 Bohr mag/cell
     absolute magnetization    =     5.28 Bohr mag/cell

     convergence has been achieved in  11 iterations

     Forces acting on atoms (cartesian axes, Ry/au):

     atom    1 type  1   force =    -0.00001133    0.00000947   -0.00000001
     atom    2 type  1   force =     0.00000802   -0.00001296    0.00000000
     atom    3 type  1   force =    -0.00000171    0.00001451   -0.00000000
     atom    4 type  1   force =     0.00003107    0.00002599    0.00000000
     atom    5 type  1   force =     0.00006241    0.00008194    0.00000000
     atom    6 type  1   force =     0.00000523    0.00000360    0.00000000
     atom    7 type  1   force =    -0.00000299    0.00000218    0.00000000
     atom    8 type  1   force =     0.00001591   -0.00002736   -0.00000000
     atom    9 type  1   force =    -0.00000013    0.00000387   -0.00000000
     atom   10 type  1   force =    -0.00000572   -0.00000228   -0.00000000
     atom   11 type  1   force =    -0.00010183   -0.00001233   -0.00000000
     atom   12 type  1   force =    -0.00003772   -0.00001339    0.00000000
     atom   13 type  1   force =    -0.00001325    0.00002418    0.00000001
     atom   14 type  1   force =    -0.00003232    0.00004477    0.00000000
     atom   15 type  1   force =     0.00000261    0.00002132    0.00000000
     atom   16 type  1   force =    -0.00003293    0.00003080    0.00000000
     atom   17 type  1   force =    -0.00002208   -0.00003245   -0.00000001
     atom   18 type  1   force =    -0.00001924   -0.00001630   -0.00000001
     atom   19 type  1   force =    -0.00000251    0.00000507    0.00000000
     atom   20 type  1   force =     0.00002401    0.00000939    0.00000001
     atom   21 type  1   force =     0.00003953    0.00000393   -0.00000000
     atom   22 type  1   force =    -0.00000975    0.00004472   -0.00000001
     atom   23 type  1   force =    -0.00001922    0.00000925   -0.00000000
     atom   24 type  1   force =    -0.00002216    0.00005089    0.00000000
     atom   25 type  1   force =     0.00003608   -0.00000161   -0.00000000
     atom   26 type  1   force =    -0.00006569    0.00004083    0.00000000
     atom   27 type  1   force =     0.00000313   -0.00001749   -0.00000000
     atom   28 type  1   force =     0.00001330   -0.00006510    0.00000000
     atom   29 type  2   force =    -0.00004463    0.00001261   -0.00000001
     atom   30 type  2   force =     0.00001180    0.00004591    0.00000000
     atom   31 type  1   force =     0.00004983   -0.00004346   -0.00000000
     atom   32 type  1   force =     0.00001361   -0.00001041    0.00000000
     atom   33 type  1   force =    -0.00000268    0.00007761   -0.00000000
     atom   34 type  1   force =    -0.00001637   -0.00003152    0.00000000
     atom   35 type  1   force =    -0.00004284    0.00007420   -0.00000000
     atom   36 type  1   force =    -0.00005608   -0.00000601    0.00000000
     atom   37 type  1   force =    -0.00002301   -0.00002050   -0.00000000
     atom   38 type  1   force =    -0.00002820   -0.00007634   -0.00000000
     atom   39 type  1   force =     0.00001538   -0.00003627   -0.00000001
     atom   40 type  2   force =     0.00007151   -0.00012805   -0.00000000
     atom   41 type  1   force =     0.00002488   -0.00003086   -0.00000000
     atom   42 type  1   force =     0.00007914   -0.00001349    0.00000000
     atom   43 type  1   force =     0.00002812    0.00000959   -0.00000000
     atom   44 type  1   force =     0.00003270    0.00004603    0.00000000
     atom   45 type  1   force =    -0.00007495    0.00006704    0.00000000
     atom   46 type  1   force =    -0.00000665    0.00001106   -0.00000001
     atom   47 type  1   force =    -0.00002141    0.00009778   -0.00000000
     atom   48 type  1   force =     0.00002614   -0.00000621   -0.00000000
     atom   49 type  1   force =     0.00004121   -0.00005105    0.00000001
     atom   50 type  1   force =     0.00006015   -0.00008933   -0.00000000
     atom   51 type  1   force =     0.00003492   -0.00005937    0.00000000
     atom   52 type  1   force =     0.00004579   -0.00009756   -0.00000000
     atom   53 type  1   force =     0.00002282   -0.00006092    0.00000000
     atom   54 type  1   force =    -0.00000816   -0.00002573    0.00000000
     atom   55 type  1   force =    -0.00000523   -0.00002335    0.00000000
     atom   56 type  1   force =    -0.00003165    0.00004288    0.00000000
     atom   57 type  1   force =    -0.00000477    0.00000697   -0.00000000
     atom   58 type  1   force =    -0.00002177    0.00004839    0.00000000
     atom   59 type  1   force =     0.00002195   -0.00000832    0.00000000
     atom   60 type  1   force =    -0.00003120    0.00003029    0.00000000
     atom   61 type  1   force =    -0.00001041   -0.00004861   -0.00000001
     atom   62 type  1   force =    -0.00000734    0.00001223   -0.00000000
     atom   63 type  1   force =     0.00004754   -0.00001477    0.00000001
     atom   64 type  1   force =    -0.00001051    0.00004186   -0.00000000
     atom   65 type  1   force =     0.00000664    0.00002048    0.00000000
     atom   66 type  1   force =     0.00000937    0.00001152   -0.00000001
     atom   67 type  1   force =     0.00004061   -0.00000467    0.00000000
     atom   68 type  1   force =    -0.00002380    0.00004090    0.00000001
     atom   69 type  1   force =    -0.00001689   -0.00003776   -0.00000000
     atom   70 type  1   force =    -0.00001510   -0.00000224    0.00000000
     atom   71 type  1   force =    -0.00002118    0.00000405   -0.00000000

     Total force =     0.000453     Total SCF correction =     0.000001
     Energy error            =      3.3E-07 Ry
     Gradient error          =      1.3E-04 Ry/Bohr

     number of scf cycles    =  17
     number of bfgs steps    =  16

     energy             old  =    -854.7617768438 Ry
     energy             new  =    -854.7617771699 Ry

     CASE: energy            _new < energy            _old

     new trust radius        =       0.0002663185 bohr
     new conv_thr            =            1.0E-12 Ry


ATOMIC_POSITIONS (crystal)
C                0.0573350868        0.0544955906        0.0000000026
C                0.1128587467        0.1102371621        0.0000000011
C                0.0573350639        0.2215024367        0.0000000008
C                0.1127255813        0.2779691829        0.0000000003
C                0.0560030491        0.3892103449        0.0000000008
C                0.1104577433        0.4455064424        0.0000000015
C                0.0523689734        0.5568902446        0.0000000011
C                0.1071347186        0.6130992651       -0.0000000009
C                0.0523690256        0.7240740463       -0.0000000017
C                0.1104579242        0.7773688970       -0.0000000003
C                0.0560031415        0.8881197450        0.0000000016
C                0.1127257036        0.9426382821        0.0000000019
C                0.2237675109        0.0547827598       -0.0000000000
C                0.2788073745        0.1114707596       -0.0000000008
C                0.2231203143        0.2233805420       -0.0000000006
C                0.2781257248        0.2805261102        0.0000000001
C                0.2212828071        0.3909567007        0.0000000017
C                0.2756974421        0.4487242039        0.0000000013
C                0.2154364049        0.5589483716       -0.0000000001
C                0.2756976870        0.6089112634       -0.0000000014
C                0.2212830441        0.7210934350        0.0000000001
C                0.2781259616        0.7746811139        0.0000000008
C                0.2231204709        0.8868321050        0.0000000014
C                0.2788074746        0.9430548727        0.0000000003
C                0.3889544520        0.0573735146       -0.0000000010
C                0.4441911923        0.1156503283       -0.0000000013
C                0.3889444045        0.2292493814       -0.0000000010
C                0.4439660901        0.2894397037       -0.0000000018
C1               0.3835760592        0.4049841437       -0.0000000004
C1               0.3835763638        0.5447726658       -0.0000000019
C                0.4439663671        0.5999272904       -0.0000000008
C                0.3889446528        0.7151392650       -0.0000000002
C                0.4441913807        0.7734916483       -0.0000000004
C                0.3889545544        0.8870051848        0.0000000001
C                0.4440035240        0.9446648780       -0.0000000004
C                0.5542401422        0.0583433920       -0.0000000008
C                0.6095399911        0.1146552136       -0.0000000012
C                0.5552806119        0.2253790790       -0.0000000024
C                0.6157951445        0.2762773036       -0.0000000033
C1               0.5680214573        0.3826561131       -0.0000000047
C                0.6157953996        0.4412610644       -0.0000000011
C                0.5552808579        0.5526737306       -0.0000000005
C                0.6095402013        0.6091382590       -0.0000000002
C                0.5542403148        0.7207499038       -0.0000000007
C                0.6097727284        0.7775654232       -0.0000000009
C                0.5545596019        0.8893869621       -0.0000000011
C                0.6097726446        0.9459954667       -0.0000000007
C                0.7217828716        0.0569934528        0.0000000000
C                0.7801242663        0.1096422835        0.0000000015
C                0.7262570898        0.2204976271       -0.0000000002
C                0.7813629077        0.2759852942        0.0000000020
C                0.7262572667        0.3865787475        0.0000000017
C                0.7801243997        0.4435669345        0.0000000016
C                0.7217830488        0.5545571876        0.0000000001
C                0.7764519621        0.6108152347       -0.0000000003
C                0.7202591270        0.7227690325       -0.0000000010
C                0.7756948690        0.7788193900       -0.0000000008
C                0.7202590611        0.8903055158       -0.0000000008
C                0.7764518841        0.9460664549       -0.0000000002
C                0.8903686048        0.0545382233        0.0000000027
C                0.9469877301        0.1097627172        0.0000000033
C                0.8921399407        0.2205966843        0.0000000024
C                0.9469877199        0.2765828458        0.0000000016
C                0.8903686869        0.3884265204        0.0000000010
C                0.9447823881        0.4446731108        0.0000000008
C                0.8872632027        0.5556976380        0.0000000004
C                0.9424610801        0.6120429503        0.0000000004
C                0.8867256694        0.7233039374       -0.0000000009
C                0.9424610955        0.7788294382       -0.0000000021
C                0.8872631532        0.8903726720       -0.0000000002
C                0.9447824188        0.9438778704        0.0000000019



     Writing config-only to output data dir /home/gregb26/links/scratch/qe_tmp/vacancy_relaxed/series/6x6/nspin2/vac_6x6_relax_nspin2.save/ :
     XML data file
     NEW-OLD atomic charge density approx. for the potential

     negative rho (up, down):  1.176E-08 1.038E-08
     Generating pointlists ...

     total cpu time spent up to now is      777.6 secs

     per-process dynamical memory:   235.7 Mb

     Self-consistent Calculation

     iteration #  1     ecut=   100.00 Ry     beta= 0.30
     Davidson diagonalization with overlap
     ethr =  1.00E-06,  avg # of iterations =  1.0

     Threshold (ethr) on eigenvalues was too large:
     Diagonalizing with lowered threshold

     Davidson diagonalization with overlap
     ethr =  2.44E-11,  avg # of iterations =  7.0

     negative rho (up, down):  2.774E-08 2.612E-08

     total cpu time spent up to now is      783.9 secs

     total energy              =    -854.76177739 Ry
     estimated scf accuracy    <       0.00000013 Ry

     total magnetization       =     1.97 Bohr mag/cell
     absolute magnetization    =     5.28 Bohr mag/cell

     iteration #  2     ecut=   100.00 Ry     beta= 0.30
     Davidson diagonalization with overlap
     ethr =  4.48E-11,  avg # of iterations =  1.5

     negative rho (up, down):  1.265E-08 1.186E-08

     total cpu time spent up to now is      785.8 secs

     total energy              =    -854.76177739 Ry
     estimated scf accuracy    <       0.00000004 Ry

     total magnetization       =     1.97 Bohr mag/cell
     absolute magnetization    =     5.28 Bohr mag/cell

     iteration #  3     ecut=   100.00 Ry     beta= 0.30
     Davidson diagonalization with overlap
     ethr =  1.44E-11,  avg # of iterations =  1.5

     total cpu time spent up to now is      787.7 secs

     total energy              =    -854.76177739 Ry
     estimated scf accuracy    <       0.00000001 Ry

     total magnetization       =     1.97 Bohr mag/cell
     absolute magnetization    =     5.28 Bohr mag/cell

     iteration #  4     ecut=   100.00 Ry     beta= 0.30
     Davidson diagonalization with overlap
     ethr =  3.60E-12,  avg # of iterations =  3.0

     total cpu time spent up to now is      789.7 secs

     total energy              =    -854.76177739 Ry
     estimated scf accuracy    <          1.8E-09 Ry

     total magnetization       =     1.97 Bohr mag/cell
     absolute magnetization    =     5.28 Bohr mag/cell

     iteration #  5     ecut=   100.00 Ry     beta= 0.30
     Davidson diagonalization with overlap
     ethr =  6.51E-13,  avg # of iterations =  3.0

     total cpu time spent up to now is      791.9 secs

     total energy              =    -854.76177739 Ry
     estimated scf accuracy    <          4.0E-10 Ry

     total magnetization       =     1.97 Bohr mag/cell
     absolute magnetization    =     5.28 Bohr mag/cell

     iteration #  6     ecut=   100.00 Ry     beta= 0.30
     Davidson diagonalization with overlap
     ethr =  1.41E-13,  avg # of iterations =  2.5

     total cpu time spent up to now is      794.0 secs

     total energy              =    -854.76177739 Ry
     estimated scf accuracy    <          1.1E-10 Ry

     total magnetization       =     1.97 Bohr mag/cell
     absolute magnetization    =     5.28 Bohr mag/cell

     iteration #  7     ecut=   100.00 Ry     beta= 0.30
     Davidson diagonalization with overlap
     ethr =  1.00E-13,  avg # of iterations =  2.0

     total cpu time spent up to now is      796.0 secs

     total energy              =    -854.76177739 Ry
     estimated scf accuracy    <          2.2E-11 Ry

     total magnetization       =     1.97 Bohr mag/cell
     absolute magnetization    =     5.27 Bohr mag/cell

     iteration #  8     ecut=   100.00 Ry     beta= 0.30
     Davidson diagonalization with overlap
     ethr =  1.00E-13,  avg # of iterations =  1.0

     total cpu time spent up to now is      797.7 secs

     total energy              =    -854.76177739 Ry
     estimated scf accuracy    <          4.4E-12 Ry

     total magnetization       =     1.97 Bohr mag/cell
     absolute magnetization    =     5.27 Bohr mag/cell

     iteration #  9     ecut=   100.00 Ry     beta= 0.30
     Davidson diagonalization with overlap
     ethr =  1.00E-13,  avg # of iterations =  1.0

     total cpu time spent up to now is      799.5 secs

     total energy              =    -854.76177739 Ry
     estimated scf accuracy    <          2.0E-12 Ry

     total magnetization       =     1.97 Bohr mag/cell
     absolute magnetization    =     5.27 Bohr mag/cell

     iteration # 10     ecut=   100.00 Ry     beta= 0.30
     Davidson diagonalization with overlap
     ethr =  1.00E-13,  avg # of iterations =  1.0

     total cpu time spent up to now is      801.2 secs

     total energy              =    -854.76177739 Ry
     estimated scf accuracy    <          1.3E-12 Ry

     total magnetization       =     1.97 Bohr mag/cell
     absolute magnetization    =     5.27 Bohr mag/cell

     iteration # 11     ecut=   100.00 Ry     beta= 0.30
     Davidson diagonalization with overlap
     ethr =  1.00E-13,  avg # of iterations =  1.0

     Magnetic moment per site  (integrated on atomic sphere of radius R)
     atom   1 (R=0.038)  charge=  1.5043  magn=  0.0285
     atom   2 (R=0.038)  charge=  1.5021  magn= -0.0131
     atom   3 (R=0.038)  charge=  1.5043  magn=  0.0285
     atom   4 (R=0.038)  charge=  1.5035  magn= -0.0243
     atom   5 (R=0.038)  charge=  1.5043  magn=  0.0319
     atom   6 (R=0.038)  charge=  1.5058  magn= -0.0237
     atom   7 (R=0.038)  charge=  1.5116  magn=  0.0276
     atom   8 (R=0.038)  charge=  1.5218  magn= -0.0119
     atom   9 (R=0.038)  charge=  1.5116  magn=  0.0276
     atom  10 (R=0.038)  charge=  1.5058  magn= -0.0237
     atom  11 (R=0.038)  charge=  1.5043  magn=  0.0319
     atom  12 (R=0.038)  charge=  1.5035  magn= -0.0243
     atom  13 (R=0.038)  charge=  1.4990  magn=  0.0325
     atom  14 (R=0.038)  charge=  1.5014  magn= -0.0242
     atom  15 (R=0.038)  charge=  1.4985  magn=  0.0289
     atom  16 (R=0.038)  charge=  1.5024  magn= -0.0121
     atom  17 (R=0.038)  charge=  1.5028  magn=  0.0298
     atom  18 (R=0.038)  charge=  1.5182  magn= -0.0163
     atom  19 (R=0.038)  charge=  1.5343  magn=  0.0282
     atom  20 (R=0.038)  charge=  1.5182  magn= -0.0163
     atom  21 (R=0.038)  charge=  1.5028  magn=  0.0298
     atom  22 (R=0.038)  charge=  1.5024  magn= -0.0121
     atom  23 (R=0.038)  charge=  1.4985  magn=  0.0289
     atom  24 (R=0.038)  charge=  1.5014  magn= -0.0242
     atom  25 (R=0.038)  charge=  1.4881  magn=  0.0294
     atom  26 (R=0.038)  charge=  1.4830  magn= -0.0265
     atom  27 (R=0.038)  charge=  1.4699  magn=  0.0316
     atom  28 (R=0.038)  charge=  1.4465  magn= -0.0275
     atom  29 (R=0.038)  charge=  1.3839  magn=  0.0489
     atom  30 (R=0.038)  charge=  1.3839  magn=  0.0489
     atom  31 (R=0.038)  charge=  1.4465  magn= -0.0275
     atom  32 (R=0.038)  charge=  1.4699  magn=  0.0316
     atom  33 (R=0.038)  charge=  1.4830  magn= -0.0265
     atom  34 (R=0.038)  charge=  1.4881  magn=  0.0294
     atom  35 (R=0.038)  charge=  1.4871  magn= -0.0142
     atom  36 (R=0.038)  charge=  1.5016  magn=  0.0266
     atom  37 (R=0.038)  charge=  1.4955  magn= -0.0147
     atom  38 (R=0.038)  charge=  1.5007  magn=  0.0410
     atom  39 (R=0.038)  charge=  1.5284  magn= -0.0234
     atom  40 (R=0.038)  charge=  1.4812  magn=  0.3376
     atom  41 (R=0.038)  charge=  1.5284  magn= -0.0234
     atom  42 (R=0.038)  charge=  1.5007  magn=  0.0410
     atom  43 (R=0.038)  charge=  1.4955  magn= -0.0147
     atom  44 (R=0.038)  charge=  1.5016  magn=  0.0266
     atom  45 (R=0.038)  charge=  1.4968  magn= -0.0252
     atom  46 (R=0.038)  charge=  1.4989  magn=  0.0290
     atom  47 (R=0.038)  charge=  1.4968  magn= -0.0252
     atom  48 (R=0.038)  charge=  1.4999  magn=  0.0335
     atom  49 (R=0.038)  charge=  1.5110  magn= -0.0221
     atom  50 (R=0.038)  charge=  1.5135  magn=  0.0479
     atom  51 (R=0.038)  charge=  1.5124  magn= -0.0178
     atom  52 (R=0.038)  charge=  1.5135  magn=  0.0479
     atom  53 (R=0.038)  charge=  1.5110  magn= -0.0221
     atom  54 (R=0.038)  charge=  1.4999  magn=  0.0335
     atom  55 (R=0.038)  charge=  1.5023  magn= -0.0255
     atom  56 (R=0.038)  charge=  1.5010  magn=  0.0270
     atom  57 (R=0.038)  charge=  1.4995  magn= -0.0131
     atom  58 (R=0.038)  charge=  1.5010  magn=  0.0270
     atom  59 (R=0.038)  charge=  1.5023  magn= -0.0255
     atom  60 (R=0.038)  charge=  1.5083  magn=  0.0292
     atom  61 (R=0.038)  charge=  1.5067  magn= -0.0254
     atom  62 (R=0.038)  charge=  1.5104  magn=  0.0321
     atom  63 (R=0.038)  charge=  1.5067  magn= -0.0254
     atom  64 (R=0.038)  charge=  1.5083  magn=  0.0292
     atom  65 (R=0.038)  charge=  1.5043  magn= -0.0130
     atom  66 (R=0.038)  charge=  1.5048  magn=  0.0287
     atom  67 (R=0.038)  charge=  1.5082  magn= -0.0241
     atom  68 (R=0.038)  charge=  1.5034  magn=  0.0318
     atom  69 (R=0.038)  charge=  1.5082  magn= -0.0241
     atom  70 (R=0.038)  charge=  1.5048  magn=  0.0287
     atom  71 (R=0.038)  charge=  1.5043  magn= -0.0130

     total cpu time spent up to now is      803.0 secs

     End of self-consistent calculation

 ------ SPIN UP ------------


          k = 0.0000 0.0000 0.0000 (171510 PWs)   bands (ev):

   -23.8023 -23.2519 -23.2131 -23.1857 -23.1495 -23.0785 -22.8700 -21.9244
   -21.9065 -21.8915 -21.8699 -21.7738 -21.6534 -21.3128 -21.2529 -21.2474
   -21.1920 -21.1078 -20.7374 -19.4578 -19.4577 -19.4481 -19.4156 -19.4149
   -19.3938 -19.3804 -19.3640 -19.3095 -19.3053 -19.1966 -18.8451 -18.5850
   -18.5057 -18.0269 -17.5162 -17.4332 -17.3666 -16.9648 -16.8686 -16.7760
   -16.4628 -15.7640 -15.7580 -15.7543 -15.7387 -15.7293 -15.7251 -15.7088
   -15.6758 -15.6502 -15.4277 -15.4002 -14.8060 -14.7174 -14.4930 -13.9786
   -13.9759 -13.9037 -13.7503 -13.7442 -13.0698 -12.4408 -12.4330 -12.3906
   -12.3791 -12.3779 -12.3697 -12.3222 -12.3058 -12.2995 -12.2777 -12.1693
   -12.1219 -12.1121 -12.0442 -12.0059 -11.8914 -11.6259 -11.6071 -11.1967
   -11.1800 -11.1594 -11.1271 -11.0655 -10.9295 -10.8215 -10.8022 -10.7578
   -10.6995 -10.6816 -10.6652 -10.6551 -10.4479 -10.4317 -10.3201 -10.1405
   -10.0916 -10.0432 -10.0202  -9.7923  -9.7769  -9.6914  -9.6651  -9.6476
    -9.6463  -9.6279  -9.6246  -9.6160  -9.5419  -9.4143  -8.9908  -8.9585
    -8.9418  -8.9342  -8.9152  -8.8687  -8.8360  -8.5682  -8.5358  -8.4913
    -8.4724  -8.4096  -8.3936  -7.6185  -7.5131  -7.0403  -7.0133  -7.0007
    -6.9827  -6.9805  -6.9605  -6.9468  -6.9295  -6.8901  -6.8865  -6.8286
    -6.7599  -6.6271  -6.5829  -5.5296  -5.0497  -4.4083  -4.3819  -4.1187
    -3.7513  -2.6452  -2.6056  -2.5485  -2.5076  -1.9095  -1.9014  -1.8333
    -1.8130  -1.8042  -1.7676  -1.7528  -1.7226  -1.7016  -1.6139  -1.4957
    -0.9797  -0.4019  -0.1319  -0.1265  -0.1234  -0.1148  -0.0857  -0.0742
     0.0309   0.5167   0.5946   0.6100

 ------ SPIN DOWN ----------


          k = 0.0000 0.0000 0.0000 (171510 PWs)   bands (ev):

   -23.7769 -23.2123 -23.1926 -23.1640 -23.1300 -23.0565 -22.8086 -21.8869
   -21.8703 -21.8621 -21.8469 -21.7602 -21.6155 -21.2669 -21.2286 -21.2265
   -21.1571 -21.0929 -20.6564 -19.4335 -19.4304 -19.4269 -19.4019 -19.3855
   -19.3657 -19.3542 -19.3394 -19.2898 -19.2161 -19.1798 -18.8164 -18.5598
   -18.4539 -17.9179 -17.4818 -17.4055 -17.3516 -16.9542 -16.7515 -16.7463
   -16.4257 -15.7441 -15.7385 -15.7299 -15.7091 -15.7065 -15.7043 -15.6787
   -15.6520 -15.6340 -15.3770 -15.3225 -14.7837 -14.6940 -14.4074 -13.9457
   -13.9454 -13.8899 -13.7286 -13.6835 -12.9736 -12.4190 -12.4186 -12.3806
   -12.3605 -12.3574 -12.3434 -12.2910 -12.2865 -12.2800 -12.2490 -12.1514
   -12.0961 -12.0771 -12.0265 -11.9791 -11.8496 -11.6085 -11.5261 -11.1497
   -11.1397 -11.1166 -11.0900 -11.0253 -10.8786 -10.7669 -10.7543 -10.7439
   -10.6868 -10.6667 -10.6421 -10.6407 -10.4333 -10.4043 -10.2155 -10.1027
   -10.0669 -10.0140 -10.0043  -9.7677  -9.7428  -9.6694  -9.6104  -9.6062
    -9.6045  -9.6016  -9.5937  -9.5842  -9.5137  -9.3482  -8.9309  -8.9188
    -8.8926  -8.8902  -8.8890  -8.8201  -8.8151  -8.5173  -8.5169  -8.4701
    -8.3727  -8.3719  -8.1776  -7.5367  -7.4924  -6.9825  -6.9676  -6.9587
    -6.9567  -6.9205  -6.9195  -6.8927  -6.8903  -6.8514  -6.8016  -6.7930
    -6.7079  -6.5844  -6.5115  -5.3385  -4.3997  -4.0795  -4.0779  -3.7085
    -2.8776  -2.5766  -2.5058  -2.4635  -2.3978  -1.8559  -1.8532  -1.8007
    -1.7675  -1.7454  -1.7221  -1.7217  -1.6820  -1.6536  -1.4248  -1.4173
    -0.9699  -0.3028  -0.1253  -0.1180  -0.1164  -0.1085  -0.0761  -0.0674
     0.0581   0.5687   0.6206   0.6790

     the Fermi energy is    -4.2736 ev

!    total energy              =    -854.76177739 Ry
     estimated scf accuracy    <          6.4E-13 Ry
     smearing contrib. (-TS)   =       0.00180896 Ry
     internal energy E=F+TS    =    -854.76358635 Ry

     The total energy is F=E-TS. E is the sum of the following terms:
     one-electron contribution =   -9609.41265465 Ry
     hartree contribution      =    4831.18588917 Ry
     xc contribution           =    -303.88306325 Ry
     ewald contribution        =    4227.34624238 Ry

     total magnetization       =     1.97 Bohr mag/cell
     absolute magnetization    =     5.27 Bohr mag/cell

     convergence has been achieved in  11 iterations

     Forces acting on atoms (cartesian axes, Ry/au):

     atom    1 type  1   force =    -0.00003645   -0.00002268   -0.00000000
     atom    2 type  1   force =    -0.00000361    0.00000685   -0.00000000
     atom    3 type  1   force =     0.00003822    0.00002078    0.00000000
     atom    4 type  1   force =     0.00005567    0.00004512    0.00000000
     atom    5 type  1   force =    -0.00002789    0.00002073   -0.00000000
     atom    6 type  1   force =     0.00002538    0.00002563    0.00000000
     atom    7 type  1   force =     0.00002925    0.00001760   -0.00000000
     atom    8 type  1   force =    -0.00000681    0.00001211    0.00000001
     atom    9 type  1   force =    -0.00003004   -0.00001634    0.00000000
     atom   10 type  1   force =    -0.00003460   -0.00000851   -0.00000000
     atom   11 type  1   force =    -0.00000387    0.00003466   -0.00000000
     atom   12 type  1   force =    -0.00006656   -0.00002510    0.00000000
     atom   13 type  1   force =    -0.00000453    0.00000823   -0.00000000
     atom   14 type  1   force =     0.00001713    0.00002129    0.00000000
     atom   15 type  1   force =     0.00000230    0.00002616    0.00000000
     atom   16 type  1   force =    -0.00001640   -0.00003882    0.00000000
     atom   17 type  1   force =    -0.00000909    0.00000898    0.00000000
     atom   18 type  1   force =     0.00000419   -0.00000779   -0.00000001
     atom   19 type  1   force =     0.00000590   -0.00001008   -0.00000000
     atom   20 type  1   force =     0.00000514   -0.00000676    0.00000001
     atom   21 type  1   force =    -0.00000291    0.00001299   -0.00000000
     atom   22 type  1   force =     0.00004197   -0.00000439   -0.00000000
     atom   23 type  1   force =    -0.00002336    0.00001166   -0.00000000
     atom   24 type  1   force =    -0.00002646   -0.00000358    0.00000000
     atom   25 type  1   force =    -0.00006223    0.00002259   -0.00000000
     atom   26 type  1   force =    -0.00003390   -0.00000322    0.00000000
     atom   27 type  1   force =    -0.00008163    0.00000308    0.00000000
     atom   28 type  1   force =     0.00001253    0.00002901    0.00000001
     atom   29 type  2   force =     0.00001797   -0.00002244   -0.00000000
     atom   30 type  2   force =     0.00001076   -0.00002590    0.00000001
     atom   31 type  1   force =    -0.00003167    0.00000439   -0.00000000
     atom   32 type  1   force =     0.00003821    0.00007264    0.00000000
     atom   33 type  1   force =     0.00001977    0.00002826   -0.00000000
     atom   34 type  1   force =     0.00001159    0.00006542   -0.00000000
     atom   35 type  1   force =     0.00001890   -0.00003252   -0.00000000
     atom   36 type  1   force =    -0.00001239    0.00000343   -0.00000000
     atom   37 type  1   force =    -0.00006735   -0.00003122    0.00000000
     atom   38 type  1   force =    -0.00001236   -0.00007646   -0.00000000
     atom   39 type  1   force =    -0.00004145   -0.00005986    0.00000000
     atom   40 type  2   force =     0.00005073   -0.00008593    0.00000000
     atom   41 type  1   force =     0.00006996    0.00000564    0.00000000
     atom   42 type  1   force =     0.00007194   -0.00002735   -0.00000000
     atom   43 type  1   force =     0.00006031    0.00004297   -0.00000000
     atom   44 type  1   force =     0.00000253    0.00001229    0.00000001
     atom   45 type  1   force =     0.00002235    0.00002098    0.00000000
     atom   46 type  1   force =    -0.00003601    0.00006174    0.00000000
     atom   47 type  1   force =    -0.00002951   -0.00000921   -0.00000000
     atom   48 type  1   force =     0.00001363   -0.00002117   -0.00000000
     atom   49 type  1   force =    -0.00000825   -0.00001673   -0.00000001
     atom   50 type  1   force =     0.00000207   -0.00002806    0.00000000
     atom   51 type  1   force =     0.00001927   -0.00003499   -0.00000001
     atom   52 type  1   force =     0.00002331   -0.00001511   -0.00000001
     atom   53 type  1   force =     0.00001821   -0.00000145   -0.00000001
     atom   54 type  1   force =     0.00001041   -0.00002238    0.00000000
     atom   55 type  1   force =    -0.00000225   -0.00001734    0.00000000
     atom   56 type  1   force =    -0.00006160   -0.00000815    0.00000000
     atom   57 type  1   force =    -0.00001932    0.00003301   -0.00000000
     atom   58 type  1   force =     0.00003709    0.00004873   -0.00000000
     atom   59 type  1   force =     0.00001578   -0.00000666    0.00000000
     atom   60 type  1   force =     0.00002483   -0.00004831    0.00000000
     atom   61 type  1   force =    -0.00000025    0.00000039   -0.00000001
     atom   62 type  1   force =     0.00001164   -0.00001964    0.00000000
     atom   63 type  1   force =    -0.00000013    0.00000007   -0.00000000
     atom   64 type  1   force =     0.00002897   -0.00004526    0.00000000
     atom   65 type  1   force =     0.00003875    0.00002059   -0.00000000
     atom   66 type  1   force =    -0.00000656    0.00000460    0.00000000
     atom   67 type  1   force =    -0.00003615    0.00000167   -0.00000000
     atom   68 type  1   force =    -0.00001932    0.00003266   -0.00000000
     atom   69 type  1   force =     0.00001653    0.00003202    0.00000001
     atom   70 type  1   force =    -0.00000089    0.00000738   -0.00000001
     atom   71 type  1   force =    -0.00003736   -0.00002288   -0.00000000

     Total force =     0.000371     Total SCF correction =     0.000000
     Energy error            =      2.2E-07 Ry
     Gradient error          =      8.6E-05 Ry/Bohr

     bfgs converged in  18 scf cycles and  17 bfgs steps
     (criteria: energy <  1.0E-05 Ry, force <  1.0E-04 Ry/Bohr)

     End of BFGS Geometry Optimization

     Final energy             =    -854.7617773900 Ry

     File /home/gregb26/links/scratch/qe_tmp/vacancy_relaxed/series/6x6/nspin2/vac_6x6_relax_nspin2.bfgs deleted, as requested
Begin final coordinates

ATOMIC_POSITIONS (crystal)
C                0.0573350868        0.0544955906        0.0000000026
C                0.1128587467        0.1102371621        0.0000000011
C                0.0573350639        0.2215024367        0.0000000008
C                0.1127255813        0.2779691829        0.0000000003
C                0.0560030491        0.3892103449        0.0000000008
C                0.1104577433        0.4455064424        0.0000000015
C                0.0523689734        0.5568902446        0.0000000011
C                0.1071347186        0.6130992651       -0.0000000009
C                0.0523690256        0.7240740463       -0.0000000017
C                0.1104579242        0.7773688970       -0.0000000003
C                0.0560031415        0.8881197450        0.0000000016
C                0.1127257036        0.9426382821        0.0000000019
C                0.2237675109        0.0547827598       -0.0000000000
C                0.2788073745        0.1114707596       -0.0000000008
C                0.2231203143        0.2233805420       -0.0000000006
C                0.2781257248        0.2805261102        0.0000000001
C                0.2212828071        0.3909567007        0.0000000017
C                0.2756974421        0.4487242039        0.0000000013
C                0.2154364049        0.5589483716       -0.0000000001
C                0.2756976870        0.6089112634       -0.0000000014
C                0.2212830441        0.7210934350        0.0000000001
C                0.2781259616        0.7746811139        0.0000000008
C                0.2231204709        0.8868321050        0.0000000014
C                0.2788074746        0.9430548727        0.0000000003
C                0.3889544520        0.0573735146       -0.0000000010
C                0.4441911923        0.1156503283       -0.0000000013
C                0.3889444045        0.2292493814       -0.0000000010
C                0.4439660901        0.2894397037       -0.0000000018
C1               0.3835760592        0.4049841437       -0.0000000004
C1               0.3835763638        0.5447726658       -0.0000000019
C                0.4439663671        0.5999272904       -0.0000000008
C                0.3889446528        0.7151392650       -0.0000000002
C                0.4441913807        0.7734916483       -0.0000000004
C                0.3889545544        0.8870051848        0.0000000001
C                0.4440035240        0.9446648780       -0.0000000004
C                0.5542401422        0.0583433920       -0.0000000008
C                0.6095399911        0.1146552136       -0.0000000012
C                0.5552806119        0.2253790790       -0.0000000024
C                0.6157951445        0.2762773036       -0.0000000033
C1               0.5680214573        0.3826561131       -0.0000000047
C                0.6157953996        0.4412610644       -0.0000000011
C                0.5552808579        0.5526737306       -0.0000000005
C                0.6095402013        0.6091382590       -0.0000000002
C                0.5542403148        0.7207499038       -0.0000000007
C                0.6097727284        0.7775654232       -0.0000000009
C                0.5545596019        0.8893869621       -0.0000000011
C                0.6097726446        0.9459954667       -0.0000000007
C                0.7217828716        0.0569934528        0.0000000000
C                0.7801242663        0.1096422835        0.0000000015
C                0.7262570898        0.2204976271       -0.0000000002
C                0.7813629077        0.2759852942        0.0000000020
C                0.7262572667        0.3865787475        0.0000000017
C                0.7801243997        0.4435669345        0.0000000016
C                0.7217830488        0.5545571876        0.0000000001
C                0.7764519621        0.6108152347       -0.0000000003
C                0.7202591270        0.7227690325       -0.0000000010
C                0.7756948690        0.7788193900       -0.0000000008
C                0.7202590611        0.8903055158       -0.0000000008
C                0.7764518841        0.9460664549       -0.0000000002
C                0.8903686048        0.0545382233        0.0000000027
C                0.9469877301        0.1097627172        0.0000000033
C                0.8921399407        0.2205966843        0.0000000024
C                0.9469877199        0.2765828458        0.0000000016
C                0.8903686869        0.3884265204        0.0000000010
C                0.9447823881        0.4446731108        0.0000000008
C                0.8872632027        0.5556976380        0.0000000004
C                0.9424610801        0.6120429503        0.0000000004
C                0.8867256694        0.7233039374       -0.0000000009
C                0.9424610955        0.7788294382       -0.0000000021
C                0.8872631532        0.8903726720       -0.0000000002
C                0.9447824188        0.9438778704        0.0000000019
End final coordinates



     Writing all to output data dir /home/gregb26/links/scratch/qe_tmp/vacancy_relaxed/series/6x6/nspin2/vac_6x6_relax_nspin2.save/ :
     XML data file, charge density, pseudopotentials, collected wavefunctions

     init_run     :      2.87s CPU      3.12s WALL (       1 calls)
     electrons    :    769.73s CPU    782.07s WALL (      18 calls)
     update_pot   :      2.64s CPU      2.97s WALL (      17 calls)
     forces       :     12.15s CPU     12.66s WALL (      18 calls)

     Called by init_run:
     wfcinit      :      1.11s CPU      1.18s WALL (       1 calls)
     potinit      :      0.10s CPU      0.20s WALL (       1 calls)
     hinit0       :      1.02s CPU      1.07s WALL (       1 calls)

     Called by electrons:
     c_bands      :    664.46s CPU    672.08s WALL (     305 calls)
     sum_band     :     65.59s CPU     66.29s WALL (     305 calls)
     v_of_rho     :     33.14s CPU     35.26s WALL (     315 calls)
     mix_rho      :      5.79s CPU      5.94s WALL (     305 calls)

     Called by c_bands:
     init_us_2    :      3.66s CPU      3.71s WALL (    1258 calls)
     regterg      :    645.34s CPU    652.24s WALL (     612 calls)

     Called by *egterg:
     rdiaghg      :     37.35s CPU     38.17s WALL (    2961 calls)
     h_psi        :    444.76s CPU    449.34s WALL (    3013 calls)
     g_psi        :      0.79s CPU      0.80s WALL (    2399 calls)

     Called by h_psi:
     h_psi:calbec :     56.01s CPU     56.46s WALL (    3013 calls)
     vloc_psi     :    353.47s CPU    357.35s WALL (    3013 calls)
                                        0.00s GPU  (    3013 calls)
     add_vuspsi   :     34.60s CPU     34.86s WALL (    3013 calls)

     General routines
     calbec       :     61.59s CPU     62.10s WALL (    3157 calls)
     fft          :     24.34s CPU     26.68s WALL (    4354 calls)
     ffts         :      0.99s CPU      1.01s WALL (     305 calls)
     fftw         :    398.07s CPU    402.36s WALL (  346172 calls)

     Parallel routines

     PWSCF        :    791.02s CPU    805.67s WALL


   This run was terminated on:   9:40:26  23Sep2026            

=------------------------------------------------------------------------------=
   JOB DONE.
=------------------------------------------------------------------------------=
