
     Program PWSCF v.7.5 starts on 25Sep2026 at 15:57:42 

     This program is part of the open-source Quantum ESPRESSO suite
     for quantum simulation of materials; please cite
         "P. Giannozzi et al., J. Phys.:Condens. Matter 21 395502 (2009);
         "P. Giannozzi et al., J. Phys.:Condens. Matter 29 465901 (2017);
         "P. Giannozzi et al., J. Chem. Phys. 152 154105 (2020);
          URL http://www.quantum-espresso.org", 
     in publications or presentations arising from this work. More details at
     http://www.quantum-espresso.org/quote

     Parallel version (MPI & OpenMP), running on      64 processor cores
     Number of MPI processes:                64
     Threads/MPI process:                     1

     MPI processes distributed on     8 nodes
     508899 MiB available memory on the printing compute node when the environment starts

     Waiting for input...
     Reading input from standard input

     Current dimensions of program PWSCF are:
     Max number of different atomic species (ntypx) = 10
     Max number of k-points (npk) =  40000
     Max angular momentum in pseudopotentials (lmaxx) =  4

     gamma-point specific algorithms are used
     Found identity + (  0.0000  0.0667  0.0000) symmetry
     This is a supercell, fractional translations are disabled
     Message from routine setup:
     using ibrav=0 with symmetry is DISCOURAGED, use correct ibrav instead

     R & G space division:  proc/nbgrp/npool/nimage =      64
     Subspace diagonalization in iterative solution of the eigenvalue problem:
     one sub-group per band group will be used
     ELPA distributed-memory algorithm (size of sub-group:  8*  8 procs)


     Parallelization info
     --------------------
     sticks:   dense  smooth     PW     G-vecs:    dense   smooth      PW
     Min        2104    2104    525               267936   267936   33486
     Max        2106    2106    528               267946   267946   33492
     Sum      134707  134707  33679             17148125 17148125 2143361

     Using Slab Decomposition



     bravais-lattice index     =            0
     lattice parameter (alat)  =      69.8968  a.u.
     unit-cell volume          =  126930.5326 (a.u.)^3
     number of atoms/cell      =          450
     number of atomic types    =            1
     number of electrons       =      1800.00
     number of Kohn-Sham states=          930
     kinetic-energy cutoff     =     100.0000  Ry
     charge density cutoff     =     400.0000  Ry
     scf convergence threshold =      1.0E-10
     mixing beta               =       0.3000
     number of iterations used =            8  plain     mixing
     Exchange-correlation= PBE
                           (   1   4   3   4   0   0   0)

     celldm(1)=  69.896770  celldm(2)=   0.000000  celldm(3)=   0.000000
     celldm(4)=   0.000000  celldm(5)=   0.000000  celldm(6)=   0.000000

     crystal axes: (cart. coord. in units of alat)
               a(1) = (   0.866025  -0.500000   0.000000 )  
               a(2) = (   0.866025   0.500000   0.000000 )  
               a(3) = (   0.000000   0.000000   0.429204 )  

     reciprocal axes: (cart. coord. in units 2 pi/alat)
               b(1) = (  0.577350 -1.000000  0.000000 )  
               b(2) = (  0.577350  1.000000 -0.000000 )  
               b(3) = ( -0.000000  0.000000  2.329892 )  


     PseudoPot. # 1 for C  read from file:
     /home/gregb26/links/projects/rrg-cotemich-ac/gregb26/abinit_processing/pseudo/C.upf
     MD5 check sum: 34a24e64c0a39f27c6c36b90a16ac686
     Pseudo is Norm-conserving + core correction, Zval =  4.0
     Generated using ONCVPSP code by D. R. Hamann
     Using radial grid of 1248 points,  4 beta functions with: 
                l(1) =   0
                l(2) =   0
                l(3) =   1
                l(4) =   1

     atomic species   valence    mass     pseudopotential
     C                 4.00    12.01100     C ( 1.00)

     24 Sym. Ops., with inversion, found



   Cartesian axes

     site n.     atom                  positions (alat units)
         1        C      tau(   1) = (   0.0384900   0.0000000   0.0000000  )
         2        C      tau(   2) = (   0.0769800   0.0000000   0.0000000  )
         3        C      tau(   3) = (   0.0962250   0.0333333   0.0000000  )
         4        C      tau(   4) = (   0.1347151   0.0333333   0.0000000  )
         5        C      tau(   5) = (   0.1539601   0.0666667   0.0000000  )
         6        C      tau(   6) = (   0.1924501   0.0666667   0.0000000  )
         7        C      tau(   7) = (   0.2116951   0.1000000   0.0000000  )
         8        C      tau(   8) = (   0.2501851   0.1000000   0.0000000  )
         9        C      tau(   9) = (   0.2694301   0.1333333   0.0000000  )
        10        C      tau(  10) = (   0.3079201   0.1333333   0.0000000  )
        11        C      tau(  11) = (   0.3271652   0.1666667   0.0000000  )
        12        C      tau(  12) = (   0.3656552   0.1666667   0.0000000  )
        13        C      tau(  13) = (   0.3849002   0.2000000   0.0000000  )
        14        C      tau(  14) = (   0.4233902   0.2000000   0.0000000  )
        15        C      tau(  15) = (   0.4426352   0.2333333   0.0000000  )
        16        C      tau(  16) = (   0.4811252   0.2333333   0.0000000  )
        17        C      tau(  17) = (   0.5003702   0.2666667   0.0000000  )
        18        C      tau(  18) = (   0.5388603   0.2666667   0.0000000  )
        19        C      tau(  19) = (   0.5581053   0.3000000   0.0000000  )
        20        C      tau(  20) = (   0.5965953   0.3000000   0.0000000  )
        21        C      tau(  21) = (   0.6158403   0.3333333   0.0000000  )
        22        C      tau(  22) = (   0.6543303   0.3333333   0.0000000  )
        23        C      tau(  23) = (   0.6735753   0.3666667   0.0000000  )
        24        C      tau(  24) = (   0.7120653   0.3666667   0.0000000  )
        25        C      tau(  25) = (   0.7313103   0.4000000   0.0000000  )
        26        C      tau(  26) = (   0.7698004   0.4000000   0.0000000  )
        27        C      tau(  27) = (   0.7890454   0.4333333   0.0000000  )
        28        C      tau(  28) = (   0.8275354   0.4333333   0.0000000  )
        29        C      tau(  29) = (   0.8467804   0.4666667   0.0000000  )
        30        C      tau(  30) = (   0.8852704   0.4666667   0.0000000  )
        31        C      tau(  31) = (   0.0962250  -0.0333333   0.0000000  )
        32        C      tau(  32) = (   0.1347151  -0.0333333   0.0000000  )
        33        C      tau(  33) = (   0.1539601   0.0000000   0.0000000  )
        34        C      tau(  34) = (   0.1924501  -0.0000000   0.0000000  )
        35        C      tau(  35) = (   0.2116951   0.0333333   0.0000000  )
        36        C      tau(  36) = (   0.2501851   0.0333333   0.0000000  )
        37        C      tau(  37) = (   0.2694301   0.0666667   0.0000000  )
        38        C      tau(  38) = (   0.3079201   0.0666667   0.0000000  )
        39        C      tau(  39) = (   0.3271652   0.1000000   0.0000000  )
        40        C      tau(  40) = (   0.3656552   0.1000000   0.0000000  )
        41        C      tau(  41) = (   0.3849002   0.1333333   0.0000000  )
        42        C      tau(  42) = (   0.4233902   0.1333333   0.0000000  )
        43        C      tau(  43) = (   0.4426352   0.1666667   0.0000000  )
        44        C      tau(  44) = (   0.4811252   0.1666667   0.0000000  )
        45        C      tau(  45) = (   0.5003702   0.2000000   0.0000000  )
        46        C      tau(  46) = (   0.5388603   0.2000000   0.0000000  )
        47        C      tau(  47) = (   0.5581053   0.2333333   0.0000000  )
        48        C      tau(  48) = (   0.5965953   0.2333333   0.0000000  )
        49        C      tau(  49) = (   0.6158403   0.2666667   0.0000000  )
        50        C      tau(  50) = (   0.6543303   0.2666667   0.0000000  )
        51        C      tau(  51) = (   0.6735753   0.3000000   0.0000000  )
        52        C      tau(  52) = (   0.7120653   0.3000000   0.0000000  )
        53        C      tau(  53) = (   0.7313103   0.3333333   0.0000000  )
        54        C      tau(  54) = (   0.7698004   0.3333333   0.0000000  )
        55        C      tau(  55) = (   0.7890454   0.3666667   0.0000000  )
        56        C      tau(  56) = (   0.8275354   0.3666667   0.0000000  )
        57        C      tau(  57) = (   0.8467804   0.4000000   0.0000000  )
        58        C      tau(  58) = (   0.8852704   0.4000000   0.0000000  )
        59        C      tau(  59) = (   0.9045154   0.4333333   0.0000000  )
        60        C      tau(  60) = (   0.9430054   0.4333333   0.0000000  )
        61        C      tau(  61) = (   0.1539601  -0.0666667   0.0000000  )
        62        C      tau(  62) = (   0.1924501  -0.0666667   0.0000000  )
        63        C      tau(  63) = (   0.2116951  -0.0333333   0.0000000  )
        64        C      tau(  64) = (   0.2501851  -0.0333333   0.0000000  )
        65        C      tau(  65) = (   0.2694301   0.0000000   0.0000000  )
        66        C      tau(  66) = (   0.3079201   0.0000000   0.0000000  )
        67        C      tau(  67) = (   0.3271652   0.0333333   0.0000000  )
        68        C      tau(  68) = (   0.3656552   0.0333333   0.0000000  )
        69        C      tau(  69) = (   0.3849002   0.0666667   0.0000000  )
        70        C      tau(  70) = (   0.4233902   0.0666667   0.0000000  )
        71        C      tau(  71) = (   0.4426352   0.1000000   0.0000000  )
        72        C      tau(  72) = (   0.4811252   0.1000000   0.0000000  )
        73        C      tau(  73) = (   0.5003702   0.1333333   0.0000000  )
        74        C      tau(  74) = (   0.5388603   0.1333333   0.0000000  )
        75        C      tau(  75) = (   0.5581053   0.1666667   0.0000000  )
        76        C      tau(  76) = (   0.5965953   0.1666667   0.0000000  )
        77        C      tau(  77) = (   0.6158403   0.2000000   0.0000000  )
        78        C      tau(  78) = (   0.6543303   0.2000000   0.0000000  )
        79        C      tau(  79) = (   0.6735753   0.2333333   0.0000000  )
        80        C      tau(  80) = (   0.7120653   0.2333333   0.0000000  )
        81        C      tau(  81) = (   0.7313103   0.2666667   0.0000000  )
        82        C      tau(  82) = (   0.7698004   0.2666667   0.0000000  )
        83        C      tau(  83) = (   0.7890454   0.3000000   0.0000000  )
        84        C      tau(  84) = (   0.8275354   0.3000000   0.0000000  )
        85        C      tau(  85) = (   0.8467804   0.3333333   0.0000000  )
        86        C      tau(  86) = (   0.8852704   0.3333333   0.0000000  )
        87        C      tau(  87) = (   0.9045154   0.3666667   0.0000000  )
        88        C      tau(  88) = (   0.9430054   0.3666667   0.0000000  )
        89        C      tau(  89) = (   0.9622504   0.4000000   0.0000000  )
        90        C      tau(  90) = (   1.0007405   0.4000000   0.0000000  )
        91        C      tau(  91) = (   0.2116951  -0.1000000   0.0000000  )
        92        C      tau(  92) = (   0.2501851  -0.1000000   0.0000000  )
        93        C      tau(  93) = (   0.2694301  -0.0666667   0.0000000  )
        94        C      tau(  94) = (   0.3079201  -0.0666667   0.0000000  )
        95        C      tau(  95) = (   0.3271652  -0.0333333   0.0000000  )
        96        C      tau(  96) = (   0.3656552  -0.0333333   0.0000000  )
        97        C      tau(  97) = (   0.3849002  -0.0000000   0.0000000  )
        98        C      tau(  98) = (   0.4233902  -0.0000000   0.0000000  )
        99        C      tau(  99) = (   0.4426352   0.0333333   0.0000000  )
       100        C      tau( 100) = (   0.4811252   0.0333333   0.0000000  )
       101        C      tau( 101) = (   0.5003702   0.0666667   0.0000000  )
       102        C      tau( 102) = (   0.5388603   0.0666667   0.0000000  )
       103        C      tau( 103) = (   0.5581053   0.1000000   0.0000000  )
       104        C      tau( 104) = (   0.5965953   0.1000000   0.0000000  )
       105        C      tau( 105) = (   0.6158403   0.1333333   0.0000000  )
       106        C      tau( 106) = (   0.6543303   0.1333333   0.0000000  )
       107        C      tau( 107) = (   0.6735753   0.1666667   0.0000000  )
       108        C      tau( 108) = (   0.7120653   0.1666667   0.0000000  )
       109        C      tau( 109) = (   0.7313103   0.2000000   0.0000000  )
       110        C      tau( 110) = (   0.7698004   0.2000000   0.0000000  )
       111        C      tau( 111) = (   0.7890454   0.2333333   0.0000000  )
       112        C      tau( 112) = (   0.8275354   0.2333333   0.0000000  )
       113        C      tau( 113) = (   0.8467804   0.2666667   0.0000000  )
       114        C      tau( 114) = (   0.8852704   0.2666667   0.0000000  )
       115        C      tau( 115) = (   0.9045154   0.3000000   0.0000000  )
       116        C      tau( 116) = (   0.9430054   0.3000000   0.0000000  )
       117        C      tau( 117) = (   0.9622504   0.3333333   0.0000000  )
       118        C      tau( 118) = (   1.0007405   0.3333333   0.0000000  )
       119        C      tau( 119) = (   1.0199855   0.3666667   0.0000000  )
       120        C      tau( 120) = (   1.0584755   0.3666667   0.0000000  )
       121        C      tau( 121) = (   0.2694301  -0.1333333   0.0000000  )
       122        C      tau( 122) = (   0.3079201  -0.1333333   0.0000000  )
       123        C      tau( 123) = (   0.3271652  -0.1000000   0.0000000  )
       124        C      tau( 124) = (   0.3656552  -0.1000000   0.0000000  )
       125        C      tau( 125) = (   0.3849002  -0.0666667   0.0000000  )
       126        C      tau( 126) = (   0.4233902  -0.0666667   0.0000000  )
       127        C      tau( 127) = (   0.4426352  -0.0333333   0.0000000  )
       128        C      tau( 128) = (   0.4811252  -0.0333333   0.0000000  )
       129        C      tau( 129) = (   0.5003702  -0.0000000   0.0000000  )
       130        C      tau( 130) = (   0.5388603   0.0000000   0.0000000  )
       131        C      tau( 131) = (   0.5581053   0.0333333   0.0000000  )
       132        C      tau( 132) = (   0.5965953   0.0333333   0.0000000  )
       133        C      tau( 133) = (   0.6158403   0.0666667   0.0000000  )
       134        C      tau( 134) = (   0.6543303   0.0666667   0.0000000  )
       135        C      tau( 135) = (   0.6735753   0.1000000   0.0000000  )
       136        C      tau( 136) = (   0.7120653   0.1000000   0.0000000  )
       137        C      tau( 137) = (   0.7313103   0.1333333   0.0000000  )
       138        C      tau( 138) = (   0.7698004   0.1333333   0.0000000  )
       139        C      tau( 139) = (   0.7890454   0.1666667   0.0000000  )
       140        C      tau( 140) = (   0.8275354   0.1666667   0.0000000  )
       141        C      tau( 141) = (   0.8467804   0.2000000   0.0000000  )
       142        C      tau( 142) = (   0.8852704   0.2000000   0.0000000  )
       143        C      tau( 143) = (   0.9045154   0.2333333   0.0000000  )
       144        C      tau( 144) = (   0.9430054   0.2333333   0.0000000  )
       145        C      tau( 145) = (   0.9622504   0.2666667   0.0000000  )
       146        C      tau( 146) = (   1.0007405   0.2666667   0.0000000  )
       147        C      tau( 147) = (   1.0199855   0.3000000   0.0000000  )
       148        C      tau( 148) = (   1.0584755   0.3000000   0.0000000  )
       149        C      tau( 149) = (   1.0777205   0.3333333   0.0000000  )
       150        C      tau( 150) = (   1.1162105   0.3333333   0.0000000  )
       151        C      tau( 151) = (   0.3271652  -0.1666667   0.0000000  )
       152        C      tau( 152) = (   0.3656552  -0.1666667   0.0000000  )
       153        C      tau( 153) = (   0.3849002  -0.1333333   0.0000000  )
       154        C      tau( 154) = (   0.4233902  -0.1333333   0.0000000  )
       155        C      tau( 155) = (   0.4426352  -0.1000000   0.0000000  )
       156        C      tau( 156) = (   0.4811252  -0.1000000   0.0000000  )
       157        C      tau( 157) = (   0.5003702  -0.0666667   0.0000000  )
       158        C      tau( 158) = (   0.5388603  -0.0666667   0.0000000  )
       159        C      tau( 159) = (   0.5581053  -0.0333333   0.0000000  )
       160        C      tau( 160) = (   0.5965953  -0.0333333   0.0000000  )
       161        C      tau( 161) = (   0.6158403   0.0000000   0.0000000  )
       162        C      tau( 162) = (   0.6543303  -0.0000000   0.0000000  )
       163        C      tau( 163) = (   0.6735753   0.0333333   0.0000000  )
       164        C      tau( 164) = (   0.7120653   0.0333333   0.0000000  )
       165        C      tau( 165) = (   0.7313103   0.0666667   0.0000000  )
       166        C      tau( 166) = (   0.7698004   0.0666667   0.0000000  )
       167        C      tau( 167) = (   0.7890454   0.1000000   0.0000000  )
       168        C      tau( 168) = (   0.8275354   0.1000000   0.0000000  )
       169        C      tau( 169) = (   0.8467804   0.1333333   0.0000000  )
       170        C      tau( 170) = (   0.8852704   0.1333333   0.0000000  )
       171        C      tau( 171) = (   0.9045154   0.1666667   0.0000000  )
       172        C      tau( 172) = (   0.9430054   0.1666667   0.0000000  )
       173        C      tau( 173) = (   0.9622504   0.2000000   0.0000000  )
       174        C      tau( 174) = (   1.0007405   0.2000000   0.0000000  )
       175        C      tau( 175) = (   1.0199855   0.2333333   0.0000000  )
       176        C      tau( 176) = (   1.0584755   0.2333333   0.0000000  )
       177        C      tau( 177) = (   1.0777205   0.2666667   0.0000000  )
       178        C      tau( 178) = (   1.1162105   0.2666667   0.0000000  )
       179        C      tau( 179) = (   1.1354555   0.3000000   0.0000000  )
       180        C      tau( 180) = (   1.1739455   0.3000000   0.0000000  )
       181        C      tau( 181) = (   0.3849002  -0.2000000   0.0000000  )
       182        C      tau( 182) = (   0.4233902  -0.2000000   0.0000000  )
       183        C      tau( 183) = (   0.4426352  -0.1666667   0.0000000  )
       184        C      tau( 184) = (   0.4811252  -0.1666667   0.0000000  )
       185        C      tau( 185) = (   0.5003702  -0.1333333   0.0000000  )
       186        C      tau( 186) = (   0.5388603  -0.1333333   0.0000000  )
       187        C      tau( 187) = (   0.5581053  -0.1000000   0.0000000  )
       188        C      tau( 188) = (   0.5965953  -0.1000000   0.0000000  )
       189        C      tau( 189) = (   0.6158403  -0.0666667   0.0000000  )
       190        C      tau( 190) = (   0.6543303  -0.0666667   0.0000000  )
       191        C      tau( 191) = (   0.6735753  -0.0333333   0.0000000  )
       192        C      tau( 192) = (   0.7120653  -0.0333333   0.0000000  )
       193        C      tau( 193) = (   0.7313103  -0.0000000   0.0000000  )
       194        C      tau( 194) = (   0.7698004  -0.0000000   0.0000000  )
       195        C      tau( 195) = (   0.7890454   0.0333333   0.0000000  )
       196        C      tau( 196) = (   0.8275354   0.0333333   0.0000000  )
       197        C      tau( 197) = (   0.8467804   0.0666667   0.0000000  )
       198        C      tau( 198) = (   0.8852704   0.0666667   0.0000000  )
       199        C      tau( 199) = (   0.9045154   0.1000000   0.0000000  )
       200        C      tau( 200) = (   0.9430054   0.1000000   0.0000000  )
       201        C      tau( 201) = (   0.9622504   0.1333333   0.0000000  )
       202        C      tau( 202) = (   1.0007405   0.1333333   0.0000000  )
       203        C      tau( 203) = (   1.0199855   0.1666667   0.0000000  )
       204        C      tau( 204) = (   1.0584755   0.1666667   0.0000000  )
       205        C      tau( 205) = (   1.0777205   0.2000000   0.0000000  )
       206        C      tau( 206) = (   1.1162105   0.2000000   0.0000000  )
       207        C      tau( 207) = (   1.1354555   0.2333333   0.0000000  )
       208        C      tau( 208) = (   1.1739455   0.2333333   0.0000000  )
       209        C      tau( 209) = (   1.1931906   0.2666667   0.0000000  )
       210        C      tau( 210) = (   1.2316806   0.2666667   0.0000000  )
       211        C      tau( 211) = (   0.4426352  -0.2333333   0.0000000  )
       212        C      tau( 212) = (   0.4811252  -0.2333333   0.0000000  )
       213        C      tau( 213) = (   0.5003702  -0.2000000   0.0000000  )
       214        C      tau( 214) = (   0.5388603  -0.2000000   0.0000000  )
       215        C      tau( 215) = (   0.5581053  -0.1666667   0.0000000  )
       216        C      tau( 216) = (   0.5965953  -0.1666667   0.0000000  )
       217        C      tau( 217) = (   0.6158403  -0.1333333   0.0000000  )
       218        C      tau( 218) = (   0.6543303  -0.1333333   0.0000000  )
       219        C      tau( 219) = (   0.6735753  -0.1000000   0.0000000  )
       220        C      tau( 220) = (   0.7120653  -0.1000000   0.0000000  )
       221        C      tau( 221) = (   0.7313103  -0.0666667   0.0000000  )
       222        C      tau( 222) = (   0.7698004  -0.0666667   0.0000000  )
       223        C      tau( 223) = (   0.7890454  -0.0333333   0.0000000  )
       224        C      tau( 224) = (   0.8275354  -0.0333333   0.0000000  )
       225        C      tau( 225) = (   0.8467804  -0.0000000   0.0000000  )
       226        C      tau( 226) = (   0.8852704  -0.0000000   0.0000000  )
       227        C      tau( 227) = (   0.9045154   0.0333333   0.0000000  )
       228        C      tau( 228) = (   0.9430054   0.0333333   0.0000000  )
       229        C      tau( 229) = (   0.9622504   0.0666667   0.0000000  )
       230        C      tau( 230) = (   1.0007405   0.0666667   0.0000000  )
       231        C      tau( 231) = (   1.0199855   0.1000000   0.0000000  )
       232        C      tau( 232) = (   1.0584755   0.1000000   0.0000000  )
       233        C      tau( 233) = (   1.0777205   0.1333333   0.0000000  )
       234        C      tau( 234) = (   1.1162105   0.1333333   0.0000000  )
       235        C      tau( 235) = (   1.1354555   0.1666667   0.0000000  )
       236        C      tau( 236) = (   1.1739455   0.1666667   0.0000000  )
       237        C      tau( 237) = (   1.1931906   0.2000000   0.0000000  )
       238        C      tau( 238) = (   1.2316806   0.2000000   0.0000000  )
       239        C      tau( 239) = (   1.2509256   0.2333333   0.0000000  )
       240        C      tau( 240) = (   1.2894156   0.2333333   0.0000000  )
       241        C      tau( 241) = (   0.5003702  -0.2666667   0.0000000  )
       242        C      tau( 242) = (   0.5388603  -0.2666667   0.0000000  )
       243        C      tau( 243) = (   0.5581053  -0.2333333   0.0000000  )
       244        C      tau( 244) = (   0.5965953  -0.2333333   0.0000000  )
       245        C      tau( 245) = (   0.6158403  -0.2000000   0.0000000  )
       246        C      tau( 246) = (   0.6543303  -0.2000000   0.0000000  )
       247        C      tau( 247) = (   0.6735753  -0.1666667   0.0000000  )
       248        C      tau( 248) = (   0.7120653  -0.1666667   0.0000000  )
       249        C      tau( 249) = (   0.7313103  -0.1333333   0.0000000  )
       250        C      tau( 250) = (   0.7698004  -0.1333333   0.0000000  )
       251        C      tau( 251) = (   0.7890454  -0.1000000   0.0000000  )
       252        C      tau( 252) = (   0.8275354  -0.1000000   0.0000000  )
       253        C      tau( 253) = (   0.8467804  -0.0666667   0.0000000  )
       254        C      tau( 254) = (   0.8852704  -0.0666667   0.0000000  )
       255        C      tau( 255) = (   0.9045154  -0.0333333   0.0000000  )
       256        C      tau( 256) = (   0.9430054  -0.0333333   0.0000000  )
       257        C      tau( 257) = (   0.9622504   0.0000000   0.0000000  )
       258        C      tau( 258) = (   1.0007405  -0.0000000   0.0000000  )
       259        C      tau( 259) = (   1.0199855   0.0333333   0.0000000  )
       260        C      tau( 260) = (   1.0584755   0.0333333   0.0000000  )
       261        C      tau( 261) = (   1.0777205   0.0666667   0.0000000  )
       262        C      tau( 262) = (   1.1162105   0.0666667   0.0000000  )
       263        C      tau( 263) = (   1.1354555   0.1000000   0.0000000  )
       264        C      tau( 264) = (   1.1739455   0.1000000   0.0000000  )
       265        C      tau( 265) = (   1.1931906   0.1333333   0.0000000  )
       266        C      tau( 266) = (   1.2316806   0.1333333   0.0000000  )
       267        C      tau( 267) = (   1.2509256   0.1666667   0.0000000  )
       268        C      tau( 268) = (   1.2894156   0.1666667   0.0000000  )
       269        C      tau( 269) = (   1.3086606   0.2000000   0.0000000  )
       270        C      tau( 270) = (   1.3471506   0.2000000   0.0000000  )
       271        C      tau( 271) = (   0.5581053  -0.3000000   0.0000000  )
       272        C      tau( 272) = (   0.5965953  -0.3000000   0.0000000  )
       273        C      tau( 273) = (   0.6158403  -0.2666667   0.0000000  )
       274        C      tau( 274) = (   0.6543303  -0.2666667   0.0000000  )
       275        C      tau( 275) = (   0.6735753  -0.2333333   0.0000000  )
       276        C      tau( 276) = (   0.7120653  -0.2333333   0.0000000  )
       277        C      tau( 277) = (   0.7313103  -0.2000000   0.0000000  )
       278        C      tau( 278) = (   0.7698004  -0.2000000   0.0000000  )
       279        C      tau( 279) = (   0.7890454  -0.1666667   0.0000000  )
       280        C      tau( 280) = (   0.8275354  -0.1666667   0.0000000  )
       281        C      tau( 281) = (   0.8467804  -0.1333333   0.0000000  )
       282        C      tau( 282) = (   0.8852704  -0.1333333   0.0000000  )
       283        C      tau( 283) = (   0.9045154  -0.1000000   0.0000000  )
       284        C      tau( 284) = (   0.9430054  -0.1000000   0.0000000  )
       285        C      tau( 285) = (   0.9622504  -0.0666667   0.0000000  )
       286        C      tau( 286) = (   1.0007405  -0.0666667   0.0000000  )
       287        C      tau( 287) = (   1.0199855  -0.0333333   0.0000000  )
       288        C      tau( 288) = (   1.0584755  -0.0333333   0.0000000  )
       289        C      tau( 289) = (   1.0777205   0.0000000   0.0000000  )
       290        C      tau( 290) = (   1.1162105   0.0000000   0.0000000  )
       291        C      tau( 291) = (   1.1354555   0.0333333   0.0000000  )
       292        C      tau( 292) = (   1.1739455   0.0333333   0.0000000  )
       293        C      tau( 293) = (   1.1931906   0.0666667   0.0000000  )
       294        C      tau( 294) = (   1.2316806   0.0666667   0.0000000  )
       295        C      tau( 295) = (   1.2509256   0.1000000   0.0000000  )
       296        C      tau( 296) = (   1.2894156   0.1000000   0.0000000  )
       297        C      tau( 297) = (   1.3086606   0.1333333   0.0000000  )
       298        C      tau( 298) = (   1.3471506   0.1333333   0.0000000  )
       299        C      tau( 299) = (   1.3663956   0.1666667   0.0000000  )
       300        C      tau( 300) = (   1.4048857   0.1666667   0.0000000  )
       301        C      tau( 301) = (   0.6158403  -0.3333333   0.0000000  )
       302        C      tau( 302) = (   0.6543303  -0.3333333   0.0000000  )
       303        C      tau( 303) = (   0.6735753  -0.3000000   0.0000000  )
       304        C      tau( 304) = (   0.7120653  -0.3000000   0.0000000  )
       305        C      tau( 305) = (   0.7313103  -0.2666667   0.0000000  )
       306        C      tau( 306) = (   0.7698004  -0.2666667   0.0000000  )
       307        C      tau( 307) = (   0.7890454  -0.2333333   0.0000000  )
       308        C      tau( 308) = (   0.8275354  -0.2333333   0.0000000  )
       309        C      tau( 309) = (   0.8467804  -0.2000000   0.0000000  )
       310        C      tau( 310) = (   0.8852704  -0.2000000   0.0000000  )
       311        C      tau( 311) = (   0.9045154  -0.1666667   0.0000000  )
       312        C      tau( 312) = (   0.9430054  -0.1666667   0.0000000  )
       313        C      tau( 313) = (   0.9622504  -0.1333333   0.0000000  )
       314        C      tau( 314) = (   1.0007405  -0.1333333   0.0000000  )
       315        C      tau( 315) = (   1.0199855  -0.1000000   0.0000000  )
       316        C      tau( 316) = (   1.0584755  -0.1000000   0.0000000  )
       317        C      tau( 317) = (   1.0777205  -0.0666667   0.0000000  )
       318        C      tau( 318) = (   1.1162105  -0.0666667   0.0000000  )
       319        C      tau( 319) = (   1.1354555  -0.0333333   0.0000000  )
       320        C      tau( 320) = (   1.1739455  -0.0333333   0.0000000  )
       321        C      tau( 321) = (   1.1931906  -0.0000000   0.0000000  )
       322        C      tau( 322) = (   1.2316806   0.0000000   0.0000000  )
       323        C      tau( 323) = (   1.2509256   0.0333333   0.0000000  )
       324        C      tau( 324) = (   1.2894156   0.0333333   0.0000000  )
       325        C      tau( 325) = (   1.3086606   0.0666667   0.0000000  )
       326        C      tau( 326) = (   1.3471506   0.0666667   0.0000000  )
       327        C      tau( 327) = (   1.3663956   0.1000000   0.0000000  )
       328        C      tau( 328) = (   1.4048857   0.1000000   0.0000000  )
       329        C      tau( 329) = (   1.4241307   0.1333333   0.0000000  )
       330        C      tau( 330) = (   1.4626207   0.1333333   0.0000000  )
       331        C      tau( 331) = (   0.6735753  -0.3666667   0.0000000  )
       332        C      tau( 332) = (   0.7120653  -0.3666667   0.0000000  )
       333        C      tau( 333) = (   0.7313103  -0.3333333   0.0000000  )
       334        C      tau( 334) = (   0.7698004  -0.3333333   0.0000000  )
       335        C      tau( 335) = (   0.7890454  -0.3000000   0.0000000  )
       336        C      tau( 336) = (   0.8275354  -0.3000000   0.0000000  )
       337        C      tau( 337) = (   0.8467804  -0.2666667   0.0000000  )
       338        C      tau( 338) = (   0.8852704  -0.2666667   0.0000000  )
       339        C      tau( 339) = (   0.9045154  -0.2333333   0.0000000  )
       340        C      tau( 340) = (   0.9430054  -0.2333333   0.0000000  )
       341        C      tau( 341) = (   0.9622504  -0.2000000   0.0000000  )
       342        C      tau( 342) = (   1.0007405  -0.2000000   0.0000000  )
       343        C      tau( 343) = (   1.0199855  -0.1666667   0.0000000  )
       344        C      tau( 344) = (   1.0584755  -0.1666667   0.0000000  )
       345        C      tau( 345) = (   1.0777205  -0.1333333   0.0000000  )
       346        C      tau( 346) = (   1.1162105  -0.1333333   0.0000000  )
       347        C      tau( 347) = (   1.1354555  -0.1000000   0.0000000  )
       348        C      tau( 348) = (   1.1739455  -0.1000000   0.0000000  )
       349        C      tau( 349) = (   1.1931906  -0.0666667   0.0000000  )
       350        C      tau( 350) = (   1.2316806  -0.0666667   0.0000000  )
       351        C      tau( 351) = (   1.2509256  -0.0333333   0.0000000  )
       352        C      tau( 352) = (   1.2894156  -0.0333333   0.0000000  )
       353        C      tau( 353) = (   1.3086606  -0.0000000   0.0000000  )
       354        C      tau( 354) = (   1.3471506   0.0000000   0.0000000  )
       355        C      tau( 355) = (   1.3663956   0.0333333   0.0000000  )
       356        C      tau( 356) = (   1.4048857   0.0333333   0.0000000  )
       357        C      tau( 357) = (   1.4241307   0.0666667   0.0000000  )
       358        C      tau( 358) = (   1.4626207   0.0666667   0.0000000  )
       359        C      tau( 359) = (   1.4818657   0.1000000   0.0000000  )
       360        C      tau( 360) = (   1.5203557   0.1000000   0.0000000  )
       361        C      tau( 361) = (   0.7313103  -0.4000000   0.0000000  )
       362        C      tau( 362) = (   0.7698004  -0.4000000   0.0000000  )
       363        C      tau( 363) = (   0.7890454  -0.3666667   0.0000000  )
       364        C      tau( 364) = (   0.8275354  -0.3666667   0.0000000  )
       365        C      tau( 365) = (   0.8467804  -0.3333333   0.0000000  )
       366        C      tau( 366) = (   0.8852704  -0.3333333   0.0000000  )
       367        C      tau( 367) = (   0.9045154  -0.3000000   0.0000000  )
       368        C      tau( 368) = (   0.9430054  -0.3000000   0.0000000  )
       369        C      tau( 369) = (   0.9622504  -0.2666667   0.0000000  )
       370        C      tau( 370) = (   1.0007405  -0.2666667   0.0000000  )
       371        C      tau( 371) = (   1.0199855  -0.2333333   0.0000000  )
       372        C      tau( 372) = (   1.0584755  -0.2333333   0.0000000  )
       373        C      tau( 373) = (   1.0777205  -0.2000000   0.0000000  )
       374        C      tau( 374) = (   1.1162105  -0.2000000   0.0000000  )
       375        C      tau( 375) = (   1.1354555  -0.1666667   0.0000000  )
       376        C      tau( 376) = (   1.1739455  -0.1666667   0.0000000  )
       377        C      tau( 377) = (   1.1931906  -0.1333333   0.0000000  )
       378        C      tau( 378) = (   1.2316806  -0.1333333   0.0000000  )
       379        C      tau( 379) = (   1.2509256  -0.1000000   0.0000000  )
       380        C      tau( 380) = (   1.2894156  -0.1000000   0.0000000  )
       381        C      tau( 381) = (   1.3086606  -0.0666667   0.0000000  )
       382        C      tau( 382) = (   1.3471506  -0.0666667   0.0000000  )
       383        C      tau( 383) = (   1.3663956  -0.0333333   0.0000000  )
       384        C      tau( 384) = (   1.4048857  -0.0333333   0.0000000  )
       385        C      tau( 385) = (   1.4241307  -0.0000000   0.0000000  )
       386        C      tau( 386) = (   1.4626207  -0.0000000   0.0000000  )
       387        C      tau( 387) = (   1.4818657   0.0333333   0.0000000  )
       388        C      tau( 388) = (   1.5203557   0.0333333   0.0000000  )
       389        C      tau( 389) = (   1.5396007   0.0666667   0.0000000  )
       390        C      tau( 390) = (   1.5780907   0.0666667   0.0000000  )
       391        C      tau( 391) = (   0.7890454  -0.4333333   0.0000000  )
       392        C      tau( 392) = (   0.8275354  -0.4333333   0.0000000  )
       393        C      tau( 393) = (   0.8467804  -0.4000000   0.0000000  )
       394        C      tau( 394) = (   0.8852704  -0.4000000   0.0000000  )
       395        C      tau( 395) = (   0.9045154  -0.3666667   0.0000000  )
       396        C      tau( 396) = (   0.9430054  -0.3666667   0.0000000  )
       397        C      tau( 397) = (   0.9622504  -0.3333333   0.0000000  )
       398        C      tau( 398) = (   1.0007405  -0.3333333   0.0000000  )
       399        C      tau( 399) = (   1.0199855  -0.3000000   0.0000000  )
       400        C      tau( 400) = (   1.0584755  -0.3000000   0.0000000  )
       401        C      tau( 401) = (   1.0777205  -0.2666667   0.0000000  )
       402        C      tau( 402) = (   1.1162105  -0.2666667   0.0000000  )
       403        C      tau( 403) = (   1.1354555  -0.2333333   0.0000000  )
       404        C      tau( 404) = (   1.1739455  -0.2333333   0.0000000  )
       405        C      tau( 405) = (   1.1931906  -0.2000000   0.0000000  )
       406        C      tau( 406) = (   1.2316806  -0.2000000   0.0000000  )
       407        C      tau( 407) = (   1.2509256  -0.1666667   0.0000000  )
       408        C      tau( 408) = (   1.2894156  -0.1666667   0.0000000  )
       409        C      tau( 409) = (   1.3086606  -0.1333333   0.0000000  )
       410        C      tau( 410) = (   1.3471506  -0.1333333   0.0000000  )
       411        C      tau( 411) = (   1.3663956  -0.1000000   0.0000000  )
       412        C      tau( 412) = (   1.4048857  -0.1000000   0.0000000  )
       413        C      tau( 413) = (   1.4241307  -0.0666667   0.0000000  )
       414        C      tau( 414) = (   1.4626207  -0.0666667   0.0000000  )
       415        C      tau( 415) = (   1.4818657  -0.0333333   0.0000000  )
       416        C      tau( 416) = (   1.5203557  -0.0333333   0.0000000  )
       417        C      tau( 417) = (   1.5396007  -0.0000000   0.0000000  )
       418        C      tau( 418) = (   1.5780907  -0.0000000   0.0000000  )
       419        C      tau( 419) = (   1.5973357   0.0333333   0.0000000  )
       420        C      tau( 420) = (   1.6358258   0.0333333   0.0000000  )
       421        C      tau( 421) = (   0.8467804  -0.4666667   0.0000000  )
       422        C      tau( 422) = (   0.8852704  -0.4666667   0.0000000  )
       423        C      tau( 423) = (   0.9045154  -0.4333333   0.0000000  )
       424        C      tau( 424) = (   0.9430054  -0.4333333   0.0000000  )
       425        C      tau( 425) = (   0.9622504  -0.4000000   0.0000000  )
       426        C      tau( 426) = (   1.0007405  -0.4000000   0.0000000  )
       427        C      tau( 427) = (   1.0199855  -0.3666667   0.0000000  )
       428        C      tau( 428) = (   1.0584755  -0.3666667   0.0000000  )
       429        C      tau( 429) = (   1.0777205  -0.3333333   0.0000000  )
       430        C      tau( 430) = (   1.1162105  -0.3333333   0.0000000  )
       431        C      tau( 431) = (   1.1354555  -0.3000000   0.0000000  )
       432        C      tau( 432) = (   1.1739455  -0.3000000   0.0000000  )
       433        C      tau( 433) = (   1.1931906  -0.2666667   0.0000000  )
       434        C      tau( 434) = (   1.2316806  -0.2666667   0.0000000  )
       435        C      tau( 435) = (   1.2509256  -0.2333333   0.0000000  )
       436        C      tau( 436) = (   1.2894156  -0.2333333   0.0000000  )
       437        C      tau( 437) = (   1.3086606  -0.2000000   0.0000000  )
       438        C      tau( 438) = (   1.3471506  -0.2000000   0.0000000  )
       439        C      tau( 439) = (   1.3663956  -0.1666667   0.0000000  )
       440        C      tau( 440) = (   1.4048857  -0.1666667   0.0000000  )
       441        C      tau( 441) = (   1.4241307  -0.1333333   0.0000000  )
       442        C      tau( 442) = (   1.4626207  -0.1333333   0.0000000  )
       443        C      tau( 443) = (   1.4818657  -0.1000000   0.0000000  )
       444        C      tau( 444) = (   1.5203557  -0.1000000   0.0000000  )
       445        C      tau( 445) = (   1.5396007  -0.0666667   0.0000000  )
       446        C      tau( 446) = (   1.5780907  -0.0666667   0.0000000  )
       447        C      tau( 447) = (   1.5973357  -0.0333333   0.0000000  )
       448        C      tau( 448) = (   1.6358258  -0.0333333   0.0000000  )
       449        C      tau( 449) = (   1.6550708   0.0000000   0.0000000  )
       450        C      tau( 450) = (   1.6935608  -0.0000000   0.0000000  )

     number of k points=     1  Marzari-Vanderbilt smearing, width (Ry)=  0.0100
                       cart. coord. in units 2pi/alat
        k(    1) = (   0.0000000   0.0000000   0.0000000), wk =   2.0000000

     Dense  grid:  8574063 G-vectors     FFT dimensions: ( 450, 450, 192)

     Estimated max dynamical RAM per process >       2.18 GB

     Estimated total dynamical RAM >     139.54 GB
 ----2D----2D----2D----2D----2D----2D----2D----2D----2D----2D----2D----2D
  The code is running with the 2D cutoff
  Please refer to:
  Sohier, T., Calandra, M., & Mauri, F. (2017), 
  Density functional perturbation theory for gated two-dimensional heterostructures:
  Theoretical developments and application to flexural phonons in graphene.
  Physical Review B, 96(7), 75448. https://doi.org/10.1103/PhysRevB.96.075448
 ----2D----2D----2D----2D----2D----2D----2D----2D----2D----2D----2D----2D

     Initial potential from superposition of free atoms

     starting charge    1799.9799, renormalised to    1800.0000

     negative rho (up, down):  3.410E-04 0.000E+00
     Starting wfcs are 1800 randomized atomic wfcs

     total cpu time spent up to now is       71.2 secs

     per-process dynamical memory:  1392.2 Mb

     Self-consistent Calculation

     iteration #  1     ecut=   100.00 Ry     beta= 0.30
     Davidson diagonalization with overlap
     ethr =  1.00E-02,  avg # of iterations =  3.0

     negative rho (up, down):  1.473E-06 0.000E+00

     total cpu time spent up to now is      197.3 secs

     total energy              =   -5426.78262896 Ry
     estimated scf accuracy    <      37.92942434 Ry

     iteration #  2     ecut=   100.00 Ry     beta= 0.30
     Davidson diagonalization with overlap
     ethr =  2.11E-03,  avg # of iterations =  1.0

     total cpu time spent up to now is      277.4 secs

     total energy              =   -5417.66630312 Ry
     estimated scf accuracy    <      16.60426816 Ry

     iteration #  3     ecut=   100.00 Ry     beta= 0.30
     Davidson diagonalization with overlap
     ethr =  9.22E-04,  avg # of iterations =  2.0

     total cpu time spent up to now is      398.5 secs

     total energy              =   -5424.29427728 Ry
     estimated scf accuracy    <       1.56372437 Ry

     iteration #  4     ecut=   100.00 Ry     beta= 0.30
     Davidson diagonalization with overlap
     ethr =  8.69E-05,  avg # of iterations =  2.0

     negative rho (up, down):  6.588E-05 0.000E+00

     total cpu time spent up to now is      516.0 secs

     total energy              =   -5420.98415764 Ry
     estimated scf accuracy    <       6.95193692 Ry

     iteration #  5     ecut=   100.00 Ry     beta= 0.30
     Davidson diagonalization with overlap
     ethr =  8.69E-05,  avg # of iterations =  2.0

     negative rho (up, down):  6.841E-06 0.000E+00

     total cpu time spent up to now is      634.4 secs

     total energy              =   -5421.50472827 Ry
     estimated scf accuracy    <       0.38536144 Ry

     iteration #  6     ecut=   100.00 Ry     beta= 0.30
     Davidson diagonalization with overlap
     ethr =  2.14E-05,  avg # of iterations =  2.0

     total cpu time spent up to now is      710.5 secs

     total energy              =   -5421.50814059 Ry
     estimated scf accuracy    <       0.07323766 Ry

     iteration #  7     ecut=   100.00 Ry     beta= 0.30
     Davidson diagonalization with overlap
     ethr =  4.07E-06,  avg # of iterations =  2.0

     total cpu time spent up to now is      796.0 secs

     total energy              =   -5421.51040291 Ry
     estimated scf accuracy    <       0.01181797 Ry

     iteration #  8     ecut=   100.00 Ry     beta= 0.30
     Davidson diagonalization with overlap
     ethr =  6.57E-07,  avg # of iterations =  3.0

     negative rho (up, down):  3.078E-05 0.000E+00

     total cpu time spent up to now is      902.2 secs

     total energy              =   -5421.51449959 Ry
     estimated scf accuracy    <       0.00042667 Ry

     iteration #  9     ecut=   100.00 Ry     beta= 0.30
     Davidson diagonalization with overlap
     ethr =  2.37E-08,  avg # of iterations =  6.0

     total cpu time spent up to now is     1038.1 secs

     total energy              =   -5421.51443771 Ry
     estimated scf accuracy    <       0.00043610 Ry

     iteration # 10     ecut=   100.00 Ry     beta= 0.30
     Davidson diagonalization with overlap
     ethr =  2.37E-08,  avg # of iterations =  2.0

     negative rho (up, down):  8.308E-08 0.000E+00

     total cpu time spent up to now is     1129.7 secs

     total energy              =   -5421.51446081 Ry
     estimated scf accuracy    <       0.00003442 Ry

     iteration # 11     ecut=   100.00 Ry     beta= 0.30
     Davidson diagonalization with overlap
     ethr =  1.91E-09,  avg # of iterations =  5.0

     negative rho (up, down):  1.470E-05 0.000E+00

     total cpu time spent up to now is     1258.1 secs

     total energy              =   -5421.51447088 Ry
     estimated scf accuracy    <       0.00000211 Ry

     iteration # 12     ecut=   100.00 Ry     beta= 0.30
     Davidson diagonalization with overlap
     ethr =  1.17E-10,  avg # of iterations =  5.0

     negative rho (up, down):  6.138E-06 0.000E+00

     total cpu time spent up to now is     1388.0 secs

     total energy              =   -5421.51447065 Ry
     estimated scf accuracy    <       0.00000242 Ry

     iteration # 13     ecut=   100.00 Ry     beta= 0.30
     Davidson diagonalization with overlap
     ethr =  1.17E-10,  avg # of iterations =  2.0

     negative rho (up, down):  2.670E-06 0.000E+00

     total cpu time spent up to now is     1478.9 secs

     total energy              =   -5421.51446952 Ry
     estimated scf accuracy    <       0.00000044 Ry

     iteration # 14     ecut=   100.00 Ry     beta= 0.30
     Davidson diagonalization with overlap
     ethr =  2.47E-11,  avg # of iterations =  6.0

     negative rho (up, down):  7.247E-07 0.000E+00

     total cpu time spent up to now is     1602.8 secs

     total energy              =   -5421.51446962 Ry
     estimated scf accuracy    <       0.00000024 Ry

     iteration # 15     ecut=   100.00 Ry     beta= 0.30
     Davidson diagonalization with overlap
     ethr =  1.35E-11,  avg # of iterations =  2.0

     negative rho (up, down):  9.563E-07 0.000E+00

     total cpu time spent up to now is     1694.8 secs

     total energy              =   -5421.51446966 Ry
     estimated scf accuracy    <          3.7E-09 Ry

     iteration # 16     ecut=   100.00 Ry     beta= 0.30
     Davidson diagonalization with overlap
     ethr =  2.04E-13,  avg # of iterations =  7.0

     negative rho (up, down):  6.962E-07 0.000E+00

     total cpu time spent up to now is     1843.6 secs

     total energy              =   -5421.51446966 Ry
     estimated scf accuracy    <          1.7E-09 Ry

     iteration # 17     ecut=   100.00 Ry     beta= 0.30
     Davidson diagonalization with overlap
     ethr =  1.00E-13,  avg # of iterations =  2.0

     negative rho (up, down):  1.792E-07 0.000E+00

     total cpu time spent up to now is     1927.1 secs

     total energy              =   -5421.51446966 Ry
     estimated scf accuracy    <          5.6E-10 Ry

     iteration # 18     ecut=   100.00 Ry     beta= 0.30
     Davidson diagonalization with overlap
     ethr =  1.00E-13,  avg # of iterations =  5.0

     negative rho (up, down):  8.701E-08 0.000E+00

     total cpu time spent up to now is     2031.1 secs

     total energy              =   -5421.51446966 Ry
     estimated scf accuracy    <          2.0E-10 Ry

     iteration # 19     ecut=   100.00 Ry     beta= 0.30
     Davidson diagonalization with overlap
     ethr =  1.00E-13,  avg # of iterations =  1.0

     total cpu time spent up to now is     2107.1 secs

     End of self-consistent calculation

          k = 0.0000 0.0000 0.0000 (****** PWs)   bands (ev):

   -23.7815 -23.6766 -23.6766 -23.6766 -23.6766 -23.6766 -23.6766 -23.4673
   -23.4673 -23.4673 -23.4673 -23.4673 -23.4673 -23.3628 -23.3628 -23.3628
   -23.3628 -23.3628 -23.3628 -23.0500 -23.0500 -23.0500 -23.0500 -23.0500
   -23.0500 -23.0500 -23.0500 -23.0500 -23.0500 -23.0500 -23.0500 -22.8421
   -22.8421 -22.8421 -22.8421 -22.8421 -22.8421 -22.5314 -22.5314 -22.5314
   -22.5314 -22.5314 -22.5314 -22.4280 -22.4280 -22.4280 -22.4280 -22.4280
   -22.4280 -22.4280 -22.4280 -22.4280 -22.4280 -22.4280 -22.4280 -22.1187
   -22.1187 -22.1187 -22.1187 -22.1187 -22.1187 -21.8116 -21.8116 -21.8116
   -21.8116 -21.8116 -21.8116 -21.8116 -21.8116 -21.8116 -21.8116 -21.8116
   -21.8116 -21.6069 -21.6069 -21.6069 -21.6069 -21.6069 -21.6069 -21.6069
   -21.6069 -21.6069 -21.6069 -21.6069 -21.6069 -21.2002 -21.2002 -21.2002
   -21.2002 -21.2002 -21.2002 -20.9999 -20.9999 -20.9999 -20.9999 -20.9999
   -20.9999 -20.8989 -20.8989 -20.8989 -20.8989 -20.8989 -20.8989 -20.8989
   -20.8989 -20.8989 -20.8989 -20.8989 -20.8989 -20.5975 -20.5975 -20.5975
   -20.5975 -20.5975 -20.5975 -20.5975 -20.5975 -20.5975 -20.5975 -20.5975
   -20.5975 -20.1026 -20.1026 -20.1026 -20.1026 -20.1026 -20.1026 -20.0060
   -20.0060 -20.0060 -20.0060 -20.0060 -20.0060 -20.0060 -20.0060 -20.0060
   -20.0060 -20.0060 -20.0060 -19.8107 -19.8107 -19.8107 -19.8107 -19.8107
   -19.8107 -19.8107 -19.8107 -19.8107 -19.8107 -19.8107 -19.8107 -19.4299
   -19.4299 -19.4299 -19.4299 -19.4299 -19.4299 -19.4299 -19.4299 -19.4299
   -19.4299 -19.4299 -19.4299 -18.9513 -18.9513 -18.9513 -18.9513 -18.9513
   -18.9513 -18.9033 -18.9033 -18.9033 -18.9033 -18.9033 -18.9033 -18.8635
   -18.8635 -18.8635 -18.8635 -18.8635 -18.8635 -18.8635 -18.8635 -18.8635
   -18.8635 -18.8635 -18.8635 -18.6268 -18.6268 -18.6268 -18.6268 -18.6268
   -18.6268 -18.6268 -18.6268 -18.6268 -18.6268 -18.6268 -18.6268 -18.4743
   -18.4743 -18.4743 -18.4743 -18.4743 -18.4743 -17.9360 -17.9360 -17.9360
   -17.9360 -17.9360 -17.9360 -17.8161 -17.8161 -17.8161 -17.8161 -17.8161
   -17.8161 -17.8161 -17.8161 -17.8161 -17.8161 -17.8161 -17.8161 -17.4407
   -17.4407 -17.4407 -17.4407 -17.4407 -17.4407 -17.1065 -17.1065 -17.1065
   -17.1065 -17.1065 -17.1065 -16.9516 -16.9516 -16.9516 -16.9516 -16.9516
   -16.9516 -16.8641 -16.8641 -16.8641 -16.8641 -16.8566 -16.8566 -16.8566
   -16.8566 -16.8566 -16.8566 -16.8566 -16.8566 -16.8566 -16.8566 -16.8566
   -16.8566 -16.3321 -16.3321 -16.3321 -16.3321 -16.3321 -16.3321 -16.3321
   -16.3321 -16.3321 -16.3321 -16.3321 -16.3321 -16.3180 -16.3180 -16.3180
   -16.3180 -16.3180 -16.3180 -16.3180 -16.3180 -16.3180 -16.3180 -16.3180
   -16.3180 -15.9146 -15.9146 -15.9146 -15.9146 -15.9146 -15.9146 -15.9146
   -15.9146 -15.9146 -15.9146 -15.9146 -15.9146 -15.5972 -15.5972 -15.5972
   -15.5972 -15.5972 -15.5972 -15.3941 -15.3941 -15.3941 -15.3941 -15.3941
   -15.3941 -15.3941 -15.3941 -15.3941 -15.3941 -15.3941 -15.3941 -15.2738
   -15.2738 -15.2738 -15.2738 -15.2738 -15.2738 -14.8293 -14.8293 -14.7164
   -14.7164 -14.7164 -14.7164 -14.7164 -14.7164 -14.7164 -14.7164 -14.7164
   -14.7164 -14.7164 -14.7164 -14.4915 -14.4915 -14.4915 -14.4915 -14.4915
   -14.4915 -14.4915 -14.4915 -14.4915 -14.4915 -14.4915 -14.4915 -14.2160
   -14.2160 -14.2160 -14.2160 -14.2160 -14.2160 -14.2160 -14.2160 -14.2160
   -14.2160 -14.2160 -14.2160 -13.8990 -13.8990 -13.8990 -13.8990 -13.8990
   -13.8990 -13.7841 -13.7841 -13.7841 -13.7841 -13.7841 -13.7841 -13.7841
   -13.7841 -13.7841 -13.7841 -13.7841 -13.7841 -13.6751 -13.6751 -13.6751
   -13.6751 -13.6751 -13.6751 -13.2095 -13.2095 -13.2095 -13.2095 -13.2095
   -13.2095 -13.1141 -13.1141 -13.1141 -13.1141 -13.1141 -13.1141 -12.9990
   -12.9990 -12.9990 -12.9990 -12.9990 -12.9990 -12.9990 -12.9990 -12.9990
   -12.9990 -12.9990 -12.9990 -12.9810 -12.9810 -12.9810 -12.9810 -12.9810
   -12.9810 -12.9810 -12.9810 -12.9810 -12.9810 -12.9810 -12.9810 -12.5534
   -12.5534 -12.5534 -12.5534 -12.5534 -12.5534 -12.5534 -12.5534 -12.5534
   -12.5534 -12.5534 -12.5534 -12.1948 -12.1948 -12.1948 -12.1948 -12.1948
   -12.1948 -12.1948 -12.1948 -12.1948 -12.1948 -12.1948 -12.1948 -12.1342
   -12.1342 -12.1342 -12.1342 -12.1342 -12.1342 -11.9057 -11.9057 -11.9057
   -11.9057 -11.9057 -11.9057 -11.9057 -11.9057 -11.9057 -11.9057 -11.9057
   -11.9057 -11.8699 -11.7442 -11.7442 -11.7442 -11.7442 -11.7442 -11.7442
   -11.7333 -11.7333 -11.7333 -11.7333 -11.7333 -11.7333 -11.6831 -11.6831
   -11.6831 -11.6831 -11.6831 -11.6831 -11.6831 -11.6831 -11.6831 -11.6831
   -11.6831 -11.6831 -11.4938 -11.4938 -11.4938 -11.4938 -11.4938 -11.4938
   -11.3691 -11.3691 -11.3691 -11.3691 -11.3691 -11.3691 -11.2812 -11.2812
   -11.2812 -11.2812 -11.2812 -11.2812 -11.2812 -11.2812 -11.2812 -11.2812
   -11.2812 -11.2812 -11.2375 -11.2375 -11.2375 -11.2375 -11.2375 -11.2375
   -11.2375 -11.2375 -11.2375 -11.2375 -11.2375 -11.2375 -11.0373 -11.0373
   -11.0373 -11.0373 -11.0373 -11.0373 -10.9974 -10.9974 -10.9974 -10.9974
   -10.9974 -10.9974 -10.9974 -10.9974 -10.9974 -10.9974 -10.9974 -10.9974
   -10.9315 -10.9315 -10.9315 -10.9315 -10.9315 -10.9315 -10.9315 -10.9315
   -10.9315 -10.9315 -10.9315 -10.9315 -10.8007 -10.8007 -10.8007 -10.8007
   -10.8007 -10.8007 -10.7519 -10.7519 -10.7519 -10.7519 -10.7519 -10.7519
   -10.6684 -10.6684 -10.6684 -10.6684 -10.6684 -10.6684 -10.6187 -10.6187
   -10.6187 -10.6187 -10.6187 -10.6187 -10.6187 -10.6187 -10.6187 -10.6187
   -10.6187 -10.6187 -10.5625 -10.5625 -10.5625 -10.5625 -10.5625 -10.5625
   -10.5625 -10.5625 -10.5625 -10.5625 -10.5625 -10.5625 -10.4603 -10.4603
   -10.4603 -10.4603 -10.4603 -10.4603 -10.4016 -10.4016 -10.4016 -10.4016
   -10.4016 -10.4016 -10.3855 -10.3855 -10.3855 -10.3855 -10.3855 -10.3855
   -10.2654 -10.2654 -10.2654 -10.2654 -10.2654 -10.2654 -10.2654 -10.2654
   -10.2654 -10.2654 -10.2654 -10.2654 -10.1151 -10.1151 -10.1151 -10.1151
   -10.1151 -10.1151 -10.1151 -10.1151 -10.1151 -10.1151 -10.1151 -10.1151
   -10.0560 -10.0560 -10.0560 -10.0560 -10.0560 -10.0560  -9.9077  -9.9077
    -9.9077  -9.9077  -9.9077  -9.9077  -9.6994  -9.6994  -9.6994  -9.6994
    -9.6994  -9.6994  -9.6994  -9.6994  -9.6994  -9.6994  -9.6994  -9.6994
    -9.6565  -9.6565  -9.6565  -9.6565  -9.6565  -9.6565  -9.5485  -9.5485
    -9.5485  -9.5485  -9.5485  -9.5485  -9.5485  -9.5485  -9.5485  -9.5485
    -9.5485  -9.5485  -9.4830  -9.4830  -9.4830  -9.4830  -9.4830  -9.4830
    -9.4531  -9.4531  -9.4531  -9.4531  -9.4531  -9.4531  -9.4531  -9.4531
    -9.4531  -9.4531  -9.4531  -9.4531  -9.3201  -9.3201  -9.3201  -9.3201
    -9.3201  -9.3201  -9.3201  -9.3201  -9.3201  -9.3201  -9.3201  -9.3201
    -8.8699  -8.8699  -8.8699  -8.8699  -8.8699  -8.8699  -8.8533  -8.8533
    -8.8533  -8.8533  -8.8533  -8.8533  -8.7946  -8.7946  -8.7946  -8.7946
    -8.7946  -8.7946  -8.6952  -8.6952  -8.6952  -8.6952  -8.6952  -8.6952
    -8.6952  -8.6952  -8.6952  -8.6952  -8.6952  -8.6952  -8.6215  -8.6215
    -8.6215  -8.6215  -8.6215  -8.6215  -8.5178  -8.5178  -8.5178  -8.5178
    -8.5178  -8.5178  -8.5178  -8.5178  -8.5178  -8.5178  -8.5178  -8.5178
    -8.4499  -8.4499  -8.4499  -8.4499  -8.4499  -8.4499  -8.2126  -8.2126
    -8.2126  -8.2126  -8.2126  -8.2126  -8.2126  -8.2126  -8.2126  -8.2126
    -8.2126  -8.2126  -8.0875  -8.0875  -8.0875  -8.0875  -8.0875  -8.0875
    -7.9683  -7.9683  -7.9683  -7.9683  -7.9683  -7.9683  -7.7257  -7.7257
    -7.7257  -7.7257  -7.7257  -7.7257  -7.7245  -7.7245  -7.7245  -7.7245
    -7.7245  -7.7245  -7.5279  -7.5279  -7.5279  -7.5279  -7.5279  -7.5279
    -7.5279  -7.5279  -7.5279  -7.5279  -7.5279  -7.5279  -7.5225  -7.5225
    -7.5225  -7.5225  -7.5225  -7.5225  -7.3734  -7.3734  -7.3734  -7.3734
    -7.3734  -7.3734  -7.3734  -7.3734  -7.3734  -7.3734  -7.3734  -7.3734
    -7.2997  -7.2997  -7.0963  -7.0963  -7.0963  -7.0963  -7.0963  -7.0963
    -7.0963  -7.0963  -7.0963  -7.0963  -7.0963  -7.0963  -6.7700  -6.7700
    -6.7700  -6.7700  -6.7700  -6.7700  -6.5086  -6.5086  -6.5086  -6.5086
    -6.5086  -6.5086  -6.4040  -6.4040  -6.4040  -6.4040  -6.4040  -6.4040
    -6.3953  -6.3953  -6.3953  -6.3953  -6.3953  -6.3953  -6.3953  -6.3953
    -6.3953  -6.3953  -6.3953  -6.3953  -6.3917  -6.3917  -6.3917  -6.3917
    -6.3917  -6.3917  -6.3917  -6.3917  -6.3917  -6.3917  -6.3917  -6.3917
    -5.7437  -5.7437  -5.7437  -5.7437  -5.7437  -5.7437  -5.3242  -5.3242
    -5.3242  -5.3242  -5.3242  -5.3242  -5.3242  -5.3242  -5.3242  -5.3242
    -5.3242  -5.3242  -4.2388  -4.2388  -4.2388  -4.2388  -3.1918  -3.1918
    -3.1918  -3.1918  -3.1918  -3.1918  -3.1918  -3.1918  -3.1918  -3.1918
    -3.1918  -3.1918  -2.9346  -2.9346  -2.9346  -2.9346  -2.9346  -2.9346
    -2.4719  -2.4714  -2.4707  -2.4702  -2.4697  -2.4694  -2.4694  -2.4694
    -2.4694  -2.4694

     the Fermi energy is    -4.2198 ev

!    total energy              =   -5421.51446966 Ry
     estimated scf accuracy    <          6.3E-11 Ry
     smearing contrib. (-TS)   =      -0.01312732 Ry
     internal energy E=F+TS    =   -5421.50134235 Ry

     The total energy is F=E-TS. E is the sum of the following terms:
     one-electron contribution =  -61707.29342578 Ry
     hartree contribution      =   31023.10934754 Ry
     xc contribution           =   -1930.28020421 Ry
     ewald contribution        =   27192.96294009 Ry

     convergence has been achieved in  19 iterations

     Writing all to output data dir /home/gregb26/links/scratch/qe_tmp/defect_15x15_p/defect_15x15_p.save/ :
     XML data file, charge density, pseudopotentials, collected wavefunctions

     init_run     :     69.43s CPU     70.67s WALL (       1 calls)
     electrons    :   2013.82s CPU   2036.69s WALL (       1 calls)

     Called by init_run:
     wfcinit      :     61.52s CPU     62.50s WALL (       1 calls)
     potinit      :      0.38s CPU      0.45s WALL (       1 calls)
     hinit0       :      1.27s CPU      1.33s WALL (       1 calls)

     Called by electrons:
     c_bands      :   1851.07s CPU   1870.88s WALL (      19 calls)
     sum_band     :    154.25s CPU    156.37s WALL (      19 calls)
     v_of_rho     :      6.44s CPU      6.96s WALL (      20 calls)
     mix_rho      :      1.38s CPU      1.46s WALL (      19 calls)

     Called by c_bands:
     init_us_2    :      6.21s CPU      6.37s WALL (      39 calls)
     regterg      :   1831.04s CPU   1850.67s WALL (      19 calls)

     Called by *egterg:
     rdiaghg      :      9.76s CPU     10.04s WALL (      79 calls)
     h_psi        :   1346.66s CPU   1361.06s WALL (      80 calls)
     g_psi        :      0.91s CPU      0.92s WALL (      60 calls)

     Called by h_psi:
     h_psi:calbec :    278.46s CPU    280.83s WALL (      80 calls)
     vloc_psi     :    796.74s CPU    806.93s WALL (      80 calls)
                                        0.00s GPU  (      80 calls)
     add_vuspsi   :    270.19s CPU    272.02s WALL (      80 calls)

     General routines
     calbec       :    278.46s CPU    280.83s WALL (      80 calls)
     fft          :      5.37s CPU      5.81s WALL (     160 calls)
     ffts         :      0.53s CPU      0.55s WALL (      19 calls)
     fftw         :    894.63s CPU    906.27s WALL (   59395 calls)

     Parallel routines

     PWSCF        :   2135.88s CPU   2179.92s WALL


   This run was terminated on:  16:34: 2  25Sep2026            

=------------------------------------------------------------------------------=
   JOB DONE.
=------------------------------------------------------------------------------=
