
     Program PWSCF v.7.5 starts on 22Sep2026 at 12:52:35 

     This program is part of the open-source Quantum ESPRESSO suite
     for quantum simulation of materials; please cite
         "P. Giannozzi et al., J. Phys.:Condens. Matter 21 395502 (2009);
         "P. Giannozzi et al., J. Phys.:Condens. Matter 29 465901 (2017);
         "P. Giannozzi et al., J. Chem. Phys. 152 154105 (2020);
          URL http://www.quantum-espresso.org", 
     in publications or presentations arising from this work. More details at
     http://www.quantum-espresso.org/quote

     Parallel version (MPI & OpenMP), running on      64 processor cores
     Number of MPI processes:                64
     Threads/MPI process:                     1

     MPI processes distributed on     3 nodes
     575524 MiB available memory on the printing compute node when the environment starts

     Waiting for input...
     Reading input from standard input

     Current dimensions of program PWSCF are:
     Max number of different atomic species (ntypx) = 10
     Max number of k-points (npk) =  40000
     Max angular momentum in pseudopotentials (lmaxx) =  4

     R & G space division:  proc/nbgrp/npool/nimage =      64
     Subspace diagonalization in iterative solution of the eigenvalue problem:
     one sub-group per band group will be used
     ELPA distributed-memory algorithm (size of sub-group:  4*  4 procs)


     Parallelization info
     --------------------
     sticks:   dense  smooth     PW     G-vecs:    dense   smooth      PW
     Min         757     757    193                96449    96449   12421
     Max         758     758    194                96454    96454   12426
     Sum       48511   48511  12355              6173045  6173045  795019

     Using Slab Decomposition



     bravais-lattice index     =            0
     lattice parameter (alat)  =      41.9381  a.u.
     unit-cell volume          =   45694.9917 (a.u.)^3
     number of atoms/cell      =          161
     number of atomic types    =            1
     number of electrons       =       644.00
     number of Kohn-Sham states=          352
     kinetic-energy cutoff     =     100.0000  Ry
     charge density cutoff     =     400.0000  Ry
     scf convergence threshold =      1.0E-10
     mixing beta               =       0.3000
     number of iterations used =            8  plain     mixing
     Exchange-correlation= PBE
                           (   1   4   3   4   0   0   0)

     celldm(1)=  41.938062  celldm(2)=   0.000000  celldm(3)=   0.000000
     celldm(4)=   0.000000  celldm(5)=   0.000000  celldm(6)=   0.000000

     crystal axes: (cart. coord. in units of alat)
               a(1) = (   0.866025  -0.500000   0.000000 )  
               a(2) = (   0.866025   0.500000   0.000000 )  
               a(3) = (   0.000000   0.000000   0.715341 )  

     reciprocal axes: (cart. coord. in units 2 pi/alat)
               b(1) = (  0.577350 -1.000000  0.000000 )  
               b(2) = (  0.577350  1.000000 -0.000000 )  
               b(3) = ( -0.000000  0.000000  1.397935 )  


     PseudoPot. # 1 for C  read from file:
     /home/gregb26/links/projects/rrg-cotemich-ac/gregb26/abinit_processing/pseudo/C.upf
     MD5 check sum: 34a24e64c0a39f27c6c36b90a16ac686
     Pseudo is Norm-conserving + core correction, Zval =  4.0
     Generated using ONCVPSP code by D. R. Hamann
     Using radial grid of 1248 points,  4 beta functions with: 
                l(1) =   0
                l(2) =   0
                l(3) =   1
                l(4) =   1

     atomic species   valence    mass     pseudopotential
     C                 4.00    12.01100     C ( 1.00)

     No symmetry found



   Cartesian axes

     site n.     atom                  positions (alat units)
         1        C      tau(   1) = (   0.0641500  -0.0000000   0.0000000  )
         2        C      tau(   2) = (   0.1283001  -0.0000000   0.0000000  )
         3        C      tau(   3) = (   0.1603751   0.0555556   0.0000000  )
         4        C      tau(   4) = (   0.2245251   0.0555556   0.0000000  )
         5        C      tau(   5) = (   0.2566001   0.1111111   0.0000000  )
         6        C      tau(   6) = (   0.3207501   0.1111111   0.0000000  )
         7        C      tau(   7) = (   0.3528252   0.1666667   0.0000000  )
         8        C      tau(   8) = (   0.4169752   0.1666667   0.0000000  )
         9        C      tau(   9) = (   0.4490502   0.2222222   0.0000000  )
        10        C      tau(  10) = (   0.5132002   0.2222222   0.0000000  )
        11        C      tau(  11) = (   0.5452753   0.2777778   0.0000000  )
        12        C      tau(  12) = (   0.6094253   0.2777778   0.0000000  )
        13        C      tau(  13) = (   0.6415003   0.3333333   0.0000000  )
        14        C      tau(  14) = (   0.7056503   0.3333333   0.0000000  )
        15        C      tau(  15) = (   0.7377253   0.3888889   0.0000000  )
        16        C      tau(  16) = (   0.8018754   0.3888889   0.0000000  )
        17        C      tau(  17) = (   0.8339504   0.4444444   0.0000000  )
        18        C      tau(  18) = (   0.8981004   0.4444444   0.0000000  )
        19        C      tau(  19) = (   0.1603751  -0.0555556   0.0000000  )
        20        C      tau(  20) = (   0.2245251  -0.0555556   0.0000000  )
        21        C      tau(  21) = (   0.2566001  -0.0000000   0.0000000  )
        22        C      tau(  22) = (   0.3207501   0.0000000   0.0000000  )
        23        C      tau(  23) = (   0.3528252   0.0555556   0.0000000  )
        24        C      tau(  24) = (   0.4169752   0.0555556   0.0000000  )
        25        C      tau(  25) = (   0.4490502   0.1111111   0.0000000  )
        26        C      tau(  26) = (   0.5132002   0.1111111   0.0000000  )
        27        C      tau(  27) = (   0.5452753   0.1666667   0.0000000  )
        28        C      tau(  28) = (   0.6094253   0.1666667   0.0000000  )
        29        C      tau(  29) = (   0.6415003   0.2222222   0.0000000  )
        30        C      tau(  30) = (   0.7056503   0.2222222   0.0000000  )
        31        C      tau(  31) = (   0.7377253   0.2777778   0.0000000  )
        32        C      tau(  32) = (   0.8018754   0.2777778   0.0000000  )
        33        C      tau(  33) = (   0.8339504   0.3333333   0.0000000  )
        34        C      tau(  34) = (   0.8981004   0.3333333   0.0000000  )
        35        C      tau(  35) = (   0.9301754   0.3888889   0.0000000  )
        36        C      tau(  36) = (   0.9943255   0.3888889   0.0000000  )
        37        C      tau(  37) = (   0.2566001  -0.1111111   0.0000000  )
        38        C      tau(  38) = (   0.3207501  -0.1111111   0.0000000  )
        39        C      tau(  39) = (   0.3528252  -0.0555556   0.0000000  )
        40        C      tau(  40) = (   0.4169752  -0.0555556   0.0000000  )
        41        C      tau(  41) = (   0.4490502  -0.0000000   0.0000000  )
        42        C      tau(  42) = (   0.5132002  -0.0000000   0.0000000  )
        43        C      tau(  43) = (   0.5452753   0.0555556   0.0000000  )
        44        C      tau(  44) = (   0.6094253   0.0555556   0.0000000  )
        45        C      tau(  45) = (   0.6415003   0.1111111   0.0000000  )
        46        C      tau(  46) = (   0.7056503   0.1111111   0.0000000  )
        47        C      tau(  47) = (   0.7377253   0.1666667   0.0000000  )
        48        C      tau(  48) = (   0.8018754   0.1666667   0.0000000  )
        49        C      tau(  49) = (   0.8339504   0.2222222   0.0000000  )
        50        C      tau(  50) = (   0.8981004   0.2222222   0.0000000  )
        51        C      tau(  51) = (   0.9301754   0.2777778   0.0000000  )
        52        C      tau(  52) = (   0.9943255   0.2777778   0.0000000  )
        53        C      tau(  53) = (   1.0264005   0.3333333   0.0000000  )
        54        C      tau(  54) = (   1.0905505   0.3333333   0.0000000  )
        55        C      tau(  55) = (   0.3528252  -0.1666667   0.0000000  )
        56        C      tau(  56) = (   0.4169752  -0.1666667   0.0000000  )
        57        C      tau(  57) = (   0.4490502  -0.1111111   0.0000000  )
        58        C      tau(  58) = (   0.5132002  -0.1111111   0.0000000  )
        59        C      tau(  59) = (   0.5452753  -0.0555556   0.0000000  )
        60        C      tau(  60) = (   0.6094253  -0.0555556   0.0000000  )
        61        C      tau(  61) = (   0.6415003   0.0000000   0.0000000  )
        62        C      tau(  62) = (   0.7056503  -0.0000000   0.0000000  )
        63        C      tau(  63) = (   0.7377253   0.0555556   0.0000000  )
        64        C      tau(  64) = (   0.8018754   0.0555556   0.0000000  )
        65        C      tau(  65) = (   0.8339504   0.1111111   0.0000000  )
        66        C      tau(  66) = (   0.8981004   0.1111111   0.0000000  )
        67        C      tau(  67) = (   0.9301754   0.1666667   0.0000000  )
        68        C      tau(  68) = (   0.9943255   0.1666667   0.0000000  )
        69        C      tau(  69) = (   1.0264005   0.2222222   0.0000000  )
        70        C      tau(  70) = (   1.0905505   0.2222222   0.0000000  )
        71        C      tau(  71) = (   1.1226255   0.2777778   0.0000000  )
        72        C      tau(  72) = (   1.1867756   0.2777778   0.0000000  )
        73        C      tau(  73) = (   0.4490502  -0.2222222   0.0000000  )
        74        C      tau(  74) = (   0.5132002  -0.2222222   0.0000000  )
        75        C      tau(  75) = (   0.5452753  -0.1666667   0.0000000  )
        76        C      tau(  76) = (   0.6094253  -0.1666667   0.0000000  )
        77        C      tau(  77) = (   0.6415003  -0.1111111   0.0000000  )
        78        C      tau(  78) = (   0.7056503  -0.1111111   0.0000000  )
        79        C      tau(  79) = (   0.7377253  -0.0555556   0.0000000  )
        80        C      tau(  80) = (   0.8018754  -0.0555556   0.0000000  )
        81        C      tau(  81) = (   0.8981004  -0.0000000   0.0000000  )
        82        C      tau(  82) = (   0.9301754   0.0555556   0.0000000  )
        83        C      tau(  83) = (   0.9943255   0.0555556   0.0000000  )
        84        C      tau(  84) = (   1.0264005   0.1111111   0.0000000  )
        85        C      tau(  85) = (   1.0905505   0.1111111   0.0000000  )
        86        C      tau(  86) = (   1.1226255   0.1666667   0.0000000  )
        87        C      tau(  87) = (   1.1867756   0.1666667   0.0000000  )
        88        C      tau(  88) = (   1.2188506   0.2222222   0.0000000  )
        89        C      tau(  89) = (   1.2830006   0.2222222   0.0000000  )
        90        C      tau(  90) = (   0.5452753  -0.2777778   0.0000000  )
        91        C      tau(  91) = (   0.6094253  -0.2777778   0.0000000  )
        92        C      tau(  92) = (   0.6415003  -0.2222222   0.0000000  )
        93        C      tau(  93) = (   0.7056503  -0.2222222   0.0000000  )
        94        C      tau(  94) = (   0.7377253  -0.1666667   0.0000000  )
        95        C      tau(  95) = (   0.8018754  -0.1666667   0.0000000  )
        96        C      tau(  96) = (   0.8339504  -0.1111111   0.0000000  )
        97        C      tau(  97) = (   0.8981004  -0.1111111   0.0000000  )
        98        C      tau(  98) = (   0.9301754  -0.0555556   0.0000000  )
        99        C      tau(  99) = (   0.9943255  -0.0555556   0.0000000  )
       100        C      tau( 100) = (   1.0264005  -0.0000000   0.0000000  )
       101        C      tau( 101) = (   1.0905505  -0.0000000   0.0000000  )
       102        C      tau( 102) = (   1.1226255   0.0555556   0.0000000  )
       103        C      tau( 103) = (   1.1867756   0.0555556   0.0000000  )
       104        C      tau( 104) = (   1.2188506   0.1111111   0.0000000  )
       105        C      tau( 105) = (   1.2830006   0.1111111   0.0000000  )
       106        C      tau( 106) = (   1.3150756   0.1666667   0.0000000  )
       107        C      tau( 107) = (   1.3792256   0.1666667   0.0000000  )
       108        C      tau( 108) = (   0.6415003  -0.3333333   0.0000000  )
       109        C      tau( 109) = (   0.7056503  -0.3333333   0.0000000  )
       110        C      tau( 110) = (   0.7377253  -0.2777778   0.0000000  )
       111        C      tau( 111) = (   0.8018754  -0.2777778   0.0000000  )
       112        C      tau( 112) = (   0.8339504  -0.2222222   0.0000000  )
       113        C      tau( 113) = (   0.8981004  -0.2222222   0.0000000  )
       114        C      tau( 114) = (   0.9301754  -0.1666667   0.0000000  )
       115        C      tau( 115) = (   0.9943255  -0.1666667   0.0000000  )
       116        C      tau( 116) = (   1.0264005  -0.1111111   0.0000000  )
       117        C      tau( 117) = (   1.0905505  -0.1111111   0.0000000  )
       118        C      tau( 118) = (   1.1226255  -0.0555556   0.0000000  )
       119        C      tau( 119) = (   1.1867756  -0.0555556   0.0000000  )
       120        C      tau( 120) = (   1.2188506  -0.0000000   0.0000000  )
       121        C      tau( 121) = (   1.2830006   0.0000000   0.0000000  )
       122        C      tau( 122) = (   1.3150756   0.0555556   0.0000000  )
       123        C      tau( 123) = (   1.3792256   0.0555556   0.0000000  )
       124        C      tau( 124) = (   1.4113007   0.1111111   0.0000000  )
       125        C      tau( 125) = (   1.4754507   0.1111111   0.0000000  )
       126        C      tau( 126) = (   0.7377253  -0.3888889   0.0000000  )
       127        C      tau( 127) = (   0.8018754  -0.3888889   0.0000000  )
       128        C      tau( 128) = (   0.8339504  -0.3333333   0.0000000  )
       129        C      tau( 129) = (   0.8981004  -0.3333333   0.0000000  )
       130        C      tau( 130) = (   0.9301754  -0.2777778   0.0000000  )
       131        C      tau( 131) = (   0.9943255  -0.2777778   0.0000000  )
       132        C      tau( 132) = (   1.0264005  -0.2222222   0.0000000  )
       133        C      tau( 133) = (   1.0905505  -0.2222222   0.0000000  )
       134        C      tau( 134) = (   1.1226255  -0.1666667   0.0000000  )
       135        C      tau( 135) = (   1.1867756  -0.1666667   0.0000000  )
       136        C      tau( 136) = (   1.2188506  -0.1111111   0.0000000  )
       137        C      tau( 137) = (   1.2830006  -0.1111111   0.0000000  )
       138        C      tau( 138) = (   1.3150756  -0.0555556   0.0000000  )
       139        C      tau( 139) = (   1.3792256  -0.0555556   0.0000000  )
       140        C      tau( 140) = (   1.4113007  -0.0000000   0.0000000  )
       141        C      tau( 141) = (   1.4754507   0.0000000   0.0000000  )
       142        C      tau( 142) = (   1.5075257   0.0555556   0.0000000  )
       143        C      tau( 143) = (   1.5716757   0.0555556   0.0000000  )
       144        C      tau( 144) = (   0.8339504  -0.4444444   0.0000000  )
       145        C      tau( 145) = (   0.8981004  -0.4444444   0.0000000  )
       146        C      tau( 146) = (   0.9301754  -0.3888889   0.0000000  )
       147        C      tau( 147) = (   0.9943255  -0.3888889   0.0000000  )
       148        C      tau( 148) = (   1.0264005  -0.3333333   0.0000000  )
       149        C      tau( 149) = (   1.0905505  -0.3333333   0.0000000  )
       150        C      tau( 150) = (   1.1226255  -0.2777778   0.0000000  )
       151        C      tau( 151) = (   1.1867756  -0.2777778   0.0000000  )
       152        C      tau( 152) = (   1.2188506  -0.2222222   0.0000000  )
       153        C      tau( 153) = (   1.2830006  -0.2222222   0.0000000  )
       154        C      tau( 154) = (   1.3150756  -0.1666667   0.0000000  )
       155        C      tau( 155) = (   1.3792256  -0.1666667   0.0000000  )
       156        C      tau( 156) = (   1.4113007  -0.1111111   0.0000000  )
       157        C      tau( 157) = (   1.4754507  -0.1111111   0.0000000  )
       158        C      tau( 158) = (   1.5075257  -0.0555556   0.0000000  )
       159        C      tau( 159) = (   1.5716757  -0.0555556   0.0000000  )
       160        C      tau( 160) = (   1.6037507   0.0000000   0.0000000  )
       161        C      tau( 161) = (   1.6679008  -0.0000000   0.0000000  )

     number of k points=     9  Marzari-Vanderbilt smearing, width (Ry)=  0.0100
                       cart. coord. in units 2pi/alat
        k(    1) = (   0.0000000   0.0000000   0.0000000), wk =   0.2222222
        k(    2) = (   0.1924501   0.3333333   0.0000000), wk =   0.2222222
        k(    3) = (  -0.1924501  -0.3333333   0.0000000), wk =   0.2222222
        k(    4) = (   0.1924501  -0.3333333   0.0000000), wk =   0.2222222
        k(    5) = (   0.3849002  -0.0000000   0.0000000), wk =   0.2222222
        k(    6) = (  -0.0000000  -0.6666667   0.0000000), wk =   0.2222222
        k(    7) = (  -0.1924501   0.3333333   0.0000000), wk =   0.2222222
        k(    8) = (  -0.0000000   0.6666667   0.0000000), wk =   0.2222222
        k(    9) = (  -0.3849002   0.0000000   0.0000000), wk =   0.2222222

     Dense  grid:  6173045 G-vectors     FFT dimensions: ( 270, 270, 192)

     Estimated max dynamical RAM per process >       1.18 GB

     Estimated total dynamical RAM >      75.46 GB
 ----2D----2D----2D----2D----2D----2D----2D----2D----2D----2D----2D----2D
  The code is running with the 2D cutoff
  Please refer to:
  Sohier, T., Calandra, M., & Mauri, F. (2017), 
  Density functional perturbation theory for gated two-dimensional heterostructures:
  Theoretical developments and application to flexural phonons in graphene.
  Physical Review B, 96(7), 75448. https://doi.org/10.1103/PhysRevB.96.075448
 ----2D----2D----2D----2D----2D----2D----2D----2D----2D----2D----2D----2D

     Initial potential from superposition of free atoms

     starting charge     643.9928, renormalised to     644.0000

     negative rho (up, down):  1.224E-04 0.000E+00
     Starting wfcs are  644 randomized atomic wfcs

     total cpu time spent up to now is      122.2 secs

     per-process dynamical memory:  1077.2 Mb

     Self-consistent Calculation

     iteration #  1     ecut=   100.00 Ry     beta= 0.30
     Davidson diagonalization with overlap
     ethr =  1.00E-02,  avg # of iterations =  2.0
     Minimization algorithm failed to find Fermi energy: reverting to bisection
     Possible cause: smearing is larger than the electronic band-gap.

     negative rho (up, down):  3.928E-07 0.000E+00

     total cpu time spent up to now is      346.5 secs

     total energy              =   -1940.77110848 Ry
     estimated scf accuracy    <      13.91629530 Ry

     iteration #  2     ecut=   100.00 Ry     beta= 0.30
     Davidson diagonalization with overlap
     ethr =  2.16E-03,  avg # of iterations =  1.1

     negative rho (up, down):  2.482E-07 0.000E+00

     total cpu time spent up to now is      494.8 secs

     total energy              =   -1938.77342344 Ry
     estimated scf accuracy    <      10.27295114 Ry

     iteration #  3     ecut=   100.00 Ry     beta= 0.30
     Davidson diagonalization with overlap
     ethr =  1.60E-03,  avg # of iterations =  2.0

     total cpu time spent up to now is      635.3 secs

     total energy              =   -1938.51984519 Ry
     estimated scf accuracy    <       7.81542171 Ry

     iteration #  4     ecut=   100.00 Ry     beta= 0.30
     Davidson diagonalization with overlap
     ethr =  1.21E-03,  avg # of iterations =  2.0

     total cpu time spent up to now is      773.5 secs

     total energy              =   -1939.16491713 Ry
     estimated scf accuracy    <       1.41769413 Ry

     iteration #  5     ecut=   100.00 Ry     beta= 0.30
     Davidson diagonalization with overlap
     ethr =  2.20E-04,  avg # of iterations =  2.0
     Minimization algorithm failed to find Fermi energy: reverting to bisection
     Possible cause: smearing is larger than the electronic band-gap.

     total cpu time spent up to now is      906.3 secs

     total energy              =   -1939.10248693 Ry
     estimated scf accuracy    <       0.73257856 Ry

     iteration #  6     ecut=   100.00 Ry     beta= 0.30
     Davidson diagonalization with overlap
     ethr =  1.14E-04,  avg # of iterations =  2.7

     total cpu time spent up to now is     1041.0 secs

     total energy              =   -1939.06881756 Ry
     estimated scf accuracy    <       0.25905223 Ry

     iteration #  7     ecut=   100.00 Ry     beta= 0.30
     Davidson diagonalization with overlap
     ethr =  4.02E-05,  avg # of iterations =  5.3

     total cpu time spent up to now is     1187.8 secs

     total energy              =   -1939.09892398 Ry
     estimated scf accuracy    <       0.04475356 Ry

     iteration #  8     ecut=   100.00 Ry     beta= 0.30
     Davidson diagonalization with overlap
     ethr =  6.95E-06,  avg # of iterations = 11.1

     total cpu time spent up to now is     1356.4 secs

     total energy              =   -1939.10131170 Ry
     estimated scf accuracy    <       0.01210051 Ry

     iteration #  9     ecut=   100.00 Ry     beta= 0.30
     Davidson diagonalization with overlap
     ethr =  1.88E-06,  avg # of iterations =  5.3

     total cpu time spent up to now is     1509.7 secs

     total energy              =   -1939.10365826 Ry
     estimated scf accuracy    <       0.00760607 Ry

     iteration # 10     ecut=   100.00 Ry     beta= 0.30
     Davidson diagonalization with overlap
     ethr =  1.18E-06,  avg # of iterations =  2.0

     total cpu time spent up to now is     1640.9 secs

     total energy              =   -1939.10334784 Ry
     estimated scf accuracy    <       0.00383946 Ry

     iteration # 11     ecut=   100.00 Ry     beta= 0.30
     Davidson diagonalization with overlap
     ethr =  5.96E-07,  avg # of iterations =  4.0

     total cpu time spent up to now is     1782.9 secs

     total energy              =   -1939.10366738 Ry
     estimated scf accuracy    <       0.00036588 Ry

     iteration # 12     ecut=   100.00 Ry     beta= 0.30
     Davidson diagonalization with overlap
     ethr =  5.68E-08,  avg # of iterations =  4.1

     total cpu time spent up to now is     1955.3 secs

     total energy              =   -1939.10377254 Ry
     estimated scf accuracy    <       0.00007070 Ry

     iteration # 13     ecut=   100.00 Ry     beta= 0.30
     Davidson diagonalization with overlap
     ethr =  1.10E-08,  avg # of iterations =  4.9

     total cpu time spent up to now is     2114.1 secs

     total energy              =   -1939.10374422 Ry
     estimated scf accuracy    <       0.00032699 Ry

     iteration # 14     ecut=   100.00 Ry     beta= 0.30
     Davidson diagonalization with overlap
     ethr =  1.10E-08,  avg # of iterations =  5.0

     total cpu time spent up to now is     2258.2 secs

     total energy              =   -1939.10377477 Ry
     estimated scf accuracy    <       0.00003068 Ry

     iteration # 15     ecut=   100.00 Ry     beta= 0.30
     Davidson diagonalization with overlap
     ethr =  4.76E-09,  avg # of iterations =  1.1

     total cpu time spent up to now is     2384.4 secs

     total energy              =   -1939.10377405 Ry
     estimated scf accuracy    <       0.00001251 Ry

     iteration # 16     ecut=   100.00 Ry     beta= 0.30
     Davidson diagonalization with overlap
     ethr =  1.94E-09,  avg # of iterations =  2.2

     total cpu time spent up to now is     2520.1 secs

     total energy              =   -1939.10377514 Ry
     estimated scf accuracy    <       0.00000070 Ry

     iteration # 17     ecut=   100.00 Ry     beta= 0.30
     Davidson diagonalization with overlap
     ethr =  1.09E-10,  avg # of iterations =  5.0

     total cpu time spent up to now is     2729.9 secs

     total energy              =   -1939.10377541 Ry
     estimated scf accuracy    <       0.00000021 Ry

     iteration # 18     ecut=   100.00 Ry     beta= 0.30
     Davidson diagonalization with overlap
     ethr =  3.22E-11,  avg # of iterations =  2.0

     total cpu time spent up to now is     2870.7 secs

     total energy              =   -1939.10377542 Ry
     estimated scf accuracy    <       0.00000003 Ry

     iteration # 19     ecut=   100.00 Ry     beta= 0.30
     Davidson diagonalization with overlap
     ethr =  4.51E-12,  avg # of iterations =  5.0

     total cpu time spent up to now is     3069.1 secs

     total energy              =   -1939.10377543 Ry
     estimated scf accuracy    <          6.3E-09 Ry

     iteration # 20     ecut=   100.00 Ry     beta= 0.30
     Davidson diagonalization with overlap
     ethr =  9.82E-13,  avg # of iterations =  3.1

     total cpu time spent up to now is     3222.2 secs

     total energy              =   -1939.10377543 Ry
     estimated scf accuracy    <          2.9E-09 Ry

     iteration # 21     ecut=   100.00 Ry     beta= 0.30
     Davidson diagonalization with overlap
     ethr =  4.46E-13,  avg # of iterations =  5.0

     total cpu time spent up to now is     3403.1 secs

     total energy              =   -1939.10377543 Ry
     estimated scf accuracy    <          1.2E-09 Ry

     iteration # 22     ecut=   100.00 Ry     beta= 0.30
     Davidson diagonalization with overlap
     ethr =  1.93E-13,  avg # of iterations =  4.1

     total cpu time spent up to now is     3544.4 secs

     total energy              =   -1939.10377543 Ry
     estimated scf accuracy    <          2.5E-10 Ry

     iteration # 23     ecut=   100.00 Ry     beta= 0.30
     Davidson diagonalization with overlap
     ethr =  1.00E-13,  avg # of iterations =  1.6

     total cpu time spent up to now is     3677.9 secs

     End of self-consistent calculation

          k = 0.0000 0.0000 0.0000 (771419 PWs)   bands (ev):

   -23.8033 -23.5387 -23.5387 -23.5229 -23.5148 -23.5148 -23.4206 -22.9554
   -22.9554 -22.9513 -22.9365 -22.9365 -22.8530 -22.6708 -22.6708 -22.6484
   -22.6484 -22.6483 -22.4696 -21.8207 -21.8173 -21.8173 -21.8010 -21.8010
   -21.8009 -21.7983 -21.7976 -21.7976 -21.7627 -21.7627 -21.5276 -21.2465
   -21.2465 -21.2303 -21.2102 -21.2102 -21.0009 -20.4265 -20.4041 -20.4041
   -20.3743 -20.3743 -20.3214 -20.1465 -20.1386 -20.1386 -20.1307 -20.1307
   -20.1240 -20.1240 -20.1225 -20.1215 -20.0566 -20.0566 -19.7017 -19.3429
   -19.3429 -19.3284 -19.2985 -19.2985 -19.0997 -18.5949 -18.5622 -18.5622
   -18.5580 -18.5580 -18.5531 -18.5531 -18.5521 -18.5519 -18.4793 -18.4793
   -18.4582 -18.3936 -18.3936 -18.3929 -18.3579 -18.3579 -17.6760 -17.3622
   -17.3621 -17.3621 -17.2859 -17.2859 -17.1944 -16.9089 -16.8778 -16.8778
   -16.8063 -16.6770 -16.6770 -16.6767 -16.6073 -16.6073 -16.4344 -16.1118
   -16.1045 -16.1045 -16.1005 -16.1005 -16.0873 -16.0844 -16.0819 -16.0819
   -15.9579 -15.9579 -15.5874 -15.2281 -15.2281 -15.2261 -15.2255 -15.2255
   -15.2196 -15.2179 -15.2099 -15.2099 -15.0889 -15.0889 -14.8055 -14.8055
   -14.4858 -13.9902 -13.9902 -13.9880 -13.9620 -13.9620 -13.9589 -13.9327
   -13.9303 -13.9303 -13.8457 -13.8457 -13.5636 -13.4658 -13.4658 -13.4645
   -13.4535 -13.4535 -13.4514 -13.4473 -13.4473 -13.4471 -13.2215 -13.2215
   -12.9334 -12.4757 -12.4757 -12.4679 -12.4664 -12.4664 -12.4619 -12.4606
   -12.4606 -12.4602 -12.4568 -12.4568 -12.4525 -12.4421 -12.4421 -12.4395
   -12.2017 -12.2017 -11.8857 -11.7205 -11.6401 -11.6272 -11.6272 -11.5644
   -11.5644 -11.5554 -11.5554 -11.5532 -11.5409 -11.5409 -11.4686 -11.4287
   -11.3428 -11.3363 -11.3363 -11.3297 -11.3291 -11.3291 -11.3227 -11.3147
   -11.3147 -11.1654 -11.1571 -11.1571 -10.9990 -10.9990 -10.9987 -10.8998
   -10.8998 -10.8696 -10.8686 -10.8686 -10.8536 -10.8536 -10.7626 -10.6778
   -10.6576 -10.6576 -10.6558 -10.5923 -10.5923 -10.5469 -10.5340 -10.5340
   -10.5166 -10.5152 -10.5152 -10.4532 -10.4513 -10.4463 -10.4463 -10.4435
   -10.4435 -10.4383 -10.4383 -10.4347 -10.3338 -10.2243 -10.2243 -10.1870
   -10.1065 -10.0950 -10.0945 -10.0945 -10.0480 -10.0480 -10.0139 -10.0139
   -10.0121  -9.5410  -9.5360  -9.5360  -9.5311  -9.5300  -9.5300  -9.5268
    -9.5233  -9.5233  -9.4989  -9.4989  -9.4601  -9.4601  -9.2566  -9.1196
    -9.0892  -9.0745  -9.0659  -9.0659  -9.0603  -9.0603  -9.0572  -9.0525
    -9.0525  -8.9055  -8.9055  -8.8943  -8.8865  -8.8865  -8.8184  -8.6865
    -8.6216  -8.6216  -8.4512  -8.4512  -8.4480  -8.0858  -8.0858  -8.0553
    -7.9637  -7.9429  -7.9429  -7.9322  -7.9322  -7.9220  -7.9050  -7.9050
    -7.9034  -7.8822  -7.7177  -7.7076  -7.7076  -7.7029  -7.7029  -7.6964
    -7.6961  -7.6956  -7.6956  -7.6711  -7.6711  -7.4040  -7.4040  -7.3559
    -7.0655  -7.0655  -7.0567  -7.0449  -7.0449  -6.8042  -6.3719  -6.3719
    -6.3703  -6.3583  -6.3583  -6.2675  -6.0957  -6.0795  -6.0795  -6.0758
    -6.0758  -6.0733  -6.0700  -6.0672  -6.0672  -6.0289  -6.0289  -5.0031
    -4.3155  -4.3155  -4.2760  -4.2543  -4.2543  -3.9920  -2.6618  -2.6618
    -2.6618  -2.6434  -2.6434  -2.6376  -2.5734  -2.5620  -2.5620  -2.5574
    -2.5574  -2.5544  -2.5513  -2.5498  -2.5498  -2.5005  -2.5005  -2.2179
    -2.0449  -2.0449  -2.0375  -2.0088  -2.0088  -1.5981  -0.9454  -0.9388

          k = 0.1925 0.3333 0.0000 (771640 PWs)   bands (ev):

   -23.7731 -23.6744 -23.5921 -23.5560 -23.3974 -23.3681 -23.2840 -23.2036
   -23.1585 -22.9961 -22.9173 -22.8794 -22.8196 -22.7629 -22.6269 -22.5776
   -22.4369 -22.3863 -22.2451 -22.2358 -22.2003 -22.1508 -22.0588 -21.8588
   -21.8274 -21.7411 -21.6687 -21.6145 -21.4809 -21.4414 -21.3925 -21.3511
   -21.2991 -21.1779 -20.9328 -20.9142 -20.9078 -20.8395 -20.7405 -20.6767
   -20.6123 -20.5505 -20.4765 -20.3581 -20.3305 -20.2623 -20.1726 -19.9739
   -19.9057 -19.8760 -19.8263 -19.7621 -19.6561 -19.6323 -19.6197 -19.5475
   -19.4733 -19.3193 -19.2085 -19.1694 -19.1174 -19.0397 -18.9705 -18.9054
   -18.8102 -18.7487 -18.6772 -18.6282 -18.6164 -18.5790 -18.5145 -18.4489
   -18.4154 -18.3572 -18.1116 -17.9667 -17.9605 -17.9587 -17.6311 -17.3948
   -17.3919 -17.3127 -17.2817 -17.2061 -17.0664 -17.0627 -16.9952 -16.9299
   -16.8970 -16.7939 -16.7486 -16.6494 -16.5936 -16.5546 -16.5252 -16.4179
   -16.2900 -16.2657 -16.1914 -16.1206 -16.0980 -15.9476 -15.8273 -15.8242
   -15.7591 -15.7198 -15.6914 -15.6531 -15.5914 -15.4955 -15.3612 -15.3493
   -15.0623 -14.8521 -14.8101 -14.7710 -14.6751 -14.6609 -14.6373 -14.5903
   -14.5711 -14.4822 -14.3683 -14.3284 -14.3108 -14.2135 -14.1842 -14.0923
   -14.0850 -13.8953 -13.8795 -13.7248 -13.5291 -13.5126 -13.4380 -13.4359
   -13.3907 -13.3746 -13.3298 -13.2512 -13.1900 -13.1108 -12.9434 -12.9409
   -12.9355 -12.9350 -12.9164 -12.8624 -12.7932 -12.7760 -12.6626 -12.6603
   -12.3768 -12.2258 -12.1983 -12.1970 -12.1349 -12.0945 -12.0552 -11.9954
   -11.9887 -11.9412 -11.9134 -11.8493 -11.8338 -11.8125 -11.7655 -11.7313
   -11.7246 -11.6407 -11.6304 -11.5897 -11.5766 -11.5766 -11.5578 -11.4969
   -11.4918 -11.4536 -11.3983 -11.3657 -11.3540 -11.2613 -11.1765 -11.1681
   -11.1475 -11.1259 -11.1195 -11.1049 -11.0703 -11.0217 -10.9524 -10.9289
   -10.9214 -10.8570 -10.8267 -10.8153 -10.7977 -10.7897 -10.7804 -10.7740
   -10.7538 -10.7424 -10.7242 -10.7193 -10.7122 -10.6966 -10.6885 -10.6519
   -10.6229 -10.6143 -10.5455 -10.4866 -10.4420 -10.4364 -10.4164 -10.3409
   -10.2897 -10.2663 -10.2636 -10.2472 -10.2130 -10.1880 -10.1313 -10.1073
   -10.0849 -10.0519 -10.0401 -10.0335 -10.0303  -9.9938  -9.9304  -9.8914
    -9.8853  -9.8423  -9.8208  -9.6672  -9.6296  -9.5950  -9.5613  -9.5588
    -9.4903  -9.4697  -9.4630  -9.4077  -9.3827  -9.3753  -9.3279  -9.2942
    -9.1730  -9.1307  -9.1154  -9.0870  -9.0591  -9.0203  -9.0048  -8.9872
    -8.9585  -8.9444  -8.9270  -8.8541  -8.7469  -8.6537  -8.6108  -8.5556
    -8.5356  -8.5303  -8.4640  -8.4374  -8.3969  -8.3429  -8.2927  -8.2762
    -8.2474  -8.2330  -8.1739  -8.1550  -8.0791  -8.0760  -7.9686  -7.9139
    -7.8890  -7.8298  -7.8270  -7.8153  -7.7538  -7.6847  -7.6039  -7.5166
    -7.5134  -7.4681  -7.4576  -7.3233  -7.3068  -7.2981  -7.2463  -7.1923
    -7.1396  -7.0820  -6.9748  -6.8047  -6.7659  -6.6822  -6.6817  -6.6659
    -6.6468  -6.6168  -6.5787  -6.5690  -6.5651  -6.3216  -6.2144  -6.1729
    -6.1188  -6.0836  -6.0452  -5.7520  -5.6404  -5.5409  -5.4715  -5.0771
    -4.8666  -4.5343  -4.3165  -4.3157  -3.6763  -3.5917  -3.1048  -3.0802
    -3.0311  -2.9436  -2.6728  -2.6664  -2.6233  -2.6027  -2.5320  -2.5299
    -2.5006  -2.4935  -2.4287  -2.4084  -2.3502  -2.3186  -2.1684  -2.0043
    -1.9542  -1.8636  -1.8060  -1.7744  -1.7117  -1.6780  -1.5604  -1.4672

          k =-0.1925-0.3333 0.0000 (771640 PWs)   bands (ev):

   -23.7731 -23.6744 -23.5921 -23.5560 -23.3974 -23.3681 -23.2840 -23.2036
   -23.1585 -22.9961 -22.9173 -22.8794 -22.8196 -22.7629 -22.6269 -22.5776
   -22.4369 -22.3863 -22.2451 -22.2358 -22.2003 -22.1508 -22.0588 -21.8588
   -21.8274 -21.7411 -21.6687 -21.6145 -21.4809 -21.4414 -21.3925 -21.3511
   -21.2991 -21.1779 -20.9328 -20.9142 -20.9078 -20.8395 -20.7405 -20.6767
   -20.6123 -20.5505 -20.4765 -20.3581 -20.3305 -20.2623 -20.1726 -19.9739
   -19.9057 -19.8760 -19.8263 -19.7621 -19.6561 -19.6323 -19.6197 -19.5475
   -19.4733 -19.3193 -19.2085 -19.1694 -19.1174 -19.0397 -18.9705 -18.9054
   -18.8102 -18.7487 -18.6772 -18.6282 -18.6164 -18.5790 -18.5145 -18.4489
   -18.4154 -18.3572 -18.1116 -17.9667 -17.9605 -17.9587 -17.6311 -17.3948
   -17.3919 -17.3127 -17.2817 -17.2061 -17.0664 -17.0627 -16.9952 -16.9299
   -16.8970 -16.7939 -16.7486 -16.6494 -16.5936 -16.5546 -16.5252 -16.4179
   -16.2900 -16.2657 -16.1914 -16.1206 -16.0980 -15.9476 -15.8273 -15.8242
   -15.7591 -15.7198 -15.6914 -15.6531 -15.5914 -15.4955 -15.3612 -15.3493
   -15.0623 -14.8521 -14.8101 -14.7710 -14.6751 -14.6609 -14.6373 -14.5903
   -14.5711 -14.4822 -14.3683 -14.3284 -14.3108 -14.2135 -14.1842 -14.0923
   -14.0850 -13.8953 -13.8795 -13.7248 -13.5291 -13.5126 -13.4380 -13.4359
   -13.3907 -13.3746 -13.3298 -13.2512 -13.1900 -13.1108 -12.9434 -12.9409
   -12.9355 -12.9350 -12.9164 -12.8624 -12.7932 -12.7760 -12.6626 -12.6603
   -12.3768 -12.2258 -12.1983 -12.1970 -12.1349 -12.0945 -12.0552 -11.9954
   -11.9887 -11.9412 -11.9134 -11.8493 -11.8338 -11.8125 -11.7655 -11.7313
   -11.7246 -11.6407 -11.6304 -11.5897 -11.5766 -11.5766 -11.5578 -11.4969
   -11.4918 -11.4536 -11.3983 -11.3657 -11.3540 -11.2613 -11.1765 -11.1681
   -11.1475 -11.1259 -11.1195 -11.1049 -11.0703 -11.0217 -10.9524 -10.9289
   -10.9214 -10.8570 -10.8267 -10.8153 -10.7977 -10.7897 -10.7804 -10.7740
   -10.7538 -10.7424 -10.7242 -10.7193 -10.7122 -10.6966 -10.6885 -10.6519
   -10.6229 -10.6143 -10.5455 -10.4866 -10.4420 -10.4364 -10.4164 -10.3409
   -10.2897 -10.2663 -10.2636 -10.2472 -10.2130 -10.1880 -10.1313 -10.1073
   -10.0849 -10.0519 -10.0401 -10.0335 -10.0303  -9.9938  -9.9304  -9.8914
    -9.8853  -9.8423  -9.8208  -9.6672  -9.6296  -9.5950  -9.5613  -9.5588
    -9.4903  -9.4697  -9.4630  -9.4077  -9.3827  -9.3753  -9.3279  -9.2942
    -9.1730  -9.1307  -9.1154  -9.0870  -9.0591  -9.0203  -9.0048  -8.9872
    -8.9585  -8.9444  -8.9270  -8.8541  -8.7469  -8.6537  -8.6108  -8.5556
    -8.5356  -8.5303  -8.4640  -8.4374  -8.3969  -8.3429  -8.2927  -8.2762
    -8.2474  -8.2330  -8.1739  -8.1550  -8.0791  -8.0760  -7.9686  -7.9139
    -7.8890  -7.8298  -7.8270  -7.8153  -7.7538  -7.6847  -7.6039  -7.5166
    -7.5134  -7.4681  -7.4576  -7.3233  -7.3068  -7.2981  -7.2463  -7.1923
    -7.1396  -7.0820  -6.9748  -6.8047  -6.7659  -6.6822  -6.6817  -6.6659
    -6.6468  -6.6168  -6.5787  -6.5690  -6.5651  -6.3216  -6.2144  -6.1729
    -6.1188  -6.0836  -6.0452  -5.7520  -5.6404  -5.5409  -5.4715  -5.0771
    -4.8666  -4.5343  -4.3165  -4.3157  -3.6763  -3.5917  -3.1048  -3.0802
    -3.0311  -2.9436  -2.6728  -2.6664  -2.6233  -2.6027  -2.5320  -2.5299
    -2.5006  -2.4935  -2.4287  -2.4084  -2.3502  -2.3186  -2.1684  -2.0043
    -1.9542  -1.8636  -1.8060  -1.7744  -1.7117  -1.6780  -1.5604  -1.4672

          k = 0.1925-0.3333 0.0000 (771640 PWs)   bands (ev):

   -23.7731 -23.6744 -23.5921 -23.5560 -23.3974 -23.3681 -23.2840 -23.2036
   -23.1585 -22.9961 -22.9173 -22.8794 -22.8196 -22.7629 -22.6269 -22.5776
   -22.4369 -22.3863 -22.2451 -22.2358 -22.2003 -22.1508 -22.0588 -21.8588
   -21.8274 -21.7411 -21.6687 -21.6145 -21.4809 -21.4414 -21.3925 -21.3511
   -21.2991 -21.1779 -20.9328 -20.9142 -20.9078 -20.8395 -20.7405 -20.6767
   -20.6123 -20.5505 -20.4765 -20.3581 -20.3305 -20.2623 -20.1726 -19.9739
   -19.9057 -19.8760 -19.8263 -19.7621 -19.6561 -19.6323 -19.6197 -19.5475
   -19.4733 -19.3193 -19.2085 -19.1694 -19.1174 -19.0397 -18.9705 -18.9054
   -18.8102 -18.7487 -18.6772 -18.6282 -18.6164 -18.5790 -18.5145 -18.4489
   -18.4154 -18.3572 -18.1116 -17.9667 -17.9605 -17.9587 -17.6311 -17.3948
   -17.3919 -17.3127 -17.2817 -17.2061 -17.0664 -17.0627 -16.9952 -16.9299
   -16.8970 -16.7939 -16.7486 -16.6494 -16.5936 -16.5546 -16.5252 -16.4179
   -16.2900 -16.2657 -16.1914 -16.1206 -16.0980 -15.9476 -15.8273 -15.8242
   -15.7591 -15.7198 -15.6914 -15.6531 -15.5914 -15.4955 -15.3612 -15.3493
   -15.0623 -14.8521 -14.8101 -14.7710 -14.6751 -14.6609 -14.6373 -14.5903
   -14.5711 -14.4822 -14.3683 -14.3284 -14.3108 -14.2135 -14.1842 -14.0923
   -14.0850 -13.8953 -13.8795 -13.7248 -13.5291 -13.5126 -13.4380 -13.4359
   -13.3907 -13.3746 -13.3298 -13.2512 -13.1900 -13.1108 -12.9434 -12.9409
   -12.9355 -12.9350 -12.9164 -12.8624 -12.7932 -12.7760 -12.6626 -12.6603
   -12.3768 -12.2258 -12.1983 -12.1970 -12.1349 -12.0945 -12.0552 -11.9954
   -11.9887 -11.9412 -11.9134 -11.8493 -11.8338 -11.8125 -11.7655 -11.7313
   -11.7246 -11.6407 -11.6304 -11.5897 -11.5766 -11.5766 -11.5578 -11.4969
   -11.4918 -11.4536 -11.3983 -11.3657 -11.3540 -11.2613 -11.1765 -11.1681
   -11.1475 -11.1259 -11.1195 -11.1049 -11.0703 -11.0217 -10.9524 -10.9289
   -10.9214 -10.8570 -10.8267 -10.8153 -10.7977 -10.7897 -10.7804 -10.7740
   -10.7538 -10.7424 -10.7242 -10.7193 -10.7122 -10.6966 -10.6885 -10.6519
   -10.6229 -10.6143 -10.5455 -10.4866 -10.4420 -10.4364 -10.4164 -10.3409
   -10.2897 -10.2663 -10.2636 -10.2472 -10.2130 -10.1880 -10.1313 -10.1073
   -10.0849 -10.0519 -10.0401 -10.0335 -10.0303  -9.9938  -9.9304  -9.8914
    -9.8853  -9.8423  -9.8208  -9.6672  -9.6296  -9.5950  -9.5613  -9.5588
    -9.4903  -9.4697  -9.4630  -9.4077  -9.3827  -9.3753  -9.3279  -9.2942
    -9.1730  -9.1307  -9.1154  -9.0870  -9.0591  -9.0203  -9.0048  -8.9872
    -8.9585  -8.9444  -8.9270  -8.8541  -8.7469  -8.6537  -8.6108  -8.5556
    -8.5356  -8.5303  -8.4640  -8.4374  -8.3969  -8.3429  -8.2927  -8.2762
    -8.2474  -8.2330  -8.1739  -8.1550  -8.0791  -8.0760  -7.9686  -7.9139
    -7.8890  -7.8298  -7.8270  -7.8153  -7.7538  -7.6847  -7.6039  -7.5166
    -7.5134  -7.4681  -7.4576  -7.3233  -7.3068  -7.2981  -7.2463  -7.1923
    -7.1396  -7.0820  -6.9748  -6.8047  -6.7659  -6.6822  -6.6817  -6.6659
    -6.6468  -6.6168  -6.5787  -6.5690  -6.5651  -6.3216  -6.2144  -6.1729
    -6.1188  -6.0836  -6.0452  -5.7520  -5.6404  -5.5409  -5.4715  -5.0771
    -4.8666  -4.5343  -4.3165  -4.3157  -3.6763  -3.5917  -3.1048  -3.0802
    -3.0311  -2.9436  -2.6728  -2.6664  -2.6233  -2.6027  -2.5320  -2.5299
    -2.5006  -2.4935  -2.4287  -2.4084  -2.3502  -2.3186  -2.1684  -2.0043
    -1.9542  -1.8636  -1.8060  -1.7744  -1.7117  -1.6780  -1.5604  -1.4672

          k = 0.3849-0.0000 0.0000 (771640 PWs)   bands (ev):

   -23.7731 -23.6744 -23.5921 -23.5560 -23.3974 -23.3681 -23.2840 -23.2036
   -23.1585 -22.9961 -22.9173 -22.8794 -22.8196 -22.7629 -22.6269 -22.5776
   -22.4369 -22.3863 -22.2451 -22.2358 -22.2003 -22.1508 -22.0588 -21.8588
   -21.8274 -21.7411 -21.6687 -21.6145 -21.4809 -21.4414 -21.3925 -21.3511
   -21.2991 -21.1779 -20.9328 -20.9142 -20.9078 -20.8395 -20.7405 -20.6767
   -20.6123 -20.5505 -20.4765 -20.3581 -20.3305 -20.2623 -20.1726 -19.9739
   -19.9057 -19.8760 -19.8263 -19.7621 -19.6561 -19.6323 -19.6197 -19.5475
   -19.4733 -19.3193 -19.2085 -19.1694 -19.1174 -19.0397 -18.9705 -18.9054
   -18.8102 -18.7487 -18.6772 -18.6282 -18.6164 -18.5790 -18.5145 -18.4489
   -18.4154 -18.3572 -18.1116 -17.9667 -17.9605 -17.9587 -17.6311 -17.3948
   -17.3919 -17.3127 -17.2817 -17.2061 -17.0664 -17.0627 -16.9952 -16.9299
   -16.8970 -16.7939 -16.7486 -16.6494 -16.5936 -16.5546 -16.5252 -16.4179
   -16.2900 -16.2657 -16.1914 -16.1206 -16.0980 -15.9476 -15.8273 -15.8242
   -15.7591 -15.7198 -15.6914 -15.6531 -15.5914 -15.4955 -15.3612 -15.3493
   -15.0623 -14.8521 -14.8101 -14.7710 -14.6751 -14.6609 -14.6373 -14.5903
   -14.5711 -14.4822 -14.3683 -14.3284 -14.3108 -14.2135 -14.1842 -14.0923
   -14.0850 -13.8953 -13.8795 -13.7248 -13.5291 -13.5126 -13.4380 -13.4359
   -13.3907 -13.3746 -13.3298 -13.2512 -13.1900 -13.1108 -12.9434 -12.9409
   -12.9355 -12.9350 -12.9164 -12.8624 -12.7932 -12.7760 -12.6626 -12.6603
   -12.3768 -12.2258 -12.1983 -12.1970 -12.1349 -12.0945 -12.0552 -11.9954
   -11.9887 -11.9412 -11.9134 -11.8493 -11.8338 -11.8125 -11.7655 -11.7313
   -11.7246 -11.6407 -11.6304 -11.5897 -11.5766 -11.5766 -11.5578 -11.4969
   -11.4918 -11.4536 -11.3983 -11.3657 -11.3540 -11.2613 -11.1765 -11.1681
   -11.1475 -11.1259 -11.1195 -11.1049 -11.0703 -11.0217 -10.9524 -10.9289
   -10.9214 -10.8570 -10.8267 -10.8153 -10.7977 -10.7897 -10.7804 -10.7740
   -10.7538 -10.7424 -10.7242 -10.7193 -10.7122 -10.6966 -10.6885 -10.6519
   -10.6229 -10.6143 -10.5455 -10.4866 -10.4420 -10.4364 -10.4164 -10.3409
   -10.2897 -10.2663 -10.2636 -10.2472 -10.2130 -10.1880 -10.1313 -10.1073
   -10.0849 -10.0519 -10.0401 -10.0335 -10.0303  -9.9938  -9.9304  -9.8914
    -9.8853  -9.8423  -9.8208  -9.6672  -9.6296  -9.5950  -9.5613  -9.5588
    -9.4903  -9.4697  -9.4630  -9.4077  -9.3827  -9.3753  -9.3279  -9.2942
    -9.1730  -9.1307  -9.1154  -9.0870  -9.0591  -9.0203  -9.0048  -8.9872
    -8.9585  -8.9444  -8.9270  -8.8541  -8.7469  -8.6537  -8.6108  -8.5556
    -8.5356  -8.5303  -8.4640  -8.4374  -8.3969  -8.3429  -8.2927  -8.2762
    -8.2474  -8.2330  -8.1739  -8.1550  -8.0791  -8.0760  -7.9686  -7.9139
    -7.8890  -7.8298  -7.8270  -7.8153  -7.7538  -7.6847  -7.6039  -7.5166
    -7.5134  -7.4681  -7.4576  -7.3233  -7.3068  -7.2981  -7.2463  -7.1923
    -7.1396  -7.0820  -6.9748  -6.8047  -6.7659  -6.6822  -6.6817  -6.6659
    -6.6468  -6.6168  -6.5787  -6.5690  -6.5651  -6.3216  -6.2144  -6.1729
    -6.1188  -6.0836  -6.0452  -5.7520  -5.6404  -5.5409  -5.4715  -5.0771
    -4.8666  -4.5343  -4.3165  -4.3157  -3.6763  -3.5917  -3.1048  -3.0802
    -3.0311  -2.9436  -2.6728  -2.6664  -2.6233  -2.6027  -2.5320  -2.5299
    -2.5006  -2.4935  -2.4287  -2.4084  -2.3502  -2.3186  -2.1684  -2.0043
    -1.9542  -1.8636  -1.8060  -1.7744  -1.7117  -1.6780  -1.5604  -1.4672

          k =-0.0000-0.6667 0.0000 (771639 PWs)   bands (ev):

   -23.7303 -23.7098 -23.6756 -23.4387 -23.4180 -23.3847 -23.1576 -23.1467
   -23.1364 -23.1336 -23.1228 -23.0081 -22.5788 -22.5660 -22.5598 -22.5576
   -22.5429 -22.4566 -22.2798 -22.2639 -22.2051 -22.0041 -21.9969 -21.9843
   -21.9766 -21.9704 -21.7996 -21.4214 -21.4088 -21.3687 -21.1510 -21.1484
   -21.1385 -21.1203 -21.1151 -21.0461 -20.8679 -20.8657 -20.8624 -20.8399
   -20.8267 -20.6387 -20.3208 -20.3190 -20.3031 -20.2780 -20.2764 -20.1186
   -19.7698 -19.7690 -19.7651 -19.7299 -19.7299 -19.6162 -19.2559 -19.2558
   -19.2550 -19.2415 -19.2405 -19.2329 -19.1905 -19.1879 -19.1013 -18.9912
   -18.9901 -18.9784 -18.9502 -18.9282 -18.7062 -18.5538 -18.5446 -18.3254
   -18.0597 -18.0405 -18.0205 -17.9685 -17.9406 -17.7629 -17.5610 -17.5522
   -17.5373 -17.4787 -17.4692 -17.2371 -17.0326 -17.0210 -16.9653 -16.7071
   -16.7059 -16.6942 -16.6034 -16.6023 -16.6012 -16.5448 -16.5366 -16.4909
   -16.3909 -16.3896 -16.3839 -16.3128 -16.2797 -16.1836 -16.0783 -16.0085
   -15.7049 -15.3416 -15.3401 -15.3392 -15.2907 -15.2880 -15.2282 -15.1052
   -15.0838 -15.0778 -15.0325 -15.0289 -15.0265 -14.9556 -14.9184 -14.4480
   -14.4117 -14.3325 -14.3128 -14.1750 -14.1635 -14.1277 -13.8917 -13.8907
   -13.8894 -13.8674 -13.8521 -13.8496 -13.8061 -13.8039 -13.8026 -13.7429
   -13.6476 -13.5228 -13.5052 -13.3812 -13.0907 -12.8587 -12.8451 -12.8292
   -12.7332 -12.6817 -12.6354 -12.5316 -12.5255 -12.5222 -12.5147 -12.5069
   -12.4856 -12.4573 -12.4563 -12.4559 -12.3782 -12.3055 -12.2006 -12.1396
   -12.1382 -12.1361 -12.0080 -11.9706 -11.7963 -11.7763 -11.7307 -11.6911
   -11.5045 -11.4988 -11.4982 -11.4790 -11.4584 -11.4444 -11.4254 -11.3988
   -11.3863 -11.3708 -11.3610 -11.3136 -11.2879 -11.2320 -11.2058 -11.1044
   -11.0997 -11.0898 -11.0898 -11.0887 -11.0842 -11.0767 -11.0745 -11.0739
   -11.0728 -11.0653 -11.0475 -11.0452 -11.0447 -10.9486 -10.9217 -10.9192
   -10.8503 -10.7479 -10.7410 -10.5736 -10.5555 -10.5512 -10.5495 -10.5326
   -10.5286 -10.5229 -10.5025 -10.5020 -10.4991 -10.4216 -10.4167 -10.4121
   -10.4075 -10.3911 -10.2968 -10.2833 -10.1834 -10.1793 -10.0766 -10.0660
   -10.0572 -10.0064  -9.9513  -9.9288  -9.7575  -9.7526  -9.7437  -9.7395
    -9.7351  -9.7343  -9.7302  -9.7279  -9.7271  -9.7026  -9.6878  -9.6555
    -9.6545  -9.6535  -9.5630  -9.5231  -9.4913  -9.4554  -9.4320  -9.4305
    -9.4292  -9.0884  -9.0831  -9.0414  -8.9915  -8.9058  -8.8419  -8.7940
    -8.7935  -8.7874  -8.7756  -8.7745  -8.6846  -8.6712  -8.6464  -8.5773
    -8.5567  -8.5551  -8.5521  -8.4709  -8.4709  -8.4684  -8.4458  -8.4456
    -8.2915  -8.2800  -8.2738  -8.1939  -8.1326  -7.9257  -7.9235  -7.9123
    -7.9071  -7.9012  -7.8474  -7.8407  -7.7343  -7.6728  -7.6364  -7.5817
    -7.5480  -7.2846  -7.2824  -7.2804  -7.2639  -7.2481  -7.1772  -6.9523
    -6.9520  -6.9438  -6.9389  -6.9222  -6.8483  -6.6858  -6.6798  -6.6746
    -6.6192  -6.6189  -6.6169  -6.6096  -6.6013  -6.6009  -6.5985  -6.5682
    -6.0805  -5.8981  -5.8844  -5.6457  -5.4186  -5.3930  -5.3034  -5.1975
    -5.1775  -4.5917  -4.3168  -4.3160  -3.4028  -3.3854  -3.3317  -3.1366
    -3.1099  -3.0580  -2.8837  -2.8741  -2.7919  -2.5736  -2.5729  -2.5159
    -2.2166  -2.2159  -2.2085  -2.2012  -2.1782  -2.1546  -2.0779  -2.0772
    -2.0698  -2.0480  -2.0362  -1.9013  -1.8059  -1.7791  -1.5558  -1.2356

          k =-0.1925 0.3333 0.0000 (771640 PWs)   bands (ev):

   -23.7731 -23.6744 -23.5921 -23.5560 -23.3974 -23.3681 -23.2840 -23.2036
   -23.1585 -22.9961 -22.9173 -22.8794 -22.8196 -22.7629 -22.6269 -22.5776
   -22.4369 -22.3863 -22.2451 -22.2358 -22.2003 -22.1508 -22.0588 -21.8588
   -21.8274 -21.7411 -21.6687 -21.6145 -21.4809 -21.4414 -21.3925 -21.3511
   -21.2991 -21.1779 -20.9328 -20.9142 -20.9078 -20.8395 -20.7405 -20.6767
   -20.6123 -20.5505 -20.4765 -20.3581 -20.3305 -20.2623 -20.1726 -19.9739
   -19.9057 -19.8760 -19.8263 -19.7621 -19.6561 -19.6323 -19.6197 -19.5475
   -19.4733 -19.3193 -19.2085 -19.1694 -19.1174 -19.0397 -18.9705 -18.9054
   -18.8102 -18.7487 -18.6772 -18.6282 -18.6164 -18.5790 -18.5145 -18.4489
   -18.4154 -18.3572 -18.1116 -17.9667 -17.9605 -17.9587 -17.6311 -17.3948
   -17.3919 -17.3127 -17.2817 -17.2061 -17.0664 -17.0627 -16.9952 -16.9299
   -16.8970 -16.7939 -16.7486 -16.6494 -16.5936 -16.5546 -16.5252 -16.4179
   -16.2900 -16.2657 -16.1914 -16.1206 -16.0980 -15.9476 -15.8273 -15.8242
   -15.7591 -15.7198 -15.6914 -15.6531 -15.5914 -15.4955 -15.3612 -15.3493
   -15.0623 -14.8521 -14.8101 -14.7710 -14.6751 -14.6609 -14.6373 -14.5903
   -14.5711 -14.4822 -14.3683 -14.3284 -14.3108 -14.2135 -14.1842 -14.0923
   -14.0850 -13.8953 -13.8795 -13.7248 -13.5291 -13.5126 -13.4380 -13.4359
   -13.3907 -13.3746 -13.3298 -13.2512 -13.1900 -13.1108 -12.9434 -12.9409
   -12.9355 -12.9350 -12.9164 -12.8624 -12.7932 -12.7760 -12.6626 -12.6603
   -12.3768 -12.2258 -12.1983 -12.1970 -12.1349 -12.0945 -12.0552 -11.9954
   -11.9887 -11.9412 -11.9134 -11.8493 -11.8338 -11.8125 -11.7655 -11.7313
   -11.7246 -11.6407 -11.6304 -11.5897 -11.5766 -11.5766 -11.5578 -11.4969
   -11.4918 -11.4536 -11.3983 -11.3657 -11.3540 -11.2613 -11.1765 -11.1681
   -11.1475 -11.1259 -11.1195 -11.1049 -11.0703 -11.0217 -10.9524 -10.9289
   -10.9214 -10.8570 -10.8267 -10.8153 -10.7977 -10.7897 -10.7804 -10.7740
   -10.7538 -10.7424 -10.7242 -10.7193 -10.7122 -10.6966 -10.6885 -10.6519
   -10.6229 -10.6143 -10.5455 -10.4866 -10.4420 -10.4364 -10.4164 -10.3409
   -10.2897 -10.2663 -10.2636 -10.2472 -10.2130 -10.1880 -10.1313 -10.1073
   -10.0849 -10.0519 -10.0401 -10.0335 -10.0303  -9.9938  -9.9304  -9.8914
    -9.8853  -9.8423  -9.8208  -9.6672  -9.6296  -9.5950  -9.5613  -9.5588
    -9.4903  -9.4697  -9.4630  -9.4077  -9.3827  -9.3753  -9.3279  -9.2942
    -9.1730  -9.1307  -9.1154  -9.0870  -9.0591  -9.0203  -9.0048  -8.9872
    -8.9585  -8.9444  -8.9270  -8.8541  -8.7469  -8.6537  -8.6108  -8.5556
    -8.5356  -8.5303  -8.4640  -8.4374  -8.3969  -8.3429  -8.2927  -8.2762
    -8.2474  -8.2330  -8.1739  -8.1550  -8.0791  -8.0760  -7.9686  -7.9139
    -7.8890  -7.8298  -7.8270  -7.8153  -7.7538  -7.6847  -7.6039  -7.5166
    -7.5134  -7.4681  -7.4576  -7.3233  -7.3068  -7.2981  -7.2463  -7.1923
    -7.1396  -7.0820  -6.9748  -6.8047  -6.7659  -6.6822  -6.6817  -6.6659
    -6.6468  -6.6168  -6.5787  -6.5690  -6.5651  -6.3216  -6.2144  -6.1729
    -6.1188  -6.0836  -6.0452  -5.7520  -5.6404  -5.5409  -5.4715  -5.0771
    -4.8666  -4.5343  -4.3165  -4.3157  -3.6763  -3.5917  -3.1048  -3.0802
    -3.0311  -2.9436  -2.6728  -2.6664  -2.6233  -2.6027  -2.5320  -2.5299
    -2.5006  -2.4935  -2.4287  -2.4084  -2.3502  -2.3186  -2.1684  -2.0043
    -1.9542  -1.8636  -1.8060  -1.7744  -1.7117  -1.6780  -1.5604  -1.4672

          k =-0.0000 0.6667 0.0000 (771639 PWs)   bands (ev):

   -23.7303 -23.7098 -23.6756 -23.4387 -23.4180 -23.3847 -23.1576 -23.1467
   -23.1364 -23.1336 -23.1228 -23.0081 -22.5788 -22.5660 -22.5598 -22.5576
   -22.5429 -22.4566 -22.2798 -22.2639 -22.2051 -22.0041 -21.9969 -21.9843
   -21.9766 -21.9704 -21.7996 -21.4214 -21.4088 -21.3687 -21.1510 -21.1484
   -21.1385 -21.1203 -21.1151 -21.0461 -20.8679 -20.8657 -20.8624 -20.8399
   -20.8267 -20.6387 -20.3208 -20.3190 -20.3031 -20.2780 -20.2764 -20.1186
   -19.7698 -19.7690 -19.7651 -19.7299 -19.7299 -19.6162 -19.2559 -19.2558
   -19.2550 -19.2415 -19.2405 -19.2329 -19.1905 -19.1879 -19.1013 -18.9912
   -18.9901 -18.9784 -18.9502 -18.9282 -18.7062 -18.5538 -18.5446 -18.3254
   -18.0597 -18.0405 -18.0205 -17.9685 -17.9406 -17.7629 -17.5610 -17.5522
   -17.5373 -17.4787 -17.4692 -17.2371 -17.0326 -17.0210 -16.9653 -16.7071
   -16.7059 -16.6942 -16.6034 -16.6023 -16.6012 -16.5448 -16.5366 -16.4909
   -16.3909 -16.3896 -16.3839 -16.3128 -16.2797 -16.1836 -16.0783 -16.0085
   -15.7049 -15.3416 -15.3401 -15.3392 -15.2907 -15.2880 -15.2282 -15.1052
   -15.0838 -15.0778 -15.0325 -15.0289 -15.0265 -14.9556 -14.9184 -14.4480
   -14.4117 -14.3325 -14.3128 -14.1750 -14.1635 -14.1277 -13.8917 -13.8907
   -13.8894 -13.8674 -13.8521 -13.8496 -13.8061 -13.8039 -13.8026 -13.7429
   -13.6476 -13.5228 -13.5052 -13.3812 -13.0907 -12.8587 -12.8451 -12.8292
   -12.7332 -12.6817 -12.6354 -12.5316 -12.5255 -12.5222 -12.5147 -12.5069
   -12.4856 -12.4573 -12.4563 -12.4559 -12.3782 -12.3055 -12.2006 -12.1396
   -12.1382 -12.1361 -12.0080 -11.9706 -11.7963 -11.7763 -11.7307 -11.6911
   -11.5045 -11.4988 -11.4982 -11.4790 -11.4584 -11.4444 -11.4254 -11.3988
   -11.3863 -11.3708 -11.3610 -11.3136 -11.2879 -11.2320 -11.2058 -11.1044
   -11.0997 -11.0898 -11.0898 -11.0887 -11.0842 -11.0767 -11.0745 -11.0739
   -11.0728 -11.0653 -11.0475 -11.0452 -11.0447 -10.9486 -10.9217 -10.9192
   -10.8503 -10.7479 -10.7410 -10.5736 -10.5555 -10.5512 -10.5495 -10.5326
   -10.5286 -10.5229 -10.5025 -10.5020 -10.4991 -10.4216 -10.4167 -10.4121
   -10.4075 -10.3911 -10.2968 -10.2833 -10.1834 -10.1793 -10.0766 -10.0660
   -10.0572 -10.0064  -9.9513  -9.9288  -9.7575  -9.7526  -9.7437  -9.7395
    -9.7351  -9.7343  -9.7302  -9.7279  -9.7271  -9.7026  -9.6878  -9.6555
    -9.6545  -9.6535  -9.5630  -9.5231  -9.4913  -9.4554  -9.4320  -9.4305
    -9.4292  -9.0884  -9.0831  -9.0414  -8.9915  -8.9058  -8.8419  -8.7940
    -8.7935  -8.7874  -8.7756  -8.7745  -8.6846  -8.6712  -8.6464  -8.5773
    -8.5567  -8.5551  -8.5521  -8.4709  -8.4709  -8.4684  -8.4458  -8.4456
    -8.2915  -8.2800  -8.2738  -8.1939  -8.1326  -7.9257  -7.9235  -7.9123
    -7.9071  -7.9012  -7.8474  -7.8407  -7.7343  -7.6728  -7.6364  -7.5817
    -7.5480  -7.2846  -7.2824  -7.2804  -7.2639  -7.2481  -7.1772  -6.9523
    -6.9520  -6.9438  -6.9389  -6.9222  -6.8483  -6.6858  -6.6798  -6.6746
    -6.6192  -6.6189  -6.6169  -6.6096  -6.6013  -6.6009  -6.5985  -6.5682
    -6.0805  -5.8981  -5.8844  -5.6457  -5.4186  -5.3930  -5.3034  -5.1975
    -5.1775  -4.5917  -4.3168  -4.3160  -3.4028  -3.3854  -3.3317  -3.1366
    -3.1099  -3.0580  -2.8837  -2.8741  -2.7919  -2.5736  -2.5729  -2.5159
    -2.2166  -2.2159  -2.2085  -2.2012  -2.1782  -2.1546  -2.0779  -2.0772
    -2.0698  -2.0480  -2.0362  -1.9013  -1.8059  -1.7791  -1.5558  -1.2367

          k =-0.3849 0.0000 0.0000 (771640 PWs)   bands (ev):

   -23.7731 -23.6744 -23.5921 -23.5560 -23.3974 -23.3681 -23.2840 -23.2036
   -23.1585 -22.9961 -22.9173 -22.8794 -22.8196 -22.7629 -22.6269 -22.5776
   -22.4369 -22.3863 -22.2451 -22.2358 -22.2003 -22.1508 -22.0588 -21.8588
   -21.8274 -21.7411 -21.6687 -21.6145 -21.4809 -21.4414 -21.3925 -21.3511
   -21.2991 -21.1779 -20.9328 -20.9142 -20.9078 -20.8395 -20.7405 -20.6767
   -20.6123 -20.5505 -20.4765 -20.3581 -20.3305 -20.2623 -20.1726 -19.9739
   -19.9057 -19.8760 -19.8263 -19.7621 -19.6561 -19.6323 -19.6197 -19.5475
   -19.4733 -19.3193 -19.2085 -19.1694 -19.1174 -19.0397 -18.9705 -18.9054
   -18.8102 -18.7487 -18.6772 -18.6282 -18.6164 -18.5790 -18.5145 -18.4489
   -18.4154 -18.3572 -18.1116 -17.9667 -17.9605 -17.9587 -17.6311 -17.3948
   -17.3919 -17.3127 -17.2817 -17.2061 -17.0664 -17.0627 -16.9952 -16.9299
   -16.8970 -16.7939 -16.7486 -16.6494 -16.5936 -16.5546 -16.5252 -16.4179
   -16.2900 -16.2657 -16.1914 -16.1206 -16.0980 -15.9476 -15.8273 -15.8242
   -15.7591 -15.7198 -15.6914 -15.6531 -15.5914 -15.4955 -15.3612 -15.3493
   -15.0623 -14.8521 -14.8101 -14.7710 -14.6751 -14.6609 -14.6373 -14.5903
   -14.5711 -14.4822 -14.3683 -14.3284 -14.3108 -14.2135 -14.1842 -14.0923
   -14.0850 -13.8953 -13.8795 -13.7248 -13.5291 -13.5126 -13.4380 -13.4359
   -13.3907 -13.3746 -13.3298 -13.2512 -13.1900 -13.1108 -12.9434 -12.9409
   -12.9355 -12.9350 -12.9164 -12.8624 -12.7932 -12.7760 -12.6626 -12.6603
   -12.3768 -12.2258 -12.1983 -12.1970 -12.1349 -12.0945 -12.0552 -11.9954
   -11.9887 -11.9412 -11.9134 -11.8493 -11.8338 -11.8125 -11.7655 -11.7313
   -11.7246 -11.6407 -11.6304 -11.5897 -11.5766 -11.5766 -11.5578 -11.4969
   -11.4918 -11.4536 -11.3983 -11.3657 -11.3540 -11.2613 -11.1765 -11.1681
   -11.1475 -11.1259 -11.1195 -11.1049 -11.0703 -11.0217 -10.9524 -10.9289
   -10.9214 -10.8570 -10.8267 -10.8153 -10.7977 -10.7897 -10.7804 -10.7740
   -10.7538 -10.7424 -10.7242 -10.7193 -10.7122 -10.6966 -10.6885 -10.6519
   -10.6229 -10.6143 -10.5455 -10.4866 -10.4420 -10.4364 -10.4164 -10.3409
   -10.2897 -10.2663 -10.2636 -10.2472 -10.2130 -10.1880 -10.1313 -10.1073
   -10.0849 -10.0519 -10.0401 -10.0335 -10.0303  -9.9938  -9.9304  -9.8914
    -9.8853  -9.8423  -9.8208  -9.6672  -9.6296  -9.5950  -9.5613  -9.5588
    -9.4903  -9.4697  -9.4630  -9.4077  -9.3827  -9.3753  -9.3279  -9.2942
    -9.1730  -9.1307  -9.1154  -9.0870  -9.0591  -9.0203  -9.0048  -8.9872
    -8.9585  -8.9444  -8.9270  -8.8541  -8.7469  -8.6537  -8.6108  -8.5556
    -8.5356  -8.5303  -8.4640  -8.4374  -8.3969  -8.3429  -8.2927  -8.2762
    -8.2474  -8.2330  -8.1739  -8.1550  -8.0791  -8.0760  -7.9686  -7.9139
    -7.8890  -7.8298  -7.8270  -7.8153  -7.7538  -7.6847  -7.6039  -7.5166
    -7.5134  -7.4681  -7.4576  -7.3233  -7.3068  -7.2981  -7.2463  -7.1923
    -7.1396  -7.0820  -6.9748  -6.8047  -6.7659  -6.6822  -6.6817  -6.6659
    -6.6468  -6.6168  -6.5787  -6.5690  -6.5651  -6.3216  -6.2144  -6.1729
    -6.1188  -6.0836  -6.0452  -5.7520  -5.6404  -5.5409  -5.4715  -5.0771
    -4.8666  -4.5343  -4.3165  -4.3157  -3.6763  -3.5917  -3.1048  -3.0802
    -3.0311  -2.9436  -2.6728  -2.6664  -2.6233  -2.6027  -2.5320  -2.5299
    -2.5006  -2.4935  -2.4287  -2.4084  -2.3502  -2.3186  -2.1684  -2.0043
    -1.9542  -1.8636  -1.8060  -1.7744  -1.7117  -1.6780  -1.5604  -1.4672

     the Fermi energy is    -4.4035 ev

!    total energy              =   -1939.10377543 Ry
     estimated scf accuracy    <          6.3E-11 Ry
     smearing contrib. (-TS)   =      -0.00167147 Ry
     internal energy E=F+TS    =   -1939.10210397 Ry

     The total energy is F=E-TS. E is the sum of the following terms:
     one-electron contribution =  -21953.11486651 Ry
     hartree contribution      =   11036.37790571 Ry
     xc contribution           =    -689.86171431 Ry
     ewald contribution        =    9667.49657115 Ry

     convergence has been achieved in  23 iterations

     Forces acting on atoms (cartesian axes, Ry/au):

     atom    1 type  1   force =     0.00005142    0.00000003    0.00000001
     atom    2 type  1   force =    -0.00037488    0.00000001   -0.00000000
     atom    3 type  1   force =    -0.00004856    0.00070762    0.00000000
     atom    4 type  1   force =     0.00032417   -0.00056148   -0.00000000
     atom    5 type  1   force =    -0.00058857    0.00039580   -0.00000000
     atom    6 type  1   force =     0.00018745    0.00032467    0.00000001
     atom    7 type  1   force =    -0.00002570   -0.00004450    0.00000000
     atom    8 type  1   force =     0.00002032   -0.00001742   -0.00000001
     atom    9 type  1   force =     0.00037326   -0.00030096   -0.00000001
     atom   10 type  1   force =    -0.00011050    0.00080266   -0.00000001
     atom   11 type  1   force =    -0.00029962   -0.00021375    0.00000000
     atom   12 type  1   force =     0.00015927    0.00053827    0.00000001
     atom   13 type  1   force =     0.00028150   -0.00048759   -0.00000001
     atom   14 type  1   force =    -0.00054577    0.00013120    0.00000001
     atom   15 type  1   force =     0.00033496    0.00015262   -0.00000000
     atom   16 type  1   force =    -0.00063987    0.00049703    0.00000001
     atom   17 type  1   force =     0.00007399   -0.00047374   -0.00000000
     atom   18 type  1   force =     0.00000494   -0.00002635    0.00000000
     atom   19 type  1   force =    -0.00004857   -0.00070764    0.00000002
     atom   20 type  1   force =     0.00032417    0.00056149    0.00000001
     atom   21 type  1   force =    -0.00000000    0.00000000   -0.00000000
     atom   22 type  1   force =    -0.00064834    0.00000000    0.00000001
     atom   23 type  1   force =     0.00063707   -0.00031181    0.00000001
     atom   24 type  1   force =    -0.00100546    0.00046054   -0.00000000
     atom   25 type  1   force =    -0.00039123   -0.00009689    0.00000001
     atom   26 type  1   force =     0.00000469    0.00031423   -0.00000001
     atom   27 type  1   force =     0.00041056   -0.00140411   -0.00000001
     atom   28 type  1   force =     0.00145889    0.00174229   -0.00000001
     atom   29 type  1   force =     0.00130430   -0.00023022    0.00000000
     atom   30 type  1   force =    -0.00185491    0.00321280    0.00000000
     atom   31 type  1   force =    -0.00045278   -0.00124466   -0.00000000
     atom   32 type  1   force =    -0.00223835   -0.00039229   -0.00000000
     atom   33 type  1   force =     0.00101074   -0.00105760   -0.00000000
     atom   34 type  1   force =    -0.00027445    0.00015307   -0.00000001
     atom   35 type  1   force =     0.00027956    0.00029032   -0.00000001
     atom   36 type  1   force =     0.00010387    0.00110099   -0.00000000
     atom   37 type  1   force =    -0.00058855   -0.00039586   -0.00000000
     atom   38 type  1   force =     0.00018744   -0.00032463   -0.00000001
     atom   39 type  1   force =     0.00063709    0.00031176   -0.00000000
     atom   40 type  1   force =    -0.00100548   -0.00046054   -0.00000000
     atom   41 type  1   force =     0.00344336   -0.00000002    0.00000001
     atom   42 type  1   force =    -0.00423243    0.00000001    0.00000000
     atom   43 type  1   force =     0.00350580   -0.00007268    0.00000000
     atom   44 type  1   force =    -0.00625307    0.00381253   -0.00000001
     atom   45 type  1   force =    -0.00152956   -0.00843443    0.00000001
     atom   46 type  1   force =     0.00591703    0.02002117   -0.00000001
     atom   47 type  1   force =     0.00251934   -0.00436364   -0.00000001
     atom   48 type  1   force =    -0.02029750    0.00488632    0.00000001
     atom   49 type  1   force =     0.00806919   -0.00289250   -0.00000001
     atom   50 type  1   force =    -0.00017519    0.00732166   -0.00000000
     atom   51 type  1   force =    -0.00168995   -0.00307241    0.00000000
     atom   52 type  1   force =     0.00211622    0.00366545    0.00000000
     atom   53 type  1   force =    -0.00172172   -0.00298208   -0.00000000
     atom   54 type  1   force =     0.00090154    0.00064046   -0.00000001
     atom   55 type  1   force =    -0.00002569    0.00004453    0.00000000
     atom   56 type  1   force =     0.00002034    0.00001747    0.00000000
     atom   57 type  1   force =    -0.00039122    0.00009690    0.00000000
     atom   58 type  1   force =     0.00000468   -0.00031420   -0.00000000
     atom   59 type  1   force =     0.00350584    0.00007265    0.00000001
     atom   60 type  1   force =    -0.00625303   -0.00381253   -0.00000000
     atom   61 type  1   force =     0.01923829   -0.00000006   -0.00000001
     atom   62 type  1   force =    -0.04278464   -0.00000004   -0.00000001
     atom   63 type  1   force =     0.05613341   -0.06042816    0.00000003
     atom   64 type  1   force =    -0.02762486    0.04784620    0.00000001
     atom   65 type  1   force =     0.02426596   -0.07882707    0.00000002
     atom   66 type  1   force =     0.02139227    0.03705239   -0.00000000
     atom   67 type  1   force =    -0.00961908   -0.01666079   -0.00000000
     atom   68 type  1   force =     0.00642834    0.00350910   -0.00000001
     atom   69 type  1   force =    -0.00181583   -0.00299978   -0.00000000
     atom   70 type  1   force =     0.00026979   -0.00016115   -0.00000000
     atom   71 type  1   force =     0.00011167    0.00038723    0.00000001
     atom   72 type  1   force =    -0.00002530   -0.00000890   -0.00000000
     atom   73 type  1   force =     0.00037327    0.00030097    0.00000000
     atom   74 type  1   force =    -0.00011050   -0.00080263   -0.00000000
     atom   75 type  1   force =     0.00041053    0.00140413   -0.00000000
     atom   76 type  1   force =     0.00145892   -0.00174232    0.00000001
     atom   77 type  1   force =    -0.00152962    0.00843460    0.00000000
     atom   78 type  1   force =     0.00591712   -0.02002124    0.00000000
     atom   79 type  1   force =     0.05613247    0.06042935   -0.00000000
     atom   80 type  1   force =    -0.02762406   -0.04784688    0.00000001
     atom   81 type  1   force =     0.05524853   -0.00000102    0.00000001
     atom   82 type  1   force =    -0.08039935   -0.01839819    0.00000000
     atom   83 type  1   force =     0.01438042   -0.01513498   -0.00000001
     atom   84 type  1   force =    -0.00653965    0.00554189    0.00000000
     atom   85 type  1   force =     0.00077943   -0.00213462   -0.00000000
     atom   86 type  1   force =    -0.00142127    0.00034655    0.00000000
     atom   87 type  1   force =     0.00075036   -0.00030563    0.00000001
     atom   88 type  1   force =    -0.00044729   -0.00017280    0.00000001
     atom   89 type  1   force =     0.00021154   -0.00036640    0.00000000
     atom   90 type  1   force =    -0.00029963    0.00021375    0.00000000
     atom   91 type  1   force =     0.00015927   -0.00053825   -0.00000000
     atom   92 type  1   force =     0.00130430    0.00023019    0.00000001
     atom   93 type  1   force =    -0.00185497   -0.00321290   -0.00000001
     atom   94 type  1   force =     0.00251936    0.00436367   -0.00000000
     atom   95 type  1   force =    -0.02029742   -0.00488622    0.00000000
     atom   96 type  1   force =     0.02426707    0.07882683    0.00000001
     atom   97 type  1   force =     0.02139232   -0.03705262    0.00000001
     atom   98 type  1   force =    -0.08039909    0.01839858   -0.00000001
     atom   99 type  1   force =     0.01438027    0.01513484   -0.00000003
     atom  100 type  1   force =    -0.00503875    0.00000000   -0.00000001
     atom  101 type  1   force =     0.00370986   -0.00000002    0.00000000
     atom  102 type  1   force =    -0.00085151   -0.00101442    0.00000000
     atom  103 type  1   force =     0.00038652   -0.00040704    0.00000001
     atom  104 type  1   force =    -0.00003531    0.00036640   -0.00000000
     atom  105 type  1   force =    -0.00001772   -0.00003593   -0.00000001
     atom  106 type  1   force =    -0.00007609    0.00013183    0.00000000
     atom  107 type  1   force =     0.00003998   -0.00000265   -0.00000000
     atom  108 type  1   force =     0.00028151    0.00048760   -0.00000000
     atom  109 type  1   force =    -0.00054577   -0.00013117   -0.00000000
     atom  110 type  1   force =    -0.00045283    0.00124466   -0.00000000
     atom  111 type  1   force =    -0.00223836    0.00039230    0.00000000
     atom  112 type  1   force =     0.00806937    0.00289264   -0.00000000
     atom  113 type  1   force =    -0.00017526   -0.00732154   -0.00000001
     atom  114 type  1   force =    -0.00961921    0.01666085    0.00000004
     atom  115 type  1   force =     0.00642828   -0.00350902    0.00000000
     atom  116 type  1   force =    -0.00653972   -0.00554183    0.00000000
     atom  117 type  1   force =     0.00077941    0.00213460   -0.00000000
     atom  118 type  1   force =    -0.00085148    0.00101444    0.00000001
     atom  119 type  1   force =     0.00038653    0.00040707   -0.00000000
     atom  120 type  1   force =    -0.00056299    0.00000001    0.00000000
     atom  121 type  1   force =     0.00049439    0.00000000   -0.00000000
     atom  122 type  1   force =    -0.00014734   -0.00016413   -0.00000001
     atom  123 type  1   force =     0.00005798   -0.00010037    0.00000001
     atom  124 type  1   force =     0.00021584    0.00004554    0.00000000
     atom  125 type  1   force =    -0.00024723   -0.00042817   -0.00000001
     atom  126 type  1   force =     0.00033495   -0.00015262   -0.00000001
     atom  127 type  1   force =    -0.00063985   -0.00049702   -0.00000001
     atom  128 type  1   force =     0.00101075    0.00105756    0.00000001
     atom  129 type  1   force =    -0.00027447   -0.00015305    0.00000001
     atom  130 type  1   force =    -0.00169001    0.00307247   -0.00000001
     atom  131 type  1   force =     0.00211624   -0.00366539    0.00000001
     atom  132 type  1   force =    -0.00181584    0.00299978   -0.00000001
     atom  133 type  1   force =     0.00026980    0.00016116   -0.00000000
     atom  134 type  1   force =    -0.00142123   -0.00034655   -0.00000000
     atom  135 type  1   force =     0.00075038    0.00030563    0.00000001
     atom  136 type  1   force =    -0.00003529   -0.00036638    0.00000000
     atom  137 type  1   force =    -0.00001770    0.00003594    0.00000001
     atom  138 type  1   force =    -0.00014735    0.00016416   -0.00000001
     atom  139 type  1   force =     0.00005794    0.00010039   -0.00000000
     atom  140 type  1   force =     0.00000001    0.00000004   -0.00000001
     atom  141 type  1   force =    -0.00011592    0.00000003   -0.00000000
     atom  142 type  1   force =    -0.00006849    0.00020968   -0.00000000
     atom  143 type  1   force =    -0.00002227    0.00003330    0.00000002
     atom  144 type  1   force =     0.00007400    0.00047375   -0.00000001
     atom  145 type  1   force =     0.00000495    0.00002636    0.00000001
     atom  146 type  1   force =     0.00027952   -0.00029038   -0.00000001
     atom  147 type  1   force =     0.00010390   -0.00110103   -0.00000001
     atom  148 type  1   force =    -0.00172169    0.00298201   -0.00000000
     atom  149 type  1   force =     0.00090155   -0.00064049    0.00000000
     atom  150 type  1   force =     0.00011170   -0.00038725    0.00000000
     atom  151 type  1   force =    -0.00002525    0.00000890    0.00000000
     atom  152 type  1   force =    -0.00044726    0.00017278   -0.00000000
     atom  153 type  1   force =     0.00021154    0.00036642    0.00000000
     atom  154 type  1   force =    -0.00007611   -0.00013182    0.00000000
     atom  155 type  1   force =     0.00003997    0.00000265    0.00000000
     atom  156 type  1   force =     0.00021583   -0.00004553    0.00000000
     atom  157 type  1   force =    -0.00024719    0.00042816   -0.00000001
     atom  158 type  1   force =    -0.00006847   -0.00020967   -0.00000000
     atom  159 type  1   force =    -0.00002227   -0.00003330    0.00000000
     atom  160 type  1   force =     0.00015223    0.00000001    0.00000001
     atom  161 type  1   force =    -0.00042309    0.00000001    0.00000001

     Total force =     0.245584     Total SCF correction =     0.000010

     Writing all to output data dir /home/gregb26/links/scratch/qe_tmp/vacancy_relaxed/k3x3/ideal_nspin1/k3x3_ideal_nspin1.save/ :
     XML data file, charge density, pseudopotentials, collected wavefunctions

     init_run     :    120.38s CPU    121.99s WALL (       1 calls)
     electrons    :   3516.45s CPU   3556.19s WALL (       1 calls)
     forces       :     41.14s CPU     41.58s WALL (       1 calls)

     Called by init_run:
     wfcinit      :    116.17s CPU    117.50s WALL (       1 calls)
     potinit      :      0.14s CPU      0.30s WALL (       1 calls)
     hinit0       :      0.73s CPU      0.79s WALL (       1 calls)

     Called by electrons:
     c_bands      :   3187.10s CPU   3222.62s WALL (      23 calls)
     sum_band     :    324.55s CPU    327.86s WALL (      23 calls)
     v_of_rho     :      3.05s CPU      3.74s WALL (      24 calls)
     mix_rho      :      1.35s CPU      1.43s WALL (      23 calls)

     Called by c_bands:
     init_us_2    :     12.93s CPU     13.07s WALL (     432 calls)
     cegterg      :   3106.18s CPU   3141.00s WALL (     207 calls)

     Called by *egterg:
     cdiaghg      :     42.69s CPU     43.32s WALL (     951 calls)
     h_psi        :   2178.37s CPU   2202.53s WALL (     960 calls)
     g_psi        :      1.70s CPU      1.71s WALL (     744 calls)

     Called by h_psi:
     h_psi:calbec :    637.53s CPU    642.75s WALL (     960 calls)
     vloc_psi     :   1146.90s CPU   1160.25s WALL (     960 calls)
                                        0.00s GPU  (     960 calls)
     add_vuspsi   :    391.93s CPU    395.10s WALL (     960 calls)

     General routines
     calbec       :    675.68s CPU    681.23s WALL (     996 calls)
     fft          :      2.99s CPU      3.85s WALL (     250 calls)
     ffts         :      0.20s CPU      0.23s WALL (      23 calls)
     fftw         :   1424.54s CPU   1440.86s WALL (  414624 calls)

     Parallel routines

     PWSCF        :   3694.76s CPU   3795.79s WALL


   This run was terminated on:  13:55:50  22Sep2026            

=------------------------------------------------------------------------------=
   JOB DONE.
=------------------------------------------------------------------------------=
