
     Program PWSCF v.7.5 starts on 29Sep2026 at 12:56: 3 

     This program is part of the open-source Quantum ESPRESSO suite
     for quantum simulation of materials; please cite
         "P. Giannozzi et al., J. Phys.:Condens. Matter 21 395502 (2009);
         "P. Giannozzi et al., J. Phys.:Condens. Matter 29 465901 (2017);
         "P. Giannozzi et al., J. Chem. Phys. 152 154105 (2020);
          URL http://www.quantum-espresso.org", 
     in publications or presentations arising from this work. More details at
     http://www.quantum-espresso.org/quote

     Parallel version (MPI & OpenMP), running on      32 processor cores
     Number of MPI processes:                32
     Threads/MPI process:                     1

     MPI processes distributed on     5 nodes
     471048 MiB available memory on the printing compute node when the environment starts

     Waiting for input...
     Reading input from standard input

     Current dimensions of program PWSCF are:
     Max number of different atomic species (ntypx) = 10
     Max number of k-points (npk) =  40000
     Max angular momentum in pseudopotentials (lmaxx) =  4

     Atomic positions and unit cell read from directory:
     /home/gregb26/links/scratch/qe_tmp/em2_bands_27/defect_uc_dense_27.save/


     K-points division:     npool     =       4
     R & G space division:  proc/nbgrp/npool/nimage =       8
     Subspace diagonalization in iterative solution of the eigenvalue problem:
     a serial algorithm will be used


     Parallelization info
     --------------------
     sticks:   dense  smooth     PW     G-vecs:    dense   smooth      PW
     Min          74      74     23                 9530     9530    1601
     Max          75      75     24                 9551     9551    1616
     Sum         595     595    187                76277    76277   12891

     Using Slab Decomposition



     bravais-lattice index     =            0
     lattice parameter (alat)  =       4.6598  a.u.
     unit-cell volume          =     564.1357 (a.u.)^3
     number of atoms/cell      =            2
     number of atomic types    =            1
     number of electrons       =         8.00
     number of Kohn-Sham states=           20
     kinetic-energy cutoff     =     100.0000  Ry
     charge density cutoff     =     400.0000  Ry
     Exchange-correlation= PBE
                           (   1   4   3   4   0   0   0)

     celldm(1)=   4.659785  celldm(2)=   0.000000  celldm(3)=   0.000000
     celldm(4)=   0.000000  celldm(5)=   0.000000  celldm(6)=   0.000000

     crystal axes: (cart. coord. in units of alat)
               a(1) = (   0.866025  -0.500000   0.000000 )  
               a(2) = (   0.866025   0.500000   0.000000 )  
               a(3) = (   0.000000   0.000000   6.438066 )  

     reciprocal axes: (cart. coord. in units 2 pi/alat)
               b(1) = (  0.577350 -1.000000  0.000000 )  
               b(2) = (  0.577350  1.000000 -0.000000 )  
               b(3) = ( -0.000000  0.000000  0.155326 )  


     PseudoPot. # 1 for C  read from file:
     /home/gregb26/links/projects/rrg-cotemich-ac/gregb26/abinit_processing/pseudo/C.upf
     MD5 check sum: 34a24e64c0a39f27c6c36b90a16ac686
     Pseudo is Norm-conserving + core correction, Zval =  4.0
     Generated using ONCVPSP code by D. R. Hamann
     Using radial grid of 1248 points,  4 beta functions with: 
                l(1) =   0
                l(2) =   0
                l(3) =   1
                l(4) =   1

     atomic species   valence    mass     pseudopotential
     C                 4.00    12.01100     C ( 1.00)

     No symmetry found



   Cartesian axes

     site n.     atom                  positions (alat units)
         1        C      tau(   1) = (   0.5773503   0.0000000   0.0000000  )
         2        C      tau(   2) = (   1.1547005   0.0000000   0.0000000  )

     number of k points=    84  Marzari-Vanderbilt smearing, width (Ry)=  0.0100
                       cart. coord. in units 2pi/alat
        k(    1) = (   0.6615653  -0.3333333   0.0000000), wk =   0.0238095
        k(    2) = (   0.6569591  -0.3228526   0.0000000), wk =   0.0238095
        k(    3) = (   0.6522715  -0.3132582   0.0000000), wk =   0.0238095
        k(    4) = (   0.6475299  -0.3042640   0.0000000), wk =   0.0238095
        k(    5) = (   0.6426782  -0.2956162   0.0000000), wk =   0.0238095
        k(    6) = (   0.6376141  -0.2870913   0.0000000), wk =   0.0238095
        k(    7) = (   0.6321954  -0.2784882   0.0000000), wk =   0.0238095
        k(    8) = (   0.6262306  -0.2696312   0.0000000), wk =   0.0238095
        k(    9) = (   0.6194577  -0.2604012   0.0000000), wk =   0.0238095
        k(   10) = (   0.6115191  -0.2508424   0.0000000), wk =   0.0238095
        k(   11) = (   0.6019694  -0.2414536   0.0000000), wk =   0.0238095
        k(   12) = (   0.5904573  -0.2337757   0.0000000), wk =   0.0238095
        k(   13) = (   0.5773503  -0.2306245   0.0000000), wk =   0.0238095
        k(   14) = (   0.5642433  -0.2337757   0.0000000), wk =   0.0238095
        k(   15) = (   0.5527312  -0.2414536   0.0000000), wk =   0.0238095
        k(   16) = (   0.5431814  -0.2508424   0.0000000), wk =   0.0238095
        k(   17) = (   0.5352429  -0.2604012   0.0000000), wk =   0.0238095
        k(   18) = (   0.5284699  -0.2696312   0.0000000), wk =   0.0238095
        k(   19) = (   0.5225051  -0.2784882   0.0000000), wk =   0.0238095
        k(   20) = (   0.5170865  -0.2870913   0.0000000), wk =   0.0238095
        k(   21) = (   0.5120223  -0.2956162   0.0000000), wk =   0.0238095
        k(   22) = (   0.5071706  -0.3042640   0.0000000), wk =   0.0238095
        k(   23) = (   0.5024290  -0.3132582   0.0000000), wk =   0.0238095
        k(   24) = (   0.4977414  -0.3228526   0.0000000), wk =   0.0238095
        k(   25) = (   0.4931352  -0.3333333   0.0000000), wk =   0.0238095
        k(   26) = (   0.4888264  -0.3449877   0.0000000), wk =   0.0238095
        k(   27) = (   0.4854696  -0.3579527   0.0000000), wk =   0.0238095
        k(   28) = (   0.4845763  -0.3717616   0.0000000), wk =   0.0238095
        k(   29) = (   0.4884013  -0.3846881   0.0000000), wk =   0.0238095
        k(   30) = (   0.4976840  -0.3944634   0.0000000), wk =   0.0238095
        k(   31) = (   0.5100900  -0.4005936   0.0000000), wk =   0.0238095
        k(   32) = (   0.5229960  -0.4041692   0.0000000), wk =   0.0238095
        k(   33) = (   0.5352428  -0.4062657   0.0000000), wk =   0.0238095
        k(   34) = (   0.5466223  -0.4075173   0.0000000), wk =   0.0238095
        k(   35) = (   0.5572752  -0.4082546   0.0000000), wk =   0.0238095
        k(   36) = (   0.5674353  -0.4086451   0.0000000), wk =   0.0238095
        k(   37) = (   0.5773503  -0.4087675   0.0000000), wk =   0.0238095
        k(   38) = (   0.5872653  -0.4086451   0.0000000), wk =   0.0238095
        k(   39) = (   0.5974254  -0.4082546   0.0000000), wk =   0.0238095
        k(   40) = (   0.6080783  -0.4075173   0.0000000), wk =   0.0238095
        k(   41) = (   0.6194578  -0.4062657   0.0000000), wk =   0.0238095
        k(   42) = (   0.6317045  -0.4041692   0.0000000), wk =   0.0238095
        k(   43) = (   0.6446105  -0.4005936   0.0000000), wk =   0.0238095
        k(   44) = (   0.6570165  -0.3944634   0.0000000), wk =   0.0238095
        k(   45) = (   0.6662993  -0.3846881   0.0000000), wk =   0.0238095
        k(   46) = (   0.6701243  -0.3717616   0.0000000), wk =   0.0238095
        k(   47) = (   0.6692310  -0.3579527   0.0000000), wk =   0.0238095
        k(   48) = (   0.6658742  -0.3449877   0.0000000), wk =   0.0238095
        k(   49) = (   0.6480405  -0.3333333   0.0000000), wk =   0.0238095
        k(   50) = (   0.6330070  -0.3011999   0.0000000), wk =   0.0238095
        k(   51) = (   0.6126943  -0.2721157   0.0000000), wk =   0.0238095
        k(   52) = (   0.5773503  -0.2508294   0.0000000), wk =   0.0238095
        k(   53) = (   0.5420063  -0.2721157   0.0000000), wk =   0.0238095
        k(   54) = (   0.5216936  -0.3011999   0.0000000), wk =   0.0238095
        k(   55) = (   0.5066600  -0.3333333   0.0000000), wk =   0.0238095
        k(   56) = (   0.5058986  -0.3745860   0.0000000), wk =   0.0238095
        k(   57) = (   0.5420053  -0.3945526   0.0000000), wk =   0.0238095
        k(   58) = (   0.5773503  -0.3976002   0.0000000), wk =   0.0238095
        k(   59) = (   0.6126952  -0.3945526   0.0000000), wk =   0.0238095
        k(   60) = (   0.6488019  -0.3745860   0.0000000), wk =   0.0238095
        k(   61) = (   0.6692803  -0.3333333   0.0000000), wk =   0.0238095
        k(   62) = (   0.6480865  -0.2924937   0.0000000), wk =   0.0238095
        k(   63) = (   0.6233158  -0.2537186   0.0000000), wk =   0.0238095
        k(   64) = (   0.5773503  -0.2179510   0.0000000), wk =   0.0238095
        k(   65) = (   0.5313847  -0.2537186   0.0000000), wk =   0.0238095
        k(   66) = (   0.5066140  -0.2924937   0.0000000), wk =   0.0238095
        k(   67) = (   0.4854202  -0.3333333   0.0000000), wk =   0.0238095
        k(   68) = (   0.4774282  -0.3910234   0.0000000), wk =   0.0238095
        k(   69) = (   0.5313851  -0.4129473   0.0000000), wk =   0.0238095
        k(   70) = (   0.5773503  -0.4150124   0.0000000), wk =   0.0238095
        k(   71) = (   0.6233154  -0.4129473   0.0000000), wk =   0.0238095
        k(   72) = (   0.6772723  -0.3910234   0.0000000), wk =   0.0238095
        k(   73) = (   0.5793125  -0.3333333   0.0000000), wk =   0.0238095
        k(   74) = (   0.5790496  -0.3323522   0.0000000), wk =   0.0238095
        k(   75) = (   0.5783314  -0.3316340   0.0000000), wk =   0.0238095
        k(   76) = (   0.5773503  -0.3313711   0.0000000), wk =   0.0238095
        k(   77) = (   0.5763691  -0.3316340   0.0000000), wk =   0.0238095
        k(   78) = (   0.5756509  -0.3323522   0.0000000), wk =   0.0238095
        k(   79) = (   0.5753880  -0.3333333   0.0000000), wk =   0.0238095
        k(   80) = (   0.5756509  -0.3343145   0.0000000), wk =   0.0238095
        k(   81) = (   0.5763691  -0.3350327   0.0000000), wk =   0.0238095
        k(   82) = (   0.5773503  -0.3352956   0.0000000), wk =   0.0238095
        k(   83) = (   0.5783314  -0.3350327   0.0000000), wk =   0.0238095
        k(   84) = (   0.5790496  -0.3343145   0.0000000), wk =   0.0238095

     Dense  grid:    76277 G-vectors     FFT dimensions: (  30,  30, 192)

     Estimated max dynamical RAM per process >       5.46 MB

     Estimated total dynamical RAM >     174.57 MB
 ----2D----2D----2D----2D----2D----2D----2D----2D----2D----2D----2D----2D
  The code is running with the 2D cutoff
  Please refer to:
  Sohier, T., Calandra, M., & Mauri, F. (2017), 
  Density functional perturbation theory for gated two-dimensional heterostructures:
  Theoretical developments and application to flexural phonons in graphene.
  Physical Review B, 96(7), 75448. https://doi.org/10.1103/PhysRevB.96.075448
 ----2D----2D----2D----2D----2D----2D----2D----2D----2D----2D----2D----2D

     The potential is recalculated from file :
     /home/gregb26/links/scratch/qe_tmp/em2_bands_27/defect_uc_dense_27.save/charge-density

     Starting wfcs are    8 randomized atomic wfcs +   12 random wfcs

     Band Structure Calculation
     Davidson diagonalization with overlap
     c_bands:  1 eigenvalues not converged
     c_bands:  1 eigenvalues not converged
     c_bands:  1 eigenvalues not converged
     c_bands:  1 eigenvalues not converged
     c_bands:  1 eigenvalues not converged
     c_bands:  1 eigenvalues not converged
     c_bands:  1 eigenvalues not converged
     c_bands:  1 eigenvalues not converged
     c_bands:  1 eigenvalues not converged

     ethr =  1.00E-13,  avg # of iterations =105.1

     total cpu time spent up to now is       15.3 secs

     End of band structure calculation

          k = 0.6616-0.3333 0.0000 (  9477 PWs)   bands (ev):

   -17.9155 -16.2811 -14.1137  -5.4265  -3.0965   6.6327   7.3358   8.2395
     8.9833   9.0287  10.0157  10.8781  11.5300  11.5449  12.6116  12.9048
    13.2247  13.3395  13.8173  14.9954

          k = 0.6570-0.3229 0.0000 (  9491 PWs)   bands (ev):

   -17.9403 -16.1705 -14.2177  -5.4195  -3.0895   6.5908   7.2878   8.4411
     8.9441   9.0949   9.9733  10.9558  11.6361  11.6670  12.5257  12.8013
    13.1586  13.4435  13.8910  14.8013

          k = 0.6523-0.3133 0.0000 (  9488 PWs)   bands (ev):

   -17.9560 -16.0908 -14.2940  -5.4148  -3.0848   6.5628   7.2580   8.6098
     8.9192   9.1054   9.9493  10.9843  11.7370  11.8337  12.3519  12.7733
    12.9941  13.6184  14.0684  14.5392

          k = 0.6475-0.3043 0.0000 (  9492 PWs)   bands (ev):

   -17.9646 -16.0425 -14.3405  -5.4121  -3.0821   6.5468   7.2417   8.7351
     8.9054   9.0820   9.9369  10.9937  11.8558  11.9786  12.1758  12.7624
    12.8444  13.8249  14.2579  14.2908

          k = 0.6427-0.2956 0.0000 (  9494 PWs)   bands (ev):

   -17.9674 -16.0264 -14.3562  -5.4112  -3.0812   6.5416   7.2365   8.7871
     8.9010   9.0629   9.9331  10.9958  11.9608  12.0413  12.0507  12.7591
    12.7799  14.0189  14.0843  14.4179

          k = 0.6376-0.2871 0.0000 (  9492 PWs)   bands (ev):

   -17.9646 -16.0425 -14.3406  -5.4121  -3.0821   6.5468   7.2417   8.7351
     8.9054   9.0820   9.9369  10.9937  11.8558  11.9786  12.1758  12.7625
    12.8444  13.8249  14.2579  14.2908

          k = 0.6322-0.2785 0.0000 (  9488 PWs)   bands (ev):

   -17.9559 -16.0908 -14.2940  -5.4148  -3.0848   6.5628   7.2580   8.6098
     8.9192   9.1054   9.9493  10.9844  11.7370  11.8337  12.3519  12.7733
    12.9940  13.6184  14.0684  14.5392

          k = 0.6262-0.2696 0.0000 (  9491 PWs)   bands (ev):

   -17.9403 -16.1705 -14.2178  -5.4195  -3.0895   6.5908   7.2878   8.4411
     8.9441   9.0949   9.9733  10.9558  11.6361  11.6670  12.5257  12.8013
    13.1586  13.4435  13.8910  14.8013

          k = 0.6195-0.2604 0.0000 (  9477 PWs)   bands (ev):

   -17.9155 -16.2811 -14.1137  -5.4265  -3.0965   6.6327   7.3358   8.2395
     8.9834   9.0287  10.0157  10.8781  11.5300  11.5449  12.6116  12.9048
    13.2247  13.3395  13.8173  14.9954

          k = 0.6115-0.2508 0.0000 (  9474 PWs)   bands (ev):

   -17.8786 -16.4209 -13.9862  -5.4358  -3.1058   6.6899   7.4094   8.0137
     8.8910   9.0420  10.0883  10.7147  11.4367  11.4721  12.5762  13.0750
    13.0770  13.3689  13.9531  15.1114

          k = 0.6020-0.2415 0.0000 (  9480 PWs)   bands (ev):

   -17.8271 -16.5820 -13.8467  -5.4470  -3.1169   6.7601   7.5108   7.7940
     8.6751   9.1255  10.2091  10.4748  11.2671  11.5038  12.5192  12.8065
    13.2148  13.5512  14.1907  15.0184

          k = 0.5905-0.2338 0.0000 (  9474 PWs)   bands (ev):

   -17.7680 -16.7344 -13.7251  -5.4575  -3.1274   6.8281   7.5120   7.7701
     8.3975   9.2274  10.2251  10.3981  11.0121  11.5993  12.4992  12.5245
    13.3256  13.7640  14.4188  14.8048

          k = 0.5774-0.2306 0.0000 (  9486 PWs)   bands (ev):

   -17.7368 -16.8043 -13.6736  -5.4621  -3.1320   6.8588   7.4465   7.9157
     8.1888   9.2868  10.1028  10.5973  10.7780  11.6698  12.3798  12.5012
    13.3779  13.8597  14.5223  14.7040

          k = 0.5642-0.2338 0.0000 (  9474 PWs)   bands (ev):

   -17.7680 -16.7344 -13.7251  -5.4575  -3.1274   6.8281   7.5120   7.7701
     8.3975   9.2274  10.2251  10.3981  11.0121  11.5993  12.4992  12.5245
    13.3256  13.7640  14.4188  14.8048

          k = 0.5527-0.2415 0.0000 (  9480 PWs)   bands (ev):

   -17.8271 -16.5820 -13.8467  -5.4470  -3.1169   6.7601   7.5108   7.7940
     8.6751   9.1255  10.2091  10.4748  11.2671  11.5038  12.5192  12.8065
    13.2148  13.5512  14.1907  15.0184

          k = 0.5432-0.2508 0.0000 (  9474 PWs)   bands (ev):

   -17.8786 -16.4209 -13.9862  -5.4358  -3.1058   6.6899   7.4094   8.0137
     8.8910   9.0420  10.0883  10.7147  11.4367  11.4721  12.5762  13.0750
    13.0770  13.3689  13.9531  15.1114

          k = 0.5352-0.2604 0.0000 (  9477 PWs)   bands (ev):

   -17.9155 -16.2811 -14.1137  -5.4265  -3.0965   6.6327   7.3358   8.2395
     8.9834   9.0287  10.0157  10.8781  11.5300  11.5449  12.6116  12.9048
    13.2247  13.3395  13.8173  14.9954

          k = 0.5285-0.2696 0.0000 (  9491 PWs)   bands (ev):

   -17.9403 -16.1705 -14.2178  -5.4195  -3.0895   6.5908   7.2878   8.4411
     8.9441   9.0949   9.9733  10.9558  11.6361  11.6670  12.5257  12.8013
    13.1586  13.4435  13.8910  14.8013

          k = 0.5225-0.2785 0.0000 (  9488 PWs)   bands (ev):

   -17.9559 -16.0908 -14.2940  -5.4148  -3.0848   6.5628   7.2580   8.6098
     8.9192   9.1054   9.9493  10.9844  11.7370  11.8337  12.3519  12.7733
    12.9940  13.6184  14.0684  14.5392

          k = 0.5171-0.2871 0.0000 (  9492 PWs)   bands (ev):

   -17.9646 -16.0425 -14.3406  -5.4121  -3.0821   6.5468   7.2417   8.7351
     8.9054   9.0820   9.9369  10.9937  11.8558  11.9786  12.1758  12.7625
    12.8444  13.8249  14.2579  14.2908

          k = 0.5120-0.2956 0.0000 (  9494 PWs)   bands (ev):

   -17.9674 -16.0264 -14.3562  -5.4112  -3.0812   6.5416   7.2365   8.7871
     8.9010   9.0629   9.9331  10.9958  11.9608  12.0413  12.0507  12.7591
    12.7799  14.0189  14.0843  14.4179

          k = 0.5072-0.3043 0.0000 (  9492 PWs)   bands (ev):

   -17.9646 -16.0425 -14.3405  -5.4121  -3.0821   6.5468   7.2417   8.7351
     8.9054   9.0820   9.9369  10.9937  11.8558  11.9786  12.1758  12.7624
    12.8444  13.8249  14.2579  14.2908

          k = 0.5024-0.3133 0.0000 (  9488 PWs)   bands (ev):

   -17.9560 -16.0908 -14.2940  -5.4148  -3.0848   6.5628   7.2580   8.6098
     8.9192   9.1054   9.9493  10.9843  11.7370  11.8337  12.3519  12.7733
    12.9941  13.6184  14.0684  14.5392

          k = 0.4977-0.3229 0.0000 (  9491 PWs)   bands (ev):

   -17.9403 -16.1705 -14.2177  -5.4195  -3.0895   6.5908   7.2878   8.4411
     8.9441   9.0949   9.9733  10.9558  11.6361  11.6670  12.5257  12.8013
    13.1586  13.4435  13.8910  14.8013

          k = 0.4931-0.3333 0.0000 (  9477 PWs)   bands (ev):

   -17.9155 -16.2811 -14.1137  -5.4265  -3.0965   6.6327   7.3358   8.2395
     8.9833   9.0287  10.0157  10.8781  11.5300  11.5449  12.6116  12.9048
    13.2247  13.3395  13.8173  14.9954

          k = 0.4888-0.3450 0.0000 (  9474 PWs)   bands (ev):

   -17.8786 -16.4209 -13.9862  -5.4358  -3.1058   6.6899   7.4094   8.0137
     8.8910   9.0420  10.0883  10.7147  11.4367  11.4721  12.5762  13.0750
    13.0770  13.3689  13.9531  15.1114

          k = 0.4855-0.3580 0.0000 (  9480 PWs)   bands (ev):

   -17.8271 -16.5820 -13.8467  -5.4470  -3.1169   6.7601   7.5108   7.7939
     8.6751   9.1254  10.2091  10.4748  11.2671  11.5037  12.5191  12.8065
    13.2148  13.5513  14.1907  15.0184

          k = 0.4846-0.3718 0.0000 (  9474 PWs)   bands (ev):

   -17.7680 -16.7344 -13.7250  -5.4575  -3.1274   6.8281   7.5119   7.7701
     8.3975   9.2274  10.2251  10.3981  11.0121  11.5993  12.4992  12.5245
    13.3256  13.7640  14.4188  14.8048

          k = 0.4884-0.3847 0.0000 (  9486 PWs)   bands (ev):

   -17.7368 -16.8043 -13.6736  -5.4621  -3.1320   6.8588   7.4464   7.9157
     8.1888   9.2868  10.1028  10.5973  10.7780  11.6698  12.3798  12.5012
    13.3779  13.8597  14.5223  14.7040

          k = 0.4977-0.3945 0.0000 (  9474 PWs)   bands (ev):

   -17.7680 -16.7344 -13.7251  -5.4575  -3.1274   6.8281   7.5120   7.7701
     8.3975   9.2274  10.2251  10.3981  11.0121  11.5993  12.4992  12.5245
    13.3256  13.7640  14.4188  14.8048

          k = 0.5101-0.4006 0.0000 (  9480 PWs)   bands (ev):

   -17.8271 -16.5820 -13.8467  -5.4470  -3.1169   6.7601   7.5108   7.7940
     8.6751   9.1255  10.2091  10.4748  11.2671  11.5038  12.5192  12.8065
    13.2148  13.5512  14.1906  15.0184

          k = 0.5230-0.4042 0.0000 (  9474 PWs)   bands (ev):

   -17.8786 -16.4209 -13.9862  -5.4358  -3.1058   6.6899   7.4094   8.0137
     8.8910   9.0420  10.0884  10.7147  11.4367  11.4722  12.5762  13.0749
    13.0770  13.3689  13.9531  15.1114

          k = 0.5352-0.4063 0.0000 (  9477 PWs)   bands (ev):

   -17.9155 -16.2811 -14.1137  -5.4265  -3.0965   6.6327   7.3358   8.2395
     8.9833   9.0287  10.0157  10.8781  11.5300  11.5449  12.6116  12.9048
    13.2247  13.3395  13.8173  14.9954

          k = 0.5466-0.4075 0.0000 (  9491 PWs)   bands (ev):

   -17.9403 -16.1705 -14.2177  -5.4195  -3.0895   6.5908   7.2878   8.4411
     8.9441   9.0949   9.9733  10.9558  11.6362  11.6670  12.5257  12.8013
    13.1586  13.4435  13.8910  14.8013

          k = 0.5573-0.4083 0.0000 (  9488 PWs)   bands (ev):

   -17.9560 -16.0908 -14.2940  -5.4148  -3.0848   6.5628   7.2580   8.6098
     8.9192   9.1054   9.9493  10.9843  11.7370  11.8337  12.3519  12.7733
    12.9941  13.6184  14.0684  14.5392

          k = 0.5674-0.4086 0.0000 (  9492 PWs)   bands (ev):

   -17.9646 -16.0425 -14.3405  -5.4121  -3.0821   6.5468   7.2417   8.7351
     8.9054   9.0820   9.9369  10.9937  11.8558  11.9786  12.1758  12.7624
    12.8444  13.8249  14.2579  14.2908

          k = 0.5774-0.4088 0.0000 (  9494 PWs)   bands (ev):

   -17.9674 -16.0264 -14.3562  -5.4112  -3.0812   6.5416   7.2365   8.7871
     8.9010   9.0629   9.9331  10.9958  11.9608  12.0413  12.0507  12.7591
    12.7799  14.0189  14.0843  14.4179

          k = 0.5873-0.4086 0.0000 (  9492 PWs)   bands (ev):

   -17.9646 -16.0425 -14.3405  -5.4121  -3.0821   6.5468   7.2417   8.7351
     8.9054   9.0820   9.9369  10.9937  11.8558  11.9786  12.1758  12.7624
    12.8444  13.8249  14.2579  14.2908

          k = 0.5974-0.4083 0.0000 (  9488 PWs)   bands (ev):

   -17.9560 -16.0908 -14.2940  -5.4148  -3.0848   6.5628   7.2580   8.6098
     8.9192   9.1054   9.9493  10.9843  11.7370  11.8337  12.3519  12.7733
    12.9941  13.6184  14.0684  14.5392

          k = 0.6081-0.4075 0.0000 (  9491 PWs)   bands (ev):

   -17.9403 -16.1705 -14.2177  -5.4195  -3.0895   6.5908   7.2878   8.4411
     8.9441   9.0949   9.9733  10.9558  11.6362  11.6670  12.5257  12.8013
    13.1586  13.4435  13.8910  14.8013

          k = 0.6195-0.4063 0.0000 (  9477 PWs)   bands (ev):

   -17.9155 -16.2811 -14.1137  -5.4265  -3.0965   6.6327   7.3358   8.2395
     8.9833   9.0287  10.0157  10.8781  11.5300  11.5449  12.6116  12.9048
    13.2247  13.3395  13.8173  14.9954

          k = 0.6317-0.4042 0.0000 (  9474 PWs)   bands (ev):

   -17.8786 -16.4209 -13.9862  -5.4358  -3.1058   6.6899   7.4094   8.0137
     8.8910   9.0420  10.0884  10.7147  11.4367  11.4722  12.5762  13.0749
    13.0770  13.3689  13.9531  15.1114

          k = 0.6446-0.4006 0.0000 (  9480 PWs)   bands (ev):

   -17.8271 -16.5820 -13.8467  -5.4470  -3.1169   6.7601   7.5108   7.7940
     8.6751   9.1255  10.2091  10.4748  11.2671  11.5038  12.5192  12.8065
    13.2148  13.5512  14.1906  15.0184

          k = 0.6570-0.3945 0.0000 (  9474 PWs)   bands (ev):

   -17.7680 -16.7344 -13.7251  -5.4575  -3.1274   6.8281   7.5120   7.7701
     8.3975   9.2274  10.2251  10.3981  11.0121  11.5993  12.4992  12.5245
    13.3256  13.7640  14.4188  14.8048

          k = 0.6663-0.3847 0.0000 (  9486 PWs)   bands (ev):

   -17.7368 -16.8043 -13.6736  -5.4621  -3.1320   6.8588   7.4464   7.9157
     8.1888   9.2868  10.1028  10.5973  10.7780  11.6698  12.3798  12.5012
    13.3779  13.8597  14.5223  14.7040

          k = 0.6701-0.3718 0.0000 (  9474 PWs)   bands (ev):

   -17.7680 -16.7344 -13.7250  -5.4575  -3.1274   6.8281   7.5119   7.7701
     8.3975   9.2274  10.2251  10.3981  11.0121  11.5993  12.4992  12.5245
    13.3256  13.7640  14.4188  14.8048

          k = 0.6692-0.3580 0.0000 (  9480 PWs)   bands (ev):

   -17.8271 -16.5820 -13.8467  -5.4470  -3.1169   6.7601   7.5108   7.7939
     8.6751   9.1254  10.2091  10.4748  11.2671  11.5037  12.5191  12.8065
    13.2148  13.5513  14.1907  15.0184

          k = 0.6659-0.3450 0.0000 (  9474 PWs)   bands (ev):

   -17.8786 -16.4209 -13.9862  -5.4358  -3.1058   6.6899   7.4094   8.0137
     8.8910   9.0420  10.0883  10.7147  11.4367  11.4721  12.5762  13.0750
    13.0770  13.3689  13.9531  15.1114

          k = 0.6480-0.3333 0.0000 (  9485 PWs)   bands (ev):

   -17.7304 -16.3511 -14.3012  -5.2354  -3.2753   6.5839   7.6103   8.4638
     9.0199   9.2396  10.3018  10.9883  11.5147  11.6327  12.4958  12.7693
    12.9753  13.4112  13.7017  14.7068

          k = 0.6330-0.3012 0.0000 (  9488 PWs)   bands (ev):

   -17.7802 -16.1607 -14.4666  -5.2256  -3.2657   6.5245   7.5114   8.8007
     9.1382   9.1550  10.2163  11.2470  11.8219  11.8247  11.9540  12.6291
    12.9117  13.8259  13.9525  14.2019

          k = 0.6127-0.2721 0.0000 (  9485 PWs)   bands (ev):

   -17.7303 -16.3511 -14.3012  -5.2353  -3.2754   6.5839   7.6104   8.4638
     9.0199   9.2397  10.3018  10.9883  11.5147  11.6327  12.4958  12.7693
    12.9753  13.4112  13.7017  14.7067

          k = 0.5774-0.2508 0.0000 (  9486 PWs)   bands (ev):

   -17.5900 -16.7175 -14.0241  -5.2550  -3.2950   6.7082   7.9242   8.0775
     8.4175   9.5230  10.2716  10.7472  10.9796  11.9056  12.4766  12.4893
    13.0850  13.5967  13.9646  14.8571

          k = 0.5420-0.2721 0.0000 (  9485 PWs)   bands (ev):

   -17.7303 -16.3511 -14.3012  -5.2353  -3.2754   6.5839   7.6104   8.4638
     9.0199   9.2397  10.3018  10.9883  11.5147  11.6327  12.4958  12.7693
    12.9753  13.4112  13.7017  14.7067

          k = 0.5217-0.3012 0.0000 (  9488 PWs)   bands (ev):

   -17.7802 -16.1607 -14.4666  -5.2256  -3.2657   6.5245   7.5114   8.8007
     9.1382   9.1550  10.2163  11.2470  11.8219  11.8247  11.9540  12.6291
    12.9117  13.8259  13.9525  14.2019

          k = 0.5067-0.3333 0.0000 (  9485 PWs)   bands (ev):

   -17.7304 -16.3511 -14.3012  -5.2354  -3.2753   6.5839   7.6103   8.4638
     9.0199   9.2396  10.3018  10.9883  11.5147  11.6327  12.4958  12.7693
    12.9753  13.4112  13.7017  14.7068

          k = 0.5059-0.3746 0.0000 (  9486 PWs)   bands (ev):

   -17.5900 -16.7175 -14.0241  -5.2550  -3.2950   6.7082   7.9242   8.0775
     8.4174   9.5230  10.2716  10.7471  10.9796  11.9056  12.4766  12.4893
    13.0850  13.5967  13.9647  14.8571

          k = 0.5420-0.3946 0.0000 (  9485 PWs)   bands (ev):

   -17.7304 -16.3511 -14.3012  -5.2354  -3.2753   6.5839   7.6103   8.4638
     9.0199   9.2396  10.3018  10.9883  11.5147  11.6327  12.4958  12.7693
    12.9753  13.4112  13.7017  14.7067

          k = 0.5774-0.3976 0.0000 (  9488 PWs)   bands (ev):

   -17.7802 -16.1607 -14.4666  -5.2256  -3.2657   6.5245   7.5114   8.8007
     9.1382   9.1550  10.2163  11.2470  11.8219  11.8247  11.9540  12.6291
    12.9117  13.8259  13.9525  14.2019

          k = 0.6127-0.3946 0.0000 (  9485 PWs)   bands (ev):

   -17.7304 -16.3511 -14.3012  -5.2354  -3.2753   6.5839   7.6103   8.4638
     9.0199   9.2396  10.3018  10.9883  11.5147  11.6327  12.4958  12.7693
    12.9753  13.4112  13.7017  14.7067

          k = 0.6488-0.3746 0.0000 (  9486 PWs)   bands (ev):

   -17.5900 -16.7175 -14.0241  -5.2550  -3.2950   6.7082   7.9242   8.0775
     8.4174   9.5230  10.2716  10.7471  10.9796  11.9056  12.4766  12.4893
    13.0850  13.5967  13.9647  14.8571

          k = 0.6693-0.3333 0.0000 (  9477 PWs)   bands (ev):

   -18.0217 -16.2422 -13.9998  -5.5352  -2.9952   6.6569   7.1777   8.0922
     8.8486   9.0442   9.8516  10.7819  11.5082  11.5656  12.5530  13.0750
    13.3356  13.3393  13.8918  14.9551

          k = 0.6481-0.2925 0.0000 (  9490 PWs)   bands (ev):

   -18.0731 -15.9497 -14.2909  -5.5162  -2.9762   6.5458   7.0810   8.7678
     8.7754   9.0119   9.7738  10.8529  12.0440  12.1002  12.1650  12.6664
    12.8684  14.1304  14.1764  14.3947

          k = 0.6233-0.2537 0.0000 (  9477 PWs)   bands (ev):

   -18.0217 -16.2421 -13.9998  -5.5352  -2.9952   6.6569   7.1777   8.0922
     8.8486   9.0442   9.8516  10.7819  11.5082  11.5656  12.5530  13.0750
    13.3356  13.3393  13.8918  14.9551

          k = 0.5774-0.2180 0.0000 (  9482 PWs)   bands (ev):

   -17.8227 -16.8644 -13.4443  -5.5834  -3.0434   6.9630   7.1166   7.8164
     8.0648   9.1486  10.0115  10.5016  10.6571  11.5319  12.3104  12.5185
    13.3387  14.2624  14.6292  14.8543

          k = 0.5314-0.2537 0.0000 (  9477 PWs)   bands (ev):

   -18.0217 -16.2421 -13.9998  -5.5352  -2.9952   6.6569   7.1777   8.0922
     8.8486   9.0442   9.8516  10.7819  11.5082  11.5656  12.5530  13.0750
    13.3356  13.3393  13.8918  14.9551

          k = 0.5066-0.2925 0.0000 (  9490 PWs)   bands (ev):

   -18.0731 -15.9497 -14.2909  -5.5162  -2.9762   6.5458   7.0810   8.7678
     8.7754   9.0119   9.7738  10.8529  12.0440  12.1002  12.1650  12.6664
    12.8684  14.1304  14.1764  14.3947

          k = 0.4854-0.3333 0.0000 (  9477 PWs)   bands (ev):

   -18.0217 -16.2422 -13.9998  -5.5352  -2.9952   6.6569   7.1777   8.0922
     8.8486   9.0442   9.8516  10.7819  11.5082  11.5656  12.5530  13.0750
    13.3356  13.3393  13.8918  14.9551

          k = 0.4774-0.3910 0.0000 (  9482 PWs)   bands (ev):

   -17.8227 -16.8644 -13.4444  -5.5834  -3.0434   6.9630   7.1167   7.8164
     8.0648   9.1487  10.0115  10.5016  10.6571  11.5320  12.3104  12.5185
    13.3387  14.2623  14.6292  14.8543

          k = 0.5314-0.4129 0.0000 (  9477 PWs)   bands (ev):

   -18.0217 -16.2421 -13.9998  -5.5352  -2.9952   6.6569   7.1777   8.0922
     8.8486   9.0442   9.8516  10.7819  11.5082  11.5656  12.5530  13.0750
    13.3356  13.3393  13.8918  14.9551

          k = 0.5774-0.4150 0.0000 (  9490 PWs)   bands (ev):

   -18.0731 -15.9497 -14.2909  -5.5162  -2.9762   6.5458   7.0810   8.7678
     8.7754   9.0119   9.7738  10.8529  12.0440  12.1002  12.1650  12.6664
    12.8684  14.1304  14.1764  14.3947

          k = 0.6233-0.4129 0.0000 (  9477 PWs)   bands (ev):

   -18.0217 -16.2421 -13.9998  -5.5352  -2.9952   6.6569   7.1777   8.0922
     8.8486   9.0442   9.8516  10.7819  11.5082  11.5656  12.5530  13.0750
    13.3356  13.3393  13.8918  14.9551

          k = 0.6773-0.3910 0.0000 (  9482 PWs)   bands (ev):

   -17.8227 -16.8644 -13.4444  -5.5834  -3.0434   6.9630   7.1167   7.8164
     8.0648   9.1487  10.0115  10.5016  10.6571  11.5320  12.3104  12.5185
    13.3387  14.2623  14.6292  14.8543

          k = 0.5793-0.3333 0.0000 (  9456 PWs)   bands (ev):

   -16.8840 -16.8447 -14.8290  -4.2663  -4.2116   6.4205   8.6522   8.6719
     9.2650  10.6587  10.7219  11.2497  11.2740  11.5701  11.9088  12.8967
    12.9390  13.0392  13.1023  14.0171

          k = 0.5790-0.3324 0.0000 (  9456 PWs)   bands (ev):

   -16.8843 -16.8445 -14.8290  -4.2663  -4.2115   6.4205   8.6517   8.6723
     9.2651  10.6578  10.7228  11.2496  11.2741  11.5700  11.9088  12.8974
    12.9384  13.0387  13.1028  14.0171

          k = 0.5783-0.3316 0.0000 (  9456 PWs)   bands (ev):

   -16.8840 -16.8447 -14.8290  -4.2663  -4.2116   6.4205   8.6522   8.6719
     9.2650  10.6587  10.7219  11.2497  11.2740  11.5701  11.9088  12.8967
    12.9390  13.0392  13.1023  14.0171

          k = 0.5774-0.3314 0.0000 (  9456 PWs)   bands (ev):

   -16.8838 -16.8450 -14.8290  -4.2662  -4.2116   6.4205   8.6527   8.6714
     9.2650  10.6595  10.7210  11.2497  11.2740  11.5702  11.9088  12.8960
    12.9397  13.0397  13.1018  14.0171

          k = 0.5764-0.3316 0.0000 (  9456 PWs)   bands (ev):

   -16.8840 -16.8447 -14.8290  -4.2663  -4.2116   6.4205   8.6522   8.6719
     9.2650  10.6587  10.7219  11.2497  11.2740  11.5701  11.9088  12.8967
    12.9390  13.0392  13.1023  14.0171

          k = 0.5757-0.3324 0.0000 (  9456 PWs)   bands (ev):

   -16.8843 -16.8445 -14.8290  -4.2663  -4.2115   6.4205   8.6517   8.6723
     9.2651  10.6578  10.7228  11.2496  11.2741  11.5700  11.9088  12.8974
    12.9384  13.0387  13.1028  14.0171

          k = 0.5754-0.3333 0.0000 (  9456 PWs)   bands (ev):

   -16.8840 -16.8447 -14.8290  -4.2663  -4.2116   6.4205   8.6522   8.6719
     9.2650  10.6587  10.7219  11.2497  11.2740  11.5701  11.9088  12.8967
    12.9390  13.0392  13.1023  14.0171

          k = 0.5757-0.3343 0.0000 (  9456 PWs)   bands (ev):

   -16.8838 -16.8450 -14.8290  -4.2662  -4.2116   6.4205   8.6527   8.6714
     9.2650  10.6595  10.7210  11.2497  11.2740  11.5702  11.9088  12.8960
    12.9397  13.0397  13.1018  14.0171

          k = 0.5764-0.3350 0.0000 (  9456 PWs)   bands (ev):

   -16.8840 -16.8447 -14.8290  -4.2663  -4.2116   6.4205   8.6522   8.6719
     9.2650  10.6587  10.7219  11.2497  11.2740  11.5701  11.9088  12.8967
    12.9390  13.0392  13.1023  14.0171

          k = 0.5774-0.3353 0.0000 (  9456 PWs)   bands (ev):

   -16.8843 -16.8445 -14.8290  -4.2663  -4.2115   6.4205   8.6517   8.6723
     9.2651  10.6578  10.7228  11.2496  11.2741  11.5700  11.9088  12.8974
    12.9384  13.0387  13.1028  14.0171

          k = 0.5783-0.3350 0.0000 (  9456 PWs)   bands (ev):

   -16.8840 -16.8447 -14.8290  -4.2663  -4.2116   6.4205   8.6522   8.6719
     9.2650  10.6587  10.7219  11.2497  11.2740  11.5701  11.9088  12.8967
    12.9390  13.0392  13.1023  14.0171

          k = 0.5790-0.3343 0.0000 (  9456 PWs)   bands (ev):

   -16.8838 -16.8450 -14.8290  -4.2662  -4.2116   6.4205   8.6527   8.6714
     9.2650  10.6595  10.7210  11.2497  11.2740  11.5702  11.9088  12.8960
    12.9397  13.0397  13.1018  14.0171

     Writing all to output data dir /home/gregb26/links/scratch/qe_tmp/em2_bands_27/defect_uc_dense_27.save/ :
     XML data file, pseudopotentials, collected wavefunctions

     init_run     :      0.37s CPU      0.41s WALL (       1 calls)
     electrons    :     12.91s CPU     13.79s WALL (       1 calls)

     Called by init_run:
     wfcinit      :      0.00s CPU      0.00s WALL (       1 calls)
     potinit      :      0.01s CPU      0.03s WALL (       1 calls)
     hinit0       :      0.34s CPU      0.36s WALL (       1 calls)

     Called by electrons:
     c_bands      :     12.91s CPU     13.77s WALL (       1 calls)
     v_of_rho     :      0.01s CPU      0.02s WALL (       1 calls)

     Called by c_bands:
     init_us_2    :      0.00s CPU      0.00s WALL (      21 calls)
     cegterg      :     11.33s CPU     12.12s WALL (     119 calls)

     Called by *egterg:
     cdiaghg      :      1.18s CPU      1.23s WALL (    2270 calls)
     h_psi        :      8.42s CPU      9.14s WALL (    2389 calls)
     g_psi        :      0.04s CPU      0.04s WALL (    2249 calls)

     Called by h_psi:
     h_psi:calbec :      0.41s CPU      0.44s WALL (    2389 calls)
     vloc_psi     :      7.89s CPU      8.56s WALL (    2389 calls)
                                        0.00s GPU  (    2389 calls)
     add_vuspsi   :      0.09s CPU      0.10s WALL (    2389 calls)

     General routines
     calbec       :      0.40s CPU      0.44s WALL (    2389 calls)
     fft          :      0.34s CPU      0.37s WALL (      11 calls)
     fftw         :      7.46s CPU      8.09s WALL (   50382 calls)
     davcio       :      0.01s CPU      0.02s WALL (      42 calls)

     Parallel routines

     PWSCF        :     14.51s CPU     15.60s WALL


   This run was terminated on:  12:56:18  29Sep2026            

=------------------------------------------------------------------------------=
   JOB DONE.
=------------------------------------------------------------------------------=
