
     Program PWSCF v.7.5 starts on 22Sep2026 at 12:52:34 

     This program is part of the open-source Quantum ESPRESSO suite
     for quantum simulation of materials; please cite
         "P. Giannozzi et al., J. Phys.:Condens. Matter 21 395502 (2009);
         "P. Giannozzi et al., J. Phys.:Condens. Matter 29 465901 (2017);
         "P. Giannozzi et al., J. Chem. Phys. 152 154105 (2020);
          URL http://www.quantum-espresso.org", 
     in publications or presentations arising from this work. More details at
     http://www.quantum-espresso.org/quote

     Parallel version (MPI & OpenMP), running on      64 processor cores
     Number of MPI processes:                64
     Threads/MPI process:                     1

     MPI processes distributed on     5 nodes
     635262 MiB available memory on the printing compute node when the environment starts

     Waiting for input...
     Reading input from standard input

     Current dimensions of program PWSCF are:
     Max number of different atomic species (ntypx) = 10
     Max number of k-points (npk) =  40000
     Max angular momentum in pseudopotentials (lmaxx) =  4

     R & G space division:  proc/nbgrp/npool/nimage =      64
     Subspace diagonalization in iterative solution of the eigenvalue problem:
     one sub-group per band group will be used
     ELPA distributed-memory algorithm (size of sub-group:  4*  4 procs)


     Parallelization info
     --------------------
     sticks:   dense  smooth     PW     G-vecs:    dense   smooth      PW
     Min         757     757    193                96449    96449   12421
     Max         758     758    194                96454    96454   12426
     Sum       48511   48511  12355              6173045  6173045  795019

     Using Slab Decomposition



     bravais-lattice index     =            0
     lattice parameter (alat)  =      41.9381  a.u.
     unit-cell volume          =   45694.9917 (a.u.)^3
     number of atoms/cell      =          161
     number of atomic types    =            2
     number of electrons       =       644.00
     number of Kohn-Sham states=          352
     kinetic-energy cutoff     =     100.0000  Ry
     charge density cutoff     =     400.0000  Ry
     scf convergence threshold =      1.0E-10
     mixing beta               =       0.3000
     number of iterations used =            8  plain     mixing
     Exchange-correlation= PBE
                           (   1   4   3   4   0   0   0)

     celldm(1)=  41.938062  celldm(2)=   0.000000  celldm(3)=   0.000000
     celldm(4)=   0.000000  celldm(5)=   0.000000  celldm(6)=   0.000000

     crystal axes: (cart. coord. in units of alat)
               a(1) = (   0.866025  -0.500000   0.000000 )  
               a(2) = (   0.866025   0.500000   0.000000 )  
               a(3) = (   0.000000   0.000000   0.715341 )  

     reciprocal axes: (cart. coord. in units 2 pi/alat)
               b(1) = (  0.577350 -1.000000  0.000000 )  
               b(2) = (  0.577350  1.000000 -0.000000 )  
               b(3) = ( -0.000000  0.000000  1.397935 )  


     PseudoPot. # 1 for C  read from file:
     /home/gregb26/links/projects/rrg-cotemich-ac/gregb26/abinit_processing/pseudo/C.upf
     MD5 check sum: 34a24e64c0a39f27c6c36b90a16ac686
     Pseudo is Norm-conserving + core correction, Zval =  4.0
     Generated using ONCVPSP code by D. R. Hamann
     Using radial grid of 1248 points,  4 beta functions with: 
                l(1) =   0
                l(2) =   0
                l(3) =   1
                l(4) =   1

     PseudoPot. # 2 for C  read from file:
     /home/gregb26/links/projects/rrg-cotemich-ac/gregb26/abinit_processing/pseudo/C.upf
     MD5 check sum: 34a24e64c0a39f27c6c36b90a16ac686
     Pseudo is Norm-conserving + core correction, Zval =  4.0
     Generated using ONCVPSP code by D. R. Hamann
     Using radial grid of 1248 points,  4 beta functions with: 
                l(1) =   0
                l(2) =   0
                l(3) =   1
                l(4) =   1

     atomic species   valence    mass     pseudopotential
     C                 4.00    12.01100     C ( 1.00)
     C1                4.00    12.01100     C ( 1.00)

     Starting magnetic structure 
     atomic species   magnetization
     C               0.000
     C1              0.500

     No symmetry found



   Cartesian axes

     site n.     atom                  positions (alat units)
         1        C      tau(   1) = (   0.0641500  -0.0000000   0.0000000  )
         2        C      tau(   2) = (   0.1283001  -0.0000000   0.0000000  )
         3        C      tau(   3) = (   0.1603751   0.0555556   0.0000000  )
         4        C      tau(   4) = (   0.2245251   0.0555556   0.0000000  )
         5        C      tau(   5) = (   0.2566001   0.1111111   0.0000000  )
         6        C      tau(   6) = (   0.3207501   0.1111111   0.0000000  )
         7        C      tau(   7) = (   0.3528252   0.1666667   0.0000000  )
         8        C      tau(   8) = (   0.4169752   0.1666667   0.0000000  )
         9        C      tau(   9) = (   0.4490502   0.2222222   0.0000000  )
        10        C      tau(  10) = (   0.5132002   0.2222222   0.0000000  )
        11        C      tau(  11) = (   0.5452753   0.2777778   0.0000000  )
        12        C      tau(  12) = (   0.6094253   0.2777778   0.0000000  )
        13        C      tau(  13) = (   0.6415003   0.3333333   0.0000000  )
        14        C      tau(  14) = (   0.7056503   0.3333333   0.0000000  )
        15        C      tau(  15) = (   0.7377253   0.3888889   0.0000000  )
        16        C      tau(  16) = (   0.8018754   0.3888889   0.0000000  )
        17        C      tau(  17) = (   0.8339504   0.4444444   0.0000000  )
        18        C      tau(  18) = (   0.8981004   0.4444444   0.0000000  )
        19        C      tau(  19) = (   0.1603751  -0.0555556   0.0000000  )
        20        C      tau(  20) = (   0.2245251  -0.0555556   0.0000000  )
        21        C      tau(  21) = (   0.2566001  -0.0000000   0.0000000  )
        22        C      tau(  22) = (   0.3207501   0.0000000   0.0000000  )
        23        C      tau(  23) = (   0.3528252   0.0555556   0.0000000  )
        24        C      tau(  24) = (   0.4169752   0.0555556   0.0000000  )
        25        C      tau(  25) = (   0.4490502   0.1111111   0.0000000  )
        26        C      tau(  26) = (   0.5132002   0.1111111   0.0000000  )
        27        C      tau(  27) = (   0.5452753   0.1666667   0.0000000  )
        28        C      tau(  28) = (   0.6094253   0.1666667   0.0000000  )
        29        C      tau(  29) = (   0.6415003   0.2222222   0.0000000  )
        30        C      tau(  30) = (   0.7056503   0.2222222   0.0000000  )
        31        C      tau(  31) = (   0.7377253   0.2777778   0.0000000  )
        32        C      tau(  32) = (   0.8018754   0.2777778   0.0000000  )
        33        C      tau(  33) = (   0.8339504   0.3333333   0.0000000  )
        34        C      tau(  34) = (   0.8981004   0.3333333   0.0000000  )
        35        C      tau(  35) = (   0.9301754   0.3888889   0.0000000  )
        36        C      tau(  36) = (   0.9943255   0.3888889   0.0000000  )
        37        C      tau(  37) = (   0.2566001  -0.1111111   0.0000000  )
        38        C      tau(  38) = (   0.3207501  -0.1111111   0.0000000  )
        39        C      tau(  39) = (   0.3528252  -0.0555556   0.0000000  )
        40        C      tau(  40) = (   0.4169752  -0.0555556   0.0000000  )
        41        C      tau(  41) = (   0.4490502  -0.0000000   0.0000000  )
        42        C      tau(  42) = (   0.5132002  -0.0000000   0.0000000  )
        43        C      tau(  43) = (   0.5452753   0.0555556   0.0000000  )
        44        C      tau(  44) = (   0.6094253   0.0555556   0.0000000  )
        45        C      tau(  45) = (   0.6415003   0.1111111   0.0000000  )
        46        C      tau(  46) = (   0.7056503   0.1111111   0.0000000  )
        47        C      tau(  47) = (   0.7377253   0.1666667   0.0000000  )
        48        C      tau(  48) = (   0.8018754   0.1666667   0.0000000  )
        49        C      tau(  49) = (   0.8339504   0.2222222   0.0000000  )
        50        C      tau(  50) = (   0.8981004   0.2222222   0.0000000  )
        51        C      tau(  51) = (   0.9301754   0.2777778   0.0000000  )
        52        C      tau(  52) = (   0.9943255   0.2777778   0.0000000  )
        53        C      tau(  53) = (   1.0264005   0.3333333   0.0000000  )
        54        C      tau(  54) = (   1.0905505   0.3333333   0.0000000  )
        55        C      tau(  55) = (   0.3528252  -0.1666667   0.0000000  )
        56        C      tau(  56) = (   0.4169752  -0.1666667   0.0000000  )
        57        C      tau(  57) = (   0.4490502  -0.1111111   0.0000000  )
        58        C      tau(  58) = (   0.5132002  -0.1111111   0.0000000  )
        59        C      tau(  59) = (   0.5452753  -0.0555556   0.0000000  )
        60        C      tau(  60) = (   0.6094253  -0.0555556   0.0000000  )
        61        C      tau(  61) = (   0.6415003   0.0000000   0.0000000  )
        62        C      tau(  62) = (   0.7056503  -0.0000000   0.0000000  )
        63        C      tau(  63) = (   0.7377253   0.0555556   0.0000000  )
        64        C1     tau(  64) = (   0.8018754   0.0555556   0.0000000  )
        65        C      tau(  65) = (   0.8339504   0.1111111   0.0000000  )
        66        C      tau(  66) = (   0.8981004   0.1111111   0.0000000  )
        67        C      tau(  67) = (   0.9301754   0.1666667   0.0000000  )
        68        C      tau(  68) = (   0.9943255   0.1666667   0.0000000  )
        69        C      tau(  69) = (   1.0264005   0.2222222   0.0000000  )
        70        C      tau(  70) = (   1.0905505   0.2222222   0.0000000  )
        71        C      tau(  71) = (   1.1226255   0.2777778   0.0000000  )
        72        C      tau(  72) = (   1.1867756   0.2777778   0.0000000  )
        73        C      tau(  73) = (   0.4490502  -0.2222222   0.0000000  )
        74        C      tau(  74) = (   0.5132002  -0.2222222   0.0000000  )
        75        C      tau(  75) = (   0.5452753  -0.1666667   0.0000000  )
        76        C      tau(  76) = (   0.6094253  -0.1666667   0.0000000  )
        77        C      tau(  77) = (   0.6415003  -0.1111111   0.0000000  )
        78        C      tau(  78) = (   0.7056503  -0.1111111   0.0000000  )
        79        C      tau(  79) = (   0.7377253  -0.0555556   0.0000000  )
        80        C1     tau(  80) = (   0.8018754  -0.0555556   0.0000000  )
        81        C1     tau(  81) = (   0.8981004  -0.0000000   0.0000000  )
        82        C      tau(  82) = (   0.9301754   0.0555556   0.0000000  )
        83        C      tau(  83) = (   0.9943255   0.0555556   0.0000000  )
        84        C      tau(  84) = (   1.0264005   0.1111111   0.0000000  )
        85        C      tau(  85) = (   1.0905505   0.1111111   0.0000000  )
        86        C      tau(  86) = (   1.1226255   0.1666667   0.0000000  )
        87        C      tau(  87) = (   1.1867756   0.1666667   0.0000000  )
        88        C      tau(  88) = (   1.2188506   0.2222222   0.0000000  )
        89        C      tau(  89) = (   1.2830006   0.2222222   0.0000000  )
        90        C      tau(  90) = (   0.5452753  -0.2777778   0.0000000  )
        91        C      tau(  91) = (   0.6094253  -0.2777778   0.0000000  )
        92        C      tau(  92) = (   0.6415003  -0.2222222   0.0000000  )
        93        C      tau(  93) = (   0.7056503  -0.2222222   0.0000000  )
        94        C      tau(  94) = (   0.7377253  -0.1666667   0.0000000  )
        95        C      tau(  95) = (   0.8018754  -0.1666667   0.0000000  )
        96        C      tau(  96) = (   0.8339504  -0.1111111   0.0000000  )
        97        C      tau(  97) = (   0.8981004  -0.1111111   0.0000000  )
        98        C      tau(  98) = (   0.9301754  -0.0555556   0.0000000  )
        99        C      tau(  99) = (   0.9943255  -0.0555556   0.0000000  )
       100        C      tau( 100) = (   1.0264005  -0.0000000   0.0000000  )
       101        C      tau( 101) = (   1.0905505  -0.0000000   0.0000000  )
       102        C      tau( 102) = (   1.1226255   0.0555556   0.0000000  )
       103        C      tau( 103) = (   1.1867756   0.0555556   0.0000000  )
       104        C      tau( 104) = (   1.2188506   0.1111111   0.0000000  )
       105        C      tau( 105) = (   1.2830006   0.1111111   0.0000000  )
       106        C      tau( 106) = (   1.3150756   0.1666667   0.0000000  )
       107        C      tau( 107) = (   1.3792256   0.1666667   0.0000000  )
       108        C      tau( 108) = (   0.6415003  -0.3333333   0.0000000  )
       109        C      tau( 109) = (   0.7056503  -0.3333333   0.0000000  )
       110        C      tau( 110) = (   0.7377253  -0.2777778   0.0000000  )
       111        C      tau( 111) = (   0.8018754  -0.2777778   0.0000000  )
       112        C      tau( 112) = (   0.8339504  -0.2222222   0.0000000  )
       113        C      tau( 113) = (   0.8981004  -0.2222222   0.0000000  )
       114        C      tau( 114) = (   0.9301754  -0.1666667   0.0000000  )
       115        C      tau( 115) = (   0.9943255  -0.1666667   0.0000000  )
       116        C      tau( 116) = (   1.0264005  -0.1111111   0.0000000  )
       117        C      tau( 117) = (   1.0905505  -0.1111111   0.0000000  )
       118        C      tau( 118) = (   1.1226255  -0.0555556   0.0000000  )
       119        C      tau( 119) = (   1.1867756  -0.0555556   0.0000000  )
       120        C      tau( 120) = (   1.2188506  -0.0000000   0.0000000  )
       121        C      tau( 121) = (   1.2830006   0.0000000   0.0000000  )
       122        C      tau( 122) = (   1.3150756   0.0555556   0.0000000  )
       123        C      tau( 123) = (   1.3792256   0.0555556   0.0000000  )
       124        C      tau( 124) = (   1.4113007   0.1111111   0.0000000  )
       125        C      tau( 125) = (   1.4754507   0.1111111   0.0000000  )
       126        C      tau( 126) = (   0.7377253  -0.3888889   0.0000000  )
       127        C      tau( 127) = (   0.8018754  -0.3888889   0.0000000  )
       128        C      tau( 128) = (   0.8339504  -0.3333333   0.0000000  )
       129        C      tau( 129) = (   0.8981004  -0.3333333   0.0000000  )
       130        C      tau( 130) = (   0.9301754  -0.2777778   0.0000000  )
       131        C      tau( 131) = (   0.9943255  -0.2777778   0.0000000  )
       132        C      tau( 132) = (   1.0264005  -0.2222222   0.0000000  )
       133        C      tau( 133) = (   1.0905505  -0.2222222   0.0000000  )
       134        C      tau( 134) = (   1.1226255  -0.1666667   0.0000000  )
       135        C      tau( 135) = (   1.1867756  -0.1666667   0.0000000  )
       136        C      tau( 136) = (   1.2188506  -0.1111111   0.0000000  )
       137        C      tau( 137) = (   1.2830006  -0.1111111   0.0000000  )
       138        C      tau( 138) = (   1.3150756  -0.0555556   0.0000000  )
       139        C      tau( 139) = (   1.3792256  -0.0555556   0.0000000  )
       140        C      tau( 140) = (   1.4113007  -0.0000000   0.0000000  )
       141        C      tau( 141) = (   1.4754507   0.0000000   0.0000000  )
       142        C      tau( 142) = (   1.5075257   0.0555556   0.0000000  )
       143        C      tau( 143) = (   1.5716757   0.0555556   0.0000000  )
       144        C      tau( 144) = (   0.8339504  -0.4444444   0.0000000  )
       145        C      tau( 145) = (   0.8981004  -0.4444444   0.0000000  )
       146        C      tau( 146) = (   0.9301754  -0.3888889   0.0000000  )
       147        C      tau( 147) = (   0.9943255  -0.3888889   0.0000000  )
       148        C      tau( 148) = (   1.0264005  -0.3333333   0.0000000  )
       149        C      tau( 149) = (   1.0905505  -0.3333333   0.0000000  )
       150        C      tau( 150) = (   1.1226255  -0.2777778   0.0000000  )
       151        C      tau( 151) = (   1.1867756  -0.2777778   0.0000000  )
       152        C      tau( 152) = (   1.2188506  -0.2222222   0.0000000  )
       153        C      tau( 153) = (   1.2830006  -0.2222222   0.0000000  )
       154        C      tau( 154) = (   1.3150756  -0.1666667   0.0000000  )
       155        C      tau( 155) = (   1.3792256  -0.1666667   0.0000000  )
       156        C      tau( 156) = (   1.4113007  -0.1111111   0.0000000  )
       157        C      tau( 157) = (   1.4754507  -0.1111111   0.0000000  )
       158        C      tau( 158) = (   1.5075257  -0.0555556   0.0000000  )
       159        C      tau( 159) = (   1.5716757  -0.0555556   0.0000000  )
       160        C      tau( 160) = (   1.6037507   0.0000000   0.0000000  )
       161        C      tau( 161) = (   1.6679008  -0.0000000   0.0000000  )

     number of k points=     9  Marzari-Vanderbilt smearing, width (Ry)=  0.0100
                       cart. coord. in units 2pi/alat
        k(    1) = (   0.0000000   0.0000000   0.0000000), wk =   0.1111111
        k(    2) = (   0.1924501   0.3333333   0.0000000), wk =   0.1111111
        k(    3) = (  -0.1924501  -0.3333333   0.0000000), wk =   0.1111111
        k(    4) = (   0.1924501  -0.3333333   0.0000000), wk =   0.1111111
        k(    5) = (   0.3849002  -0.0000000   0.0000000), wk =   0.1111111
        k(    6) = (  -0.0000000  -0.6666667   0.0000000), wk =   0.1111111
        k(    7) = (  -0.1924501   0.3333333   0.0000000), wk =   0.1111111
        k(    8) = (  -0.0000000   0.6666667   0.0000000), wk =   0.1111111
        k(    9) = (  -0.3849002   0.0000000   0.0000000), wk =   0.1111111

     Dense  grid:  6173045 G-vectors     FFT dimensions: ( 270, 270, 192)

     Estimated max dynamical RAM per process >       1.79 GB

     Estimated total dynamical RAM >     114.46 GB
 ----2D----2D----2D----2D----2D----2D----2D----2D----2D----2D----2D----2D
  The code is running with the 2D cutoff
  Please refer to:
  Sohier, T., Calandra, M., & Mauri, F. (2017), 
  Density functional perturbation theory for gated two-dimensional heterostructures:
  Theoretical developments and application to flexural phonons in graphene.
  Physical Review B, 96(7), 75448. https://doi.org/10.1103/PhysRevB.96.075448
 ----2D----2D----2D----2D----2D----2D----2D----2D----2D----2D----2D----2D
     Generating pointlists ...
     new r_m :   0.0265 (alat units)  1.1098 (a.u.) for type    1
     new r_m :   0.0265 (alat units)  1.1098 (a.u.) for type    2

     Initial potential from superposition of free atoms

     starting charge     643.9928, renormalised to     644.0000

     negative rho (up, down):  6.195E-05 6.081E-05
     Starting wfcs are  644 randomized atomic wfcs

     total cpu time spent up to now is      202.8 secs

     per-process dynamical memory:  1692.5 Mb

     Self-consistent Calculation

     iteration #  1     ecut=   100.00 Ry     beta= 0.30
     Davidson diagonalization with overlap
     ethr =  1.00E-02,  avg # of iterations =  2.0

     negative rho (up, down):  2.054E-07 1.996E-07

     total cpu time spent up to now is      589.2 secs

     total energy              =   -1940.86992577 Ry
     estimated scf accuracy    <      13.55222308 Ry

     total magnetization       =     2.29 Bohr mag/cell
     absolute magnetization    =     3.55 Bohr mag/cell

     iteration #  2     ecut=   100.00 Ry     beta= 0.30
     Davidson diagonalization with overlap
     ethr =  2.10E-03,  avg # of iterations =  1.0

     total cpu time spent up to now is      835.9 secs

     total energy              =   -1937.71480464 Ry
     estimated scf accuracy    <       5.90024200 Ry

     total magnetization       =     2.24 Bohr mag/cell
     absolute magnetization    =     3.50 Bohr mag/cell

     iteration #  3     ecut=   100.00 Ry     beta= 0.30
     Davidson diagonalization with overlap
     ethr =  9.16E-04,  avg # of iterations =  2.0

     total cpu time spent up to now is     1212.6 secs

     total energy              =   -1939.11872487 Ry
     estimated scf accuracy    <       0.81096874 Ry

     total magnetization       =     2.35 Bohr mag/cell
     absolute magnetization    =     3.62 Bohr mag/cell

     iteration #  4     ecut=   100.00 Ry     beta= 0.30
     Davidson diagonalization with overlap
     ethr =  1.26E-04,  avg # of iterations =  1.7

     negative rho (up, down):  1.261E-08 1.042E-08

     total cpu time spent up to now is     1473.1 secs

     total energy              =   -1939.03188336 Ry
     estimated scf accuracy    <       0.33187033 Ry

     total magnetization       =     1.45 Bohr mag/cell
     absolute magnetization    =     2.74 Bohr mag/cell

     iteration #  5     ecut=   100.00 Ry     beta= 0.30
     Davidson diagonalization with overlap
     ethr =  5.15E-05,  avg # of iterations =  3.3

     total cpu time spent up to now is     1798.2 secs

     total energy              =   -1939.09825557 Ry
     estimated scf accuracy    <       0.04850427 Ry

     total magnetization       =     2.15 Bohr mag/cell
     absolute magnetization    =     3.25 Bohr mag/cell

     iteration #  6     ecut=   100.00 Ry     beta= 0.30
     Davidson diagonalization with overlap
     ethr =  7.53E-06,  avg # of iterations =  8.2

     total cpu time spent up to now is     2211.7 secs

     total energy              =   -1939.09772218 Ry
     estimated scf accuracy    <       0.08845782 Ry

     total magnetization       =     1.17 Bohr mag/cell
     absolute magnetization    =     2.39 Bohr mag/cell

     iteration #  7     ecut=   100.00 Ry     beta= 0.30
     Davidson diagonalization with overlap
     ethr =  7.53E-06,  avg # of iterations =  3.9

     total cpu time spent up to now is     2617.9 secs

     total energy              =   -1939.10678802 Ry
     estimated scf accuracy    <       0.02139482 Ry

     total magnetization       =     1.62 Bohr mag/cell
     absolute magnetization    =     2.74 Bohr mag/cell

     iteration #  8     ecut=   100.00 Ry     beta= 0.30
     Davidson diagonalization with overlap
     ethr =  3.32E-06,  avg # of iterations =  4.1

     negative rho (up, down):  2.909E-08 4.980E-10

     total cpu time spent up to now is     2916.7 secs

     total energy              =   -1939.10306366 Ry
     estimated scf accuracy    <       0.01504177 Ry

     total magnetization       =     1.64 Bohr mag/cell
     absolute magnetization    =     2.73 Bohr mag/cell

     iteration #  9     ecut=   100.00 Ry     beta= 0.30
     Davidson diagonalization with overlap
     ethr =  2.34E-06,  avg # of iterations =  5.1

     total cpu time spent up to now is     3313.3 secs

     total energy              =   -1939.10502490 Ry
     estimated scf accuracy    <       0.01147448 Ry

     total magnetization       =     1.47 Bohr mag/cell
     absolute magnetization    =     2.57 Bohr mag/cell

     iteration # 10     ecut=   100.00 Ry     beta= 0.30
     Davidson diagonalization with overlap
     ethr =  1.78E-06,  avg # of iterations =  3.1

     negative rho (up, down):  1.177E-07 5.483E-08

     total cpu time spent up to now is     3601.3 secs

     total energy              =   -1939.10613493 Ry
     estimated scf accuracy    <       0.00232795 Ry

     total magnetization       =     1.49 Bohr mag/cell
     absolute magnetization    =     2.55 Bohr mag/cell

     iteration # 11     ecut=   100.00 Ry     beta= 0.30
     Davidson diagonalization with overlap
     ethr =  3.61E-07,  avg # of iterations =  5.6

     negative rho (up, down):  6.245E-07 3.625E-07

     total cpu time spent up to now is     3898.3 secs

     total energy              =   -1939.10663571 Ry
     estimated scf accuracy    <       0.00141769 Ry

     total magnetization       =     1.47 Bohr mag/cell
     absolute magnetization    =     2.50 Bohr mag/cell

     iteration # 12     ecut=   100.00 Ry     beta= 0.30
     Davidson diagonalization with overlap
     ethr =  2.20E-07,  avg # of iterations =  4.4

     negative rho (up, down):  1.588E-05 1.553E-05

     total cpu time spent up to now is     4215.8 secs

     total energy              =   -1939.10689416 Ry
     estimated scf accuracy    <       0.00166622 Ry

     total magnetization       =     1.41 Bohr mag/cell
     absolute magnetization    =     2.39 Bohr mag/cell

     iteration # 13     ecut=   100.00 Ry     beta= 0.30
     Davidson diagonalization with overlap
     ethr =  2.20E-07,  avg # of iterations =  7.6

     negative rho (up, down):  1.515E-05 1.557E-05

     total cpu time spent up to now is     4622.9 secs

     total energy              =   -1939.10753235 Ry
     estimated scf accuracy    <       0.00074169 Ry

     total magnetization       =     1.25 Bohr mag/cell
     absolute magnetization    =     2.12 Bohr mag/cell

     iteration # 14     ecut=   100.00 Ry     beta= 0.30
     Davidson diagonalization with overlap
     ethr =  1.15E-07,  avg # of iterations =  3.5

     negative rho (up, down):  1.340E-05 1.409E-05

     total cpu time spent up to now is     4933.8 secs

     total energy              =   -1939.10768563 Ry
     estimated scf accuracy    <       0.00012614 Ry

     total magnetization       =     1.21 Bohr mag/cell
     absolute magnetization    =     2.01 Bohr mag/cell

     iteration # 15     ecut=   100.00 Ry     beta= 0.30
     Davidson diagonalization with overlap
     ethr =  1.96E-08,  avg # of iterations =  5.4

     negative rho (up, down):  2.914E-06 3.097E-06

     total cpu time spent up to now is     5283.7 secs

     total energy              =   -1939.10775484 Ry
     estimated scf accuracy    <       0.00001466 Ry

     total magnetization       =     1.19 Bohr mag/cell
     absolute magnetization    =     1.93 Bohr mag/cell

     iteration # 16     ecut=   100.00 Ry     beta= 0.30
     Davidson diagonalization with overlap
     ethr =  2.28E-09,  avg # of iterations =  5.4

     negative rho (up, down):  2.313E-07 4.346E-07

     total cpu time spent up to now is     5652.2 secs

     total energy              =   -1939.10776205 Ry
     estimated scf accuracy    <       0.00001588 Ry

     total magnetization       =     1.19 Bohr mag/cell
     absolute magnetization    =     1.90 Bohr mag/cell

     iteration # 17     ecut=   100.00 Ry     beta= 0.30
     Davidson diagonalization with overlap
     ethr =  2.28E-09,  avg # of iterations =  6.9

     total cpu time spent up to now is     6120.0 secs

     total energy              =   -1939.10779652 Ry
     estimated scf accuracy    <       0.00000780 Ry

     total magnetization       =     1.14 Bohr mag/cell
     absolute magnetization    =     1.80 Bohr mag/cell

     iteration # 18     ecut=   100.00 Ry     beta= 0.30
     Davidson diagonalization with overlap
     ethr =  1.21E-09,  avg # of iterations =  5.8

     total cpu time spent up to now is     6581.8 secs

     total energy              =   -1939.10780746 Ry
     estimated scf accuracy    <       0.00000187 Ry

     total magnetization       =     1.12 Bohr mag/cell
     absolute magnetization    =     1.73 Bohr mag/cell

     iteration # 19     ecut=   100.00 Ry     beta= 0.30
     Davidson diagonalization with overlap
     ethr =  2.91E-10,  avg # of iterations =  5.5

     total cpu time spent up to now is     7031.2 secs

     total energy              =   -1939.10780917 Ry
     estimated scf accuracy    <       0.00000189 Ry

     total magnetization       =     1.12 Bohr mag/cell
     absolute magnetization    =     1.71 Bohr mag/cell

     iteration # 20     ecut=   100.00 Ry     beta= 0.30
     Davidson diagonalization with overlap
     ethr =  2.91E-10,  avg # of iterations =  3.1

     total cpu time spent up to now is     7306.8 secs

     total energy              =   -1939.10781051 Ry
     estimated scf accuracy    <       0.00000072 Ry

     total magnetization       =     1.12 Bohr mag/cell
     absolute magnetization    =     1.70 Bohr mag/cell

     iteration # 21     ecut=   100.00 Ry     beta= 0.30
     Davidson diagonalization with overlap
     ethr =  1.11E-10,  avg # of iterations =  6.0

     total cpu time spent up to now is     7793.7 secs

     total energy              =   -1939.10781245 Ry
     estimated scf accuracy    <       0.00000027 Ry

     total magnetization       =     1.11 Bohr mag/cell
     absolute magnetization    =     1.67 Bohr mag/cell

     iteration # 22     ecut=   100.00 Ry     beta= 0.30
     Davidson diagonalization with overlap
     ethr =  4.22E-11,  avg # of iterations =  6.0

     negative rho (up, down):  2.454E-08 1.749E-08

     total cpu time spent up to now is     8322.7 secs

     total energy              =   -1939.10781329 Ry
     estimated scf accuracy    <       0.00000068 Ry

     total magnetization       =     1.11 Bohr mag/cell
     absolute magnetization    =     1.64 Bohr mag/cell

     iteration # 23     ecut=   100.00 Ry     beta= 0.30
     Davidson diagonalization with overlap
     ethr =  4.22E-11,  avg # of iterations =  6.0

     negative rho (up, down):  1.975E-07 1.836E-07

     total cpu time spent up to now is     8744.3 secs

     total energy              =   -1939.10781369 Ry
     estimated scf accuracy    <       0.00000011 Ry

     total magnetization       =     1.11 Bohr mag/cell
     absolute magnetization    =     1.63 Bohr mag/cell

     iteration # 24     ecut=   100.00 Ry     beta= 0.30
     Davidson diagonalization with overlap
     ethr =  1.75E-11,  avg # of iterations =  5.4

     negative rho (up, down):  2.071E-07 2.054E-07

     total cpu time spent up to now is     9201.6 secs

     total energy              =   -1939.10781387 Ry
     estimated scf accuracy    <       0.00000003 Ry

     total magnetization       =     1.10 Bohr mag/cell
     absolute magnetization    =     1.62 Bohr mag/cell

     iteration # 25     ecut=   100.00 Ry     beta= 0.30
     Davidson diagonalization with overlap
     ethr =  4.41E-12,  avg # of iterations =  5.1

     negative rho (up, down):  1.554E-07 1.533E-07

     total cpu time spent up to now is     9667.6 secs

     total energy              =   -1939.10781392 Ry
     estimated scf accuracy    <       0.00000002 Ry

     total magnetization       =     1.10 Bohr mag/cell
     absolute magnetization    =     1.61 Bohr mag/cell

     iteration # 26     ecut=   100.00 Ry     beta= 0.30
     Davidson diagonalization with overlap
     ethr =  2.79E-12,  avg # of iterations =  6.0

     negative rho (up, down):  6.018E-08 6.039E-08

     total cpu time spent up to now is    10134.2 secs

     total energy              =   -1939.10781396 Ry
     estimated scf accuracy    <          8.6E-09 Ry

     total magnetization       =     1.10 Bohr mag/cell
     absolute magnetization    =     1.60 Bohr mag/cell

     iteration # 27     ecut=   100.00 Ry     beta= 0.30
     Davidson diagonalization with overlap
     ethr =  1.33E-12,  avg # of iterations =  5.9

     total cpu time spent up to now is    10622.4 secs

     total energy              =   -1939.10781398 Ry
     estimated scf accuracy    <       0.00000001 Ry

     total magnetization       =     1.10 Bohr mag/cell
     absolute magnetization    =     1.60 Bohr mag/cell

     iteration # 28     ecut=   100.00 Ry     beta= 0.30
     Davidson diagonalization with overlap
     ethr =  1.33E-12,  avg # of iterations =  4.1

     total cpu time spent up to now is    10985.5 secs

     total energy              =   -1939.10781399 Ry
     estimated scf accuracy    <          6.1E-09 Ry

     total magnetization       =     1.10 Bohr mag/cell
     absolute magnetization    =     1.60 Bohr mag/cell

     iteration # 29     ecut=   100.00 Ry     beta= 0.30
     Davidson diagonalization with overlap
     ethr =  9.52E-13,  avg # of iterations =  4.4

     total cpu time spent up to now is    11308.7 secs

     total energy              =   -1939.10781399 Ry
     estimated scf accuracy    <          5.8E-09 Ry

     total magnetization       =     1.10 Bohr mag/cell
     absolute magnetization    =     1.60 Bohr mag/cell

     iteration # 30     ecut=   100.00 Ry     beta= 0.30
     Davidson diagonalization with overlap
     ethr =  9.04E-13,  avg # of iterations =  5.9

     total cpu time spent up to now is    11741.1 secs

     total energy              =   -1939.10781399 Ry
     estimated scf accuracy    <          3.7E-09 Ry

     total magnetization       =     1.10 Bohr mag/cell
     absolute magnetization    =     1.60 Bohr mag/cell

     iteration # 31     ecut=   100.00 Ry     beta= 0.30
     Davidson diagonalization with overlap
     ethr =  5.77E-13,  avg # of iterations =  4.9

     total cpu time spent up to now is    12013.4 secs

     total energy              =   -1939.10781400 Ry
     estimated scf accuracy    <          6.2E-09 Ry

     total magnetization       =     1.10 Bohr mag/cell
     absolute magnetization    =     1.60 Bohr mag/cell

     iteration # 32     ecut=   100.00 Ry     beta= 0.30
     Davidson diagonalization with overlap
     ethr =  5.77E-13,  avg # of iterations =  3.5

     total cpu time spent up to now is    12278.8 secs

     total energy              =   -1939.10781400 Ry
     estimated scf accuracy    <          6.1E-09 Ry

     total magnetization       =     1.10 Bohr mag/cell
     absolute magnetization    =     1.60 Bohr mag/cell

     iteration # 33     ecut=   100.00 Ry     beta= 0.30
     Davidson diagonalization with overlap
     ethr =  5.77E-13,  avg # of iterations =  3.5

     total cpu time spent up to now is    12541.7 secs

     total energy              =   -1939.10781400 Ry
     estimated scf accuracy    <          5.8E-09 Ry

     total magnetization       =     1.10 Bohr mag/cell
     absolute magnetization    =     1.60 Bohr mag/cell

     iteration # 34     ecut=   100.00 Ry     beta= 0.30
     Davidson diagonalization with overlap
     ethr =  5.77E-13,  avg # of iterations =  3.4

     total cpu time spent up to now is    12800.5 secs

     total energy              =   -1939.10781400 Ry
     estimated scf accuracy    <          5.6E-09 Ry

     total magnetization       =     1.10 Bohr mag/cell
     absolute magnetization    =     1.60 Bohr mag/cell

     iteration # 35     ecut=   100.00 Ry     beta= 0.30
     Davidson diagonalization with overlap
     ethr =  5.77E-13,  avg # of iterations =  1.0

     total cpu time spent up to now is    13028.4 secs

     total energy              =   -1939.10781400 Ry
     estimated scf accuracy    <          5.5E-09 Ry

     total magnetization       =     1.10 Bohr mag/cell
     absolute magnetization    =     1.60 Bohr mag/cell

     iteration # 36     ecut=   100.00 Ry     beta= 0.30
     Davidson diagonalization with overlap
     ethr =  5.77E-13,  avg # of iterations =  2.0

     total cpu time spent up to now is    13277.4 secs

     total energy              =   -1939.10781400 Ry
     estimated scf accuracy    <          5.8E-09 Ry

     total magnetization       =     1.10 Bohr mag/cell
     absolute magnetization    =     1.60 Bohr mag/cell

     iteration # 37     ecut=   100.00 Ry     beta= 0.30
     Davidson diagonalization with overlap
     ethr =  5.77E-13,  avg # of iterations =  1.0

     total cpu time spent up to now is    13501.6 secs

     total energy              =   -1939.10781400 Ry
     estimated scf accuracy    <          6.1E-09 Ry

     total magnetization       =     1.10 Bohr mag/cell
     absolute magnetization    =     1.60 Bohr mag/cell

     iteration # 38     ecut=   100.00 Ry     beta= 0.30
     Davidson diagonalization with overlap
     ethr =  5.77E-13,  avg # of iterations =  1.0

     total cpu time spent up to now is    13742.3 secs

     total energy              =   -1939.10781400 Ry
     estimated scf accuracy    <          6.1E-09 Ry

     total magnetization       =     1.10 Bohr mag/cell
     absolute magnetization    =     1.60 Bohr mag/cell

     iteration # 39     ecut=   100.00 Ry     beta= 0.30
     Davidson diagonalization with overlap
     ethr =  5.77E-13,  avg # of iterations =  1.5

     total cpu time spent up to now is    13993.7 secs

     total energy              =   -1939.10781400 Ry
     estimated scf accuracy    <          5.9E-09 Ry

     total magnetization       =     1.10 Bohr mag/cell
     absolute magnetization    =     1.60 Bohr mag/cell

     iteration # 40     ecut=   100.00 Ry     beta= 0.30
     Davidson diagonalization with overlap
     ethr =  5.77E-13,  avg # of iterations =  6.3

     total cpu time spent up to now is    14368.0 secs

     total energy              =   -1939.10781399 Ry
     estimated scf accuracy    <          6.1E-09 Ry

     total magnetization       =     1.10 Bohr mag/cell
     absolute magnetization    =     1.60 Bohr mag/cell

     iteration # 41     ecut=   100.00 Ry     beta= 0.30
     Davidson diagonalization with overlap
     ethr =  5.77E-13,  avg # of iterations =  5.5

     total cpu time spent up to now is    14781.9 secs

     total energy              =   -1939.10781400 Ry
     estimated scf accuracy    <          4.4E-09 Ry

     total magnetization       =     1.10 Bohr mag/cell
     absolute magnetization    =     1.60 Bohr mag/cell

     iteration # 42     ecut=   100.00 Ry     beta= 0.30
     Davidson diagonalization with overlap
     ethr =  5.77E-13,  avg # of iterations =  6.1

     total cpu time spent up to now is    15174.5 secs

     total energy              =   -1939.10781399 Ry
     estimated scf accuracy    <          7.2E-09 Ry

     total magnetization       =     1.10 Bohr mag/cell
     absolute magnetization    =     1.60 Bohr mag/cell

     iteration # 43     ecut=   100.00 Ry     beta= 0.30
     Davidson diagonalization with overlap
     ethr =  5.77E-13,  avg # of iterations =  6.1

     total cpu time spent up to now is    15532.6 secs

     total energy              =   -1939.10781396 Ry
     estimated scf accuracy    <          5.1E-09 Ry

     total magnetization       =     1.10 Bohr mag/cell
     absolute magnetization    =     1.60 Bohr mag/cell

     iteration # 44     ecut=   100.00 Ry     beta= 0.30
     Davidson diagonalization with overlap
     ethr =  5.77E-13,  avg # of iterations =  6.5

     total cpu time spent up to now is    15966.2 secs

     total energy              =   -1939.10781397 Ry
     estimated scf accuracy    <          2.0E-09 Ry

     total magnetization       =     1.10 Bohr mag/cell
     absolute magnetization    =     1.60 Bohr mag/cell

     iteration # 45     ecut=   100.00 Ry     beta= 0.30
     Davidson diagonalization with overlap
     ethr =  3.16E-13,  avg # of iterations =  6.3

     total cpu time spent up to now is    16355.1 secs

     total energy              =   -1939.10781397 Ry
     estimated scf accuracy    <          1.2E-09 Ry

     total magnetization       =     1.10 Bohr mag/cell
     absolute magnetization    =     1.60 Bohr mag/cell

     iteration # 46     ecut=   100.00 Ry     beta= 0.30
     Davidson diagonalization with overlap
     ethr =  1.94E-13,  avg # of iterations =  6.1

     total cpu time spent up to now is    16741.3 secs

     total energy              =   -1939.10781398 Ry
     estimated scf accuracy    <          6.0E-10 Ry

     total magnetization       =     1.10 Bohr mag/cell
     absolute magnetization    =     1.60 Bohr mag/cell

     iteration # 47     ecut=   100.00 Ry     beta= 0.30
     Davidson diagonalization with overlap
