
     Program PWSCF v.7.5 starts on 23Sep2026 at  9:28:57 

     This program is part of the open-source Quantum ESPRESSO suite
     for quantum simulation of materials; please cite
         "P. Giannozzi et al., J. Phys.:Condens. Matter 21 395502 (2009);
         "P. Giannozzi et al., J. Phys.:Condens. Matter 29 465901 (2017);
         "P. Giannozzi et al., J. Chem. Phys. 152 154105 (2020);
          URL http://www.quantum-espresso.org", 
     in publications or presentations arising from this work. More details at
     http://www.quantum-espresso.org/quote

     Parallel version (MPI & OpenMP), running on      64 processor cores
     Number of MPI processes:                64
     Threads/MPI process:                     1

     MPI processes distributed on    16 nodes
     442477 MiB available memory on the printing compute node when the environment starts

     Waiting for input...
     Reading input from standard input

     Current dimensions of program PWSCF are:
     Max number of different atomic species (ntypx) = 10
     Max number of k-points (npk) =  40000
     Max angular momentum in pseudopotentials (lmaxx) =  4

     gamma-point specific algorithms are used

     R & G space division:  proc/nbgrp/npool/nimage =      64
     Subspace diagonalization in iterative solution of the eigenvalue problem:
     a serial algorithm will be used


     Parallelization info
     --------------------
     sticks:   dense  smooth     PW     G-vecs:    dense   smooth      PW
     Min         233     233     57                29758    29758    3714
     Max         236     236     60                29770    29770    3726
     Sum       14995   14995   3745              1905089  1905089  238019

     Using Slab Decomposition



     bravais-lattice index     =            0
     lattice parameter (alat)  =      23.2989  a.u.
     unit-cell volume          =   14103.3925 (a.u.)^3
     number of atoms/cell      =           49
     number of atomic types    =            2
     number of electrons       =       196.00
     number of Kohn-Sham states=          130
     kinetic-energy cutoff     =     100.0000  Ry
     charge density cutoff     =     400.0000  Ry
     scf convergence threshold =      1.0E-10
     mixing beta               =       0.3000
     number of iterations used =            8  plain     mixing
     energy convergence thresh.=      1.0E-05
     force convergence thresh. =      1.0E-04
     Exchange-correlation= PBE
                           (   1   4   3   4   0   0   0)
     nstep                     =          200


     celldm(1)=  23.298923  celldm(2)=   0.000000  celldm(3)=   0.000000
     celldm(4)=   0.000000  celldm(5)=   0.000000  celldm(6)=   0.000000

     crystal axes: (cart. coord. in units of alat)
               a(1) = (   0.866025  -0.500000   0.000000 )  
               a(2) = (   0.866025   0.500000   0.000000 )  
               a(3) = (   0.000000   0.000000   1.287613 )  

     reciprocal axes: (cart. coord. in units 2 pi/alat)
               b(1) = (  0.577350 -1.000000  0.000000 )  
               b(2) = (  0.577350  1.000000 -0.000000 )  
               b(3) = ( -0.000000  0.000000  0.776631 )  


     PseudoPot. # 1 for C  read from file:
     /home/gregb26/links/projects/rrg-cotemich-ac/gregb26/abinit_processing/pseudo/C.upf
     MD5 check sum: 34a24e64c0a39f27c6c36b90a16ac686
     Pseudo is Norm-conserving + core correction, Zval =  4.0
     Generated using ONCVPSP code by D. R. Hamann
     Using radial grid of 1248 points,  4 beta functions with: 
                l(1) =   0
                l(2) =   0
                l(3) =   1
                l(4) =   1

     PseudoPot. # 2 for C  read from file:
     /home/gregb26/links/projects/rrg-cotemich-ac/gregb26/abinit_processing/pseudo/C.upf
     MD5 check sum: 34a24e64c0a39f27c6c36b90a16ac686
     Pseudo is Norm-conserving + core correction, Zval =  4.0
     Generated using ONCVPSP code by D. R. Hamann
     Using radial grid of 1248 points,  4 beta functions with: 
                l(1) =   0
                l(2) =   0
                l(3) =   1
                l(4) =   1

     atomic species   valence    mass     pseudopotential
     C                 4.00    12.01100     C ( 1.00)
     C1                4.00    12.01100     C ( 1.00)

     Starting magnetic structure 
     atomic species   magnetization
     C               0.000
     C1              0.500

     No symmetry found



   Cartesian axes

     site n.     atom                  positions (alat units)
         1        C      tau(   1) = (   0.1154701  -0.0000000   0.0000000  )
         2        C      tau(   2) = (   0.2309401  -0.0000000   0.0000000  )
         3        C      tau(   3) = (   0.2886751   0.1000000   0.0000000  )
         4        C      tau(   4) = (   0.4041452   0.1000000   0.0000000  )
         5        C      tau(   5) = (   0.4618802   0.2000000   0.0000000  )
         6        C      tau(   6) = (   0.5773503   0.2000000   0.0000000  )
         7        C      tau(   7) = (   0.6350853   0.3000000   0.0000000  )
         8        C      tau(   8) = (   0.7505553   0.3000000   0.0000000  )
         9        C      tau(   9) = (   0.8082904   0.4000000   0.0000000  )
        10        C      tau(  10) = (   0.9237604   0.4000000   0.0000000  )
        11        C      tau(  11) = (   0.2886751  -0.1000000   0.0000000  )
        12        C      tau(  12) = (   0.4041452  -0.1000000   0.0000000  )
        13        C      tau(  13) = (   0.4618802  -0.0000000   0.0000000  )
        14        C      tau(  14) = (   0.5773503   0.0000000   0.0000000  )
        15        C      tau(  15) = (   0.6350853   0.1000000   0.0000000  )
        16        C1     tau(  16) = (   0.7505553   0.0975668   0.0000000  )
        17        C      tau(  17) = (   0.8082904   0.2000000   0.0000000  )
        18        C      tau(  18) = (   0.9237604   0.2000000   0.0000000  )
        19        C      tau(  19) = (   0.9814955   0.3000000   0.0000000  )
        20        C      tau(  20) = (   1.0969655   0.3000000   0.0000000  )
        21        C      tau(  21) = (   0.4618802  -0.2000000   0.0000000  )
        22        C      tau(  22) = (   0.5773503  -0.2000000   0.0000000  )
        23        C      tau(  23) = (   0.6350853  -0.1000000   0.0000000  )
        24        C1     tau(  24) = (   0.7505553  -0.0975668   0.0000000  )
        25        C1     tau(  25) = (   0.9237604  -0.0000000   0.0000000  )
        26        C      tau(  26) = (   0.9814955   0.1000000   0.0000000  )
        27        C      tau(  27) = (   1.0969655   0.1000000   0.0000000  )
        28        C      tau(  28) = (   1.1547005   0.2000000   0.0000000  )
        29        C      tau(  29) = (   1.2701706   0.2000000   0.0000000  )
        30        C      tau(  30) = (   0.6350853  -0.3000000   0.0000000  )
        31        C      tau(  31) = (   0.7505553  -0.3000000   0.0000000  )
        32        C      tau(  32) = (   0.8082904  -0.2000000   0.0000000  )
        33        C      tau(  33) = (   0.9237604  -0.2000000   0.0000000  )
        34        C      tau(  34) = (   0.9814955  -0.1000000   0.0000000  )
        35        C      tau(  35) = (   1.0969655  -0.1000000   0.0000000  )
        36        C      tau(  36) = (   1.1547005   0.0000000   0.0000000  )
        37        C      tau(  37) = (   1.2701706   0.0000000   0.0000000  )
        38        C      tau(  38) = (   1.3279056   0.1000000   0.0000000  )
        39        C      tau(  39) = (   1.4433757   0.1000000   0.0000000  )
        40        C      tau(  40) = (   0.8082904  -0.4000000   0.0000000  )
        41        C      tau(  41) = (   0.9237604  -0.4000000   0.0000000  )
        42        C      tau(  42) = (   0.9814955  -0.3000000   0.0000000  )
        43        C      tau(  43) = (   1.0969655  -0.3000000   0.0000000  )
        44        C      tau(  44) = (   1.1547005  -0.2000000   0.0000000  )
        45        C      tau(  45) = (   1.2701706  -0.2000000   0.0000000  )
        46        C      tau(  46) = (   1.3279056  -0.1000000   0.0000000  )
        47        C      tau(  47) = (   1.4433757  -0.1000000   0.0000000  )
        48        C      tau(  48) = (   1.5011107  -0.0000000   0.0000000  )
        49        C      tau(  49) = (   1.6165808   0.0000000   0.0000000  )

     number of k points=     1  Marzari-Vanderbilt smearing, width (Ry)=  0.0100
                       cart. coord. in units 2pi/alat
        k(    1) = (   0.0000000   0.0000000   0.0000000), wk =   1.0000000

     Dense  grid:   952545 G-vectors     FFT dimensions: ( 150, 150, 192)

     Estimated max dynamical RAM per process >      58.20 MB

     Estimated total dynamical RAM >       3.64 GB
 ----2D----2D----2D----2D----2D----2D----2D----2D----2D----2D----2D----2D
  The code is running with the 2D cutoff
  Please refer to:
  Sohier, T., Calandra, M., & Mauri, F. (2017), 
  Density functional perturbation theory for gated two-dimensional heterostructures:
  Theoretical developments and application to flexural phonons in graphene.
  Physical Review B, 96(7), 75448. https://doi.org/10.1103/PhysRevB.96.075448
 ----2D----2D----2D----2D----2D----2D----2D----2D----2D----2D----2D----2D
     Generating pointlists ...
     new r_m :   0.0476 (alat units)  1.1098 (a.u.) for type    1
     new r_m :   0.0476 (alat units)  1.1098 (a.u.) for type    2

     Initial potential from superposition of free atoms

     starting charge     195.9978, renormalised to     196.0000

     negative rho (up, down):  1.951E-05 1.837E-05
     Starting wfcs are  196 randomized atomic wfcs

     total cpu time spent up to now is        2.0 secs

     per-process dynamical memory:   160.1 Mb

     Self-consistent Calculation

     iteration #  1     ecut=   100.00 Ry     beta= 0.30
     Davidson diagonalization with overlap
     ethr =  1.00E-02,  avg # of iterations =  3.0

     negative rho (up, down):  1.212E-07 1.058E-07

     total cpu time spent up to now is        3.4 secs

     total energy              =    -590.10603757 Ry
     estimated scf accuracy    <       4.29116211 Ry

     total magnetization       =     2.00 Bohr mag/cell
     absolute magnetization    =     3.26 Bohr mag/cell

     iteration #  2     ecut=   100.00 Ry     beta= 0.30
     Davidson diagonalization with overlap
     ethr =  2.19E-03,  avg # of iterations =  1.0
     Minimization algorithm failed to find Fermi energy: reverting to bisection
     Possible cause: smearing is larger than the electronic band-gap.

     negative rho (up, down):  4.983E-08 3.731E-08

     total cpu time spent up to now is        4.3 secs

     total energy              =    -589.51868041 Ry
     estimated scf accuracy    <       2.04941100 Ry

     total magnetization       =     1.80 Bohr mag/cell
     absolute magnetization    =     3.41 Bohr mag/cell

     iteration #  3     ecut=   100.00 Ry     beta= 0.30
     Davidson diagonalization with overlap
     ethr =  1.05E-03,  avg # of iterations = 13.0

     total cpu time spent up to now is        5.8 secs

     total energy              =    -589.50689713 Ry
     estimated scf accuracy    <       1.34164480 Ry

     total magnetization       =     0.12 Bohr mag/cell
     absolute magnetization    =     1.69 Bohr mag/cell

     iteration #  4     ecut=   100.00 Ry     beta= 0.30
     Davidson diagonalization with overlap
     ethr =  6.85E-04,  avg # of iterations =  8.0
     Minimization algorithm failed to find Fermi energy: reverting to bisection
     Possible cause: smearing is larger than the electronic band-gap.

     total cpu time spent up to now is        7.1 secs

     total energy              =    -589.66661700 Ry
     estimated scf accuracy    <       0.19919328 Ry

     total magnetization       =     2.00 Bohr mag/cell
     absolute magnetization    =     2.86 Bohr mag/cell

     iteration #  5     ecut=   100.00 Ry     beta= 0.30
     Davidson diagonalization with overlap
     ethr =  1.02E-04,  avg # of iterations = 14.0

     total cpu time spent up to now is        8.7 secs

     total energy              =    -589.68117862 Ry
     estimated scf accuracy    <       0.03924831 Ry

     total magnetization       =     1.70 Bohr mag/cell
     absolute magnetization    =     2.59 Bohr mag/cell

     iteration #  6     ecut=   100.00 Ry     beta= 0.30
     Davidson diagonalization with overlap
     ethr =  2.00E-05,  avg # of iterations =  6.5

     total cpu time spent up to now is        9.9 secs

     total energy              =    -589.69040446 Ry
     estimated scf accuracy    <       0.01125358 Ry

     total magnetization       =     1.93 Bohr mag/cell
     absolute magnetization    =     2.78 Bohr mag/cell

     iteration #  7     ecut=   100.00 Ry     beta= 0.30
     Davidson diagonalization with overlap
     ethr =  5.74E-06,  avg # of iterations =  5.0

     total cpu time spent up to now is       11.1 secs

     total energy              =    -589.69389798 Ry
     estimated scf accuracy    <       0.00422974 Ry

     total magnetization       =     1.87 Bohr mag/cell
     absolute magnetization    =     2.75 Bohr mag/cell

     iteration #  8     ecut=   100.00 Ry     beta= 0.30
     Davidson diagonalization with overlap
     ethr =  2.16E-06,  avg # of iterations =  3.5

     total cpu time spent up to now is       12.1 secs

     total energy              =    -589.69512984 Ry
     estimated scf accuracy    <       0.00153537 Ry

     total magnetization       =     1.72 Bohr mag/cell
     absolute magnetization    =     2.61 Bohr mag/cell

     iteration #  9     ecut=   100.00 Ry     beta= 0.30
     Davidson diagonalization with overlap
     ethr =  7.83E-07,  avg # of iterations =  3.0

     negative rho (up, down):  8.410E-09 1.096E-08

     total cpu time spent up to now is       13.0 secs

     total energy              =    -589.69576223 Ry
     estimated scf accuracy    <       0.00209132 Ry

     total magnetization       =     1.71 Bohr mag/cell
     absolute magnetization    =     2.60 Bohr mag/cell

     iteration # 10     ecut=   100.00 Ry     beta= 0.30
     Davidson diagonalization with overlap
     ethr =  7.83E-07,  avg # of iterations =  2.0

     negative rho (up, down):  2.731E-06 4.073E-06

     total cpu time spent up to now is       13.9 secs

     total energy              =    -589.69633834 Ry
     estimated scf accuracy    <       0.00075673 Ry

     total magnetization       =     1.70 Bohr mag/cell
     absolute magnetization    =     2.59 Bohr mag/cell

     iteration # 11     ecut=   100.00 Ry     beta= 0.30
     Davidson diagonalization with overlap
     ethr =  3.86E-07,  avg # of iterations =  3.0

     negative rho (up, down):  5.931E-06 6.945E-06

     total cpu time spent up to now is       14.9 secs

     total energy              =    -589.69688716 Ry
     estimated scf accuracy    <       0.00032316 Ry

     total magnetization       =     1.66 Bohr mag/cell
     absolute magnetization    =     2.54 Bohr mag/cell

     iteration # 12     ecut=   100.00 Ry     beta= 0.30
     Davidson diagonalization with overlap
     ethr =  1.65E-07,  avg # of iterations =  5.0

     negative rho (up, down):  5.943E-06 6.409E-06

     total cpu time spent up to now is       16.0 secs

     total energy              =    -589.69733685 Ry
     estimated scf accuracy    <       0.00018100 Ry

     total magnetization       =     1.63 Bohr mag/cell
     absolute magnetization    =     2.49 Bohr mag/cell

     iteration # 13     ecut=   100.00 Ry     beta= 0.30
     Davidson diagonalization with overlap
     ethr =  9.23E-08,  avg # of iterations =  5.0

     negative rho (up, down):  3.428E-06 3.708E-06

     total cpu time spent up to now is       17.2 secs

     total energy              =    -589.69768888 Ry
     estimated scf accuracy    <       0.00004830 Ry

     total magnetization       =     1.57 Bohr mag/cell
     absolute magnetization    =     2.40 Bohr mag/cell

     iteration # 14     ecut=   100.00 Ry     beta= 0.30
     Davidson diagonalization with overlap
     ethr =  2.46E-08,  avg # of iterations =  2.0

     negative rho (up, down):  7.171E-07 7.072E-07

     total cpu time spent up to now is       18.1 secs

     total energy              =    -589.69771732 Ry
     estimated scf accuracy    <       0.00000946 Ry

     total magnetization       =     1.58 Bohr mag/cell
     absolute magnetization    =     2.41 Bohr mag/cell

     iteration # 15     ecut=   100.00 Ry     beta= 0.30
     Davidson diagonalization with overlap
     ethr =  4.83E-09,  avg # of iterations =  4.5

     total cpu time spent up to now is       19.3 secs

     total energy              =    -589.69774036 Ry
     estimated scf accuracy    <       0.00000522 Ry

     total magnetization       =     1.59 Bohr mag/cell
     absolute magnetization    =     2.39 Bohr mag/cell

     iteration # 16     ecut=   100.00 Ry     beta= 0.30
     Davidson diagonalization with overlap
     ethr =  2.67E-09,  avg # of iterations =  4.0

     total cpu time spent up to now is       20.4 secs

     total energy              =    -589.69774616 Ry
     estimated scf accuracy    <       0.00000939 Ry

     total magnetization       =     1.60 Bohr mag/cell
     absolute magnetization    =     2.39 Bohr mag/cell

     iteration # 17     ecut=   100.00 Ry     beta= 0.30
     Davidson diagonalization with overlap
     ethr =  2.67E-09,  avg # of iterations =  3.5

     total cpu time spent up to now is       21.3 secs

     total energy              =    -589.69775118 Ry
     estimated scf accuracy    <       0.00000169 Ry

     total magnetization       =     1.59 Bohr mag/cell
     absolute magnetization    =     2.38 Bohr mag/cell

     iteration # 18     ecut=   100.00 Ry     beta= 0.30
     Davidson diagonalization with overlap
     ethr =  8.63E-10,  avg # of iterations =  4.0

     total cpu time spent up to now is       22.4 secs

     total energy              =    -589.69775241 Ry
     estimated scf accuracy    <       0.00000059 Ry

     total magnetization       =     1.60 Bohr mag/cell
     absolute magnetization    =     2.38 Bohr mag/cell

     iteration # 19     ecut=   100.00 Ry     beta= 0.30
     Davidson diagonalization with overlap
     ethr =  3.02E-10,  avg # of iterations =  4.0

     total cpu time spent up to now is       23.5 secs

     total energy              =    -589.69775306 Ry
     estimated scf accuracy    <       0.00000029 Ry

     total magnetization       =     1.60 Bohr mag/cell
     absolute magnetization    =     2.38 Bohr mag/cell

     iteration # 20     ecut=   100.00 Ry     beta= 0.30
     Davidson diagonalization with overlap
     ethr =  1.50E-10,  avg # of iterations =  4.5

     negative rho (up, down):  6.921E-08 8.673E-08

     total cpu time spent up to now is       24.8 secs

     total energy              =    -589.69775330 Ry
     estimated scf accuracy    <       0.00000018 Ry

     total magnetization       =     1.60 Bohr mag/cell
     absolute magnetization    =     2.37 Bohr mag/cell

     iteration # 21     ecut=   100.00 Ry     beta= 0.30
     Davidson diagonalization with overlap
     ethr =  9.14E-11,  avg # of iterations =  2.0

     negative rho (up, down):  7.066E-08 8.521E-08

     total cpu time spent up to now is       25.6 secs

     total energy              =    -589.69775336 Ry
     estimated scf accuracy    <       0.00000004 Ry

     total magnetization       =     1.60 Bohr mag/cell
     absolute magnetization    =     2.37 Bohr mag/cell

     iteration # 22     ecut=   100.00 Ry     beta= 0.30
     Davidson diagonalization with overlap
     ethr =  2.01E-11,  avg # of iterations =  4.5

     negative rho (up, down):  1.513E-07 1.720E-07

     total cpu time spent up to now is       26.7 secs

     total energy              =    -589.69775338 Ry
     estimated scf accuracy    <       0.00000002 Ry

     total magnetization       =     1.60 Bohr mag/cell
     absolute magnetization    =     2.37 Bohr mag/cell

     iteration # 23     ecut=   100.00 Ry     beta= 0.30
     Davidson diagonalization with overlap
     ethr =  1.25E-11,  avg # of iterations =  5.0

     negative rho (up, down):  9.038E-08 1.021E-07

     total cpu time spent up to now is       27.9 secs

     total energy              =    -589.69775341 Ry
     estimated scf accuracy    <          5.4E-09 Ry

     total magnetization       =     1.60 Bohr mag/cell
     absolute magnetization    =     2.37 Bohr mag/cell

     iteration # 24     ecut=   100.00 Ry     beta= 0.30
     Davidson diagonalization with overlap
     ethr =  2.76E-12,  avg # of iterations =  3.5

     negative rho (up, down):  3.689E-08 4.149E-08

     total cpu time spent up to now is       29.0 secs

     total energy              =    -589.69775341 Ry
     estimated scf accuracy    <          8.2E-09 Ry

     total magnetization       =     1.60 Bohr mag/cell
     absolute magnetization    =     2.37 Bohr mag/cell

     iteration # 25     ecut=   100.00 Ry     beta= 0.30
     Davidson diagonalization with overlap
     ethr =  2.76E-12,  avg # of iterations =  4.0

     negative rho (up, down):  1.616E-08 1.832E-08

     total cpu time spent up to now is       30.1 secs

     total energy              =    -589.69775342 Ry
     estimated scf accuracy    <          1.9E-09 Ry

     total magnetization       =     1.60 Bohr mag/cell
     absolute magnetization    =     2.37 Bohr mag/cell

     iteration # 26     ecut=   100.00 Ry     beta= 0.30
     Davidson diagonalization with overlap
     ethr =  9.45E-13,  avg # of iterations =  2.0

     total cpu time spent up to now is       31.0 secs

     total energy              =    -589.69775342 Ry
     estimated scf accuracy    <          1.2E-09 Ry

     total magnetization       =     1.60 Bohr mag/cell
     absolute magnetization    =     2.37 Bohr mag/cell

     iteration # 27     ecut=   100.00 Ry     beta= 0.30
     Davidson diagonalization with overlap
     ethr =  5.91E-13,  avg # of iterations =  3.5

     total cpu time spent up to now is       32.0 secs

     total energy              =    -589.69775343 Ry
     estimated scf accuracy    <          9.4E-10 Ry

     total magnetization       =     1.60 Bohr mag/cell
     absolute magnetization    =     2.37 Bohr mag/cell

     iteration # 28     ecut=   100.00 Ry     beta= 0.30
     Davidson diagonalization with overlap
     ethr =  4.78E-13,  avg # of iterations =  3.5

     total cpu time spent up to now is       33.1 secs

     total energy              =    -589.69775343 Ry
     estimated scf accuracy    <          8.0E-10 Ry

     total magnetization       =     1.60 Bohr mag/cell
     absolute magnetization    =     2.37 Bohr mag/cell

     iteration # 29     ecut=   100.00 Ry     beta= 0.30
     Davidson diagonalization with overlap
     ethr =  4.06E-13,  avg # of iterations =  2.5

     total cpu time spent up to now is       33.9 secs

     total energy              =    -589.69775343 Ry
     estimated scf accuracy    <          8.3E-10 Ry

     total magnetization       =     1.60 Bohr mag/cell
     absolute magnetization    =     2.37 Bohr mag/cell

     iteration # 30     ecut=   100.00 Ry     beta= 0.30
     Davidson diagonalization with overlap
     ethr =  4.06E-13,  avg # of iterations =  2.5

     total cpu time spent up to now is       34.8 secs

     total energy              =    -589.69775343 Ry
     estimated scf accuracy    <          3.1E-10 Ry

     total magnetization       =     1.60 Bohr mag/cell
     absolute magnetization    =     2.37 Bohr mag/cell

     iteration # 31     ecut=   100.00 Ry     beta= 0.30
     Davidson diagonalization with overlap
     ethr =  1.57E-13,  avg # of iterations =  4.0

     total cpu time spent up to now is       35.9 secs

     total energy              =    -589.69775342 Ry
     estimated scf accuracy    <          8.8E-10 Ry

     total magnetization       =     1.60 Bohr mag/cell
     absolute magnetization    =     2.38 Bohr mag/cell

     iteration # 32     ecut=   100.00 Ry     beta= 0.30
     Davidson diagonalization with overlap
     ethr =  1.57E-13,  avg # of iterations =  5.5

     total cpu time spent up to now is       37.2 secs

     total energy              =    -589.69775343 Ry
     estimated scf accuracy    <          5.5E-10 Ry

     total magnetization       =     1.60 Bohr mag/cell
     absolute magnetization    =     2.37 Bohr mag/cell

     iteration # 33     ecut=   100.00 Ry     beta= 0.30
     Davidson diagonalization with overlap
     ethr =  1.57E-13,  avg # of iterations =  2.5

     total cpu time spent up to now is       38.1 secs

     total energy              =    -589.69775342 Ry
     estimated scf accuracy    <          5.4E-10 Ry

     total magnetization       =     1.60 Bohr mag/cell
     absolute magnetization    =     2.37 Bohr mag/cell

     iteration # 34     ecut=   100.00 Ry     beta= 0.30
     Davidson diagonalization with overlap
     ethr =  1.57E-13,  avg # of iterations =  4.5

     total cpu time spent up to now is       39.2 secs

     total energy              =    -589.69775342 Ry
     estimated scf accuracy    <          4.0E-10 Ry

     total magnetization       =     1.60 Bohr mag/cell
     absolute magnetization    =     2.37 Bohr mag/cell

     iteration # 35     ecut=   100.00 Ry     beta= 0.30
     Davidson diagonalization with overlap
     ethr =  1.57E-13,  avg # of iterations =  4.5

     total cpu time spent up to now is       40.4 secs

     total energy              =    -589.69775342 Ry
     estimated scf accuracy    <          2.1E-10 Ry

     total magnetization       =     1.60 Bohr mag/cell
     absolute magnetization    =     2.38 Bohr mag/cell

     iteration # 36     ecut=   100.00 Ry     beta= 0.30
     Davidson diagonalization with overlap
     ethr =  1.06E-13,  avg # of iterations =  5.5

     Magnetic moment per site  (integrated on atomic sphere of radius R)
     atom   1 (R=0.048)  charge=  1.7116  magn= -0.0092
     atom   2 (R=0.048)  charge=  1.7139  magn=  0.0561
     atom   3 (R=0.048)  charge=  1.7116  magn= -0.0095
     atom   4 (R=0.048)  charge=  1.7125  magn=  0.0155
     atom   5 (R=0.048)  charge=  1.7112  magn= -0.0051
     atom   6 (R=0.048)  charge=  1.7084  magn=  0.0062
     atom   7 (R=0.048)  charge=  1.7118  magn= -0.0047
     atom   8 (R=0.048)  charge=  1.7079  magn=  0.0043
     atom   9 (R=0.048)  charge=  1.7108  magn= -0.0070
     atom  10 (R=0.048)  charge=  1.7123  magn=  0.0154
     atom  11 (R=0.048)  charge=  1.7116  magn= -0.0095
     atom  12 (R=0.048)  charge=  1.7125  magn=  0.0155
     atom  13 (R=0.048)  charge=  1.7112  magn= -0.0084
     atom  14 (R=0.048)  charge=  1.7130  magn=  0.0402
     atom  15 (R=0.048)  charge=  1.7051  magn= -0.0043
     atom  16 (R=0.048)  charge=  1.5638  magn=  0.0809
     atom  17 (R=0.048)  charge=  1.6900  magn= -0.0128
     atom  18 (R=0.048)  charge=  1.7125  magn=  0.0456
     atom  19 (R=0.048)  charge=  1.7115  magn= -0.0096
     atom  20 (R=0.048)  charge=  1.7122  magn=  0.0161
     atom  21 (R=0.048)  charge=  1.7112  magn= -0.0051
     atom  22 (R=0.048)  charge=  1.7084  magn=  0.0062
     atom  23 (R=0.048)  charge=  1.7051  magn= -0.0043
     atom  24 (R=0.048)  charge=  1.5637  magn=  0.0808
     atom  25 (R=0.048)  charge=  1.6046  magn=  0.3027
     atom  26 (R=0.048)  charge=  1.7049  magn= -0.0097
     atom  27 (R=0.048)  charge=  1.7096  magn=  0.0180
     atom  28 (R=0.048)  charge=  1.7114  magn= -0.0043
     atom  29 (R=0.048)  charge=  1.7112  magn=  0.0108
     atom  30 (R=0.048)  charge=  1.7118  magn= -0.0047
     atom  31 (R=0.048)  charge=  1.7079  magn=  0.0042
     atom  32 (R=0.048)  charge=  1.6900  magn= -0.0128
     atom  33 (R=0.048)  charge=  1.7125  magn=  0.0456
     atom  34 (R=0.048)  charge=  1.7049  magn= -0.0097
     atom  35 (R=0.048)  charge=  1.7096  magn=  0.0180
     atom  36 (R=0.048)  charge=  1.7123  magn= -0.0098
     atom  37 (R=0.048)  charge=  1.7113  magn=  0.0054
     atom  38 (R=0.048)  charge=  1.7125  magn= -0.0064
     atom  39 (R=0.048)  charge=  1.7115  magn=  0.0045
     atom  40 (R=0.048)  charge=  1.7108  magn= -0.0070
     atom  41 (R=0.048)  charge=  1.7123  magn=  0.0154
     atom  42 (R=0.048)  charge=  1.7115  magn= -0.0096
     atom  43 (R=0.048)  charge=  1.7122  magn=  0.0161
     atom  44 (R=0.048)  charge=  1.7114  magn= -0.0043
     atom  45 (R=0.048)  charge=  1.7112  magn=  0.0108
     atom  46 (R=0.048)  charge=  1.7125  magn= -0.0064
     atom  47 (R=0.048)  charge=  1.7115  magn=  0.0045
     atom  48 (R=0.048)  charge=  1.7125  magn= -0.0065
     atom  49 (R=0.048)  charge=  1.7106  magn=  0.0099

     total cpu time spent up to now is       41.8 secs

     End of self-consistent calculation

 ------ SPIN UP ------------


          k = 0.0000 0.0000 0.0000 (119010 PWs)   bands (ev):

   -23.8051 -22.9468 -22.9410 -22.9180 -22.9112 -22.8927 -22.4052 -21.1256
   -21.0899 -21.0856 -20.9919 -20.9853 -20.7073 -20.2034 -20.1904 -20.1895
   -20.0655 -20.0597 -19.2724 -18.0453 -18.0329 -18.0232 -17.9132 -17.8995
   -17.4600 -17.0548 -17.0471 -17.0386 -16.7839 -16.7677 -16.2871 -15.6845
   -15.6569 -15.6445 -15.4266 -15.4216 -14.4200 -13.3086 -13.3048 -13.2916
   -13.2564 -13.2522 -13.2259 -13.2017 -13.2013 -13.1576 -12.7172 -12.7139
   -11.9803 -11.8876 -11.8056 -11.8044 -11.7969 -11.4334 -11.4199 -11.1861
   -10.8509 -10.8390 -10.8346 -10.8278 -10.7998 -10.5646 -10.5587 -10.5513
   -10.5361 -10.5246 -10.5092 -10.4840 -10.4439 -10.4389 -10.3392  -9.5020
    -9.4972  -8.8971  -8.8848  -8.8490  -8.8398  -8.7236  -8.7074  -8.7065
    -8.6572  -8.6536  -8.6525  -8.3720  -7.8300  -7.8106  -7.7913  -7.7693
    -7.7593  -7.6918  -7.6730  -7.0032  -5.8444  -5.8355  -5.8279  -5.7764
    -5.7671  -4.8485  -4.5911  -4.3165  -3.0323  -3.0185  -3.0031  -2.9690
    -2.9571  -2.2673  -1.1734  -1.1529  -1.1419  -1.0904  -1.0742  -0.9750
    -0.3698  -0.1252   0.2644   0.2699   0.2755   0.3046   0.3168   0.4380
     0.5530   0.5641   0.5724   0.6086   0.6524   1.1388   1.1464   1.1638
     1.1698   1.1805

 ------ SPIN DOWN ----------


          k = 0.0000 0.0000 0.0000 (119010 PWs)   bands (ev):

   -23.7827 -22.9348 -22.9313 -22.8967 -22.8840 -22.8524 -22.3289 -21.1151
   -21.0652 -21.0580 -20.9608 -20.9454 -20.6644 -20.1875 -20.1666 -20.1516
   -20.0275 -19.9940 -19.1829 -18.0338 -18.0216 -18.0009 -17.8783 -17.8298
   -17.3456 -17.0344 -17.0197 -17.0166 -16.7393 -16.7237 -16.2338 -15.6429
   -15.6299 -15.6275 -15.3867 -15.3431 -14.3050 -13.2823 -13.2803 -13.2780
   -13.2300 -13.2280 -13.2077 -13.1808 -13.1597 -13.1235 -12.6881 -12.6544
   -11.9333 -11.8486 -11.7869 -11.7833 -11.7642 -11.3977 -11.3941 -11.0832
   -10.8255 -10.8237 -10.7894 -10.7769 -10.7510 -10.5525 -10.5504 -10.5404
   -10.5169 -10.5064 -10.4734 -10.4593 -10.4044 -10.3823 -10.2186  -9.4637
    -9.4400  -8.8902  -8.8604  -8.8180  -8.8061  -8.7145  -8.6614  -8.6574
    -8.6028  -8.5820  -8.2951  -8.1587  -7.7911  -7.7721  -7.7501  -7.7025
    -7.6570  -7.6393  -7.6297  -6.8655  -5.8271  -5.8163  -5.7987  -5.6963
    -5.6260  -4.4731  -3.9688  -3.0572  -3.0041  -2.9944  -2.9811  -2.8703
    -2.8121  -2.1785  -1.1197  -1.1124  -1.0795  -1.0118  -0.9634  -0.9451
    -0.2754  -0.1088   0.2714   0.2759   0.2793   0.3140   0.3277   0.4835
     0.5754   0.6262   0.6269   0.6888   0.8231   1.1430   1.1487   1.1702
     1.1780   1.2151

     the Fermi energy is    -4.5201 ev

!    total energy              =    -589.69775342 Ry
     estimated scf accuracy    <          7.3E-11 Ry
     smearing contrib. (-TS)   =      -0.00179993 Ry
     internal energy E=F+TS    =    -589.69595349 Ry

     The total energy is F=E-TS. E is the sum of the following terms:
     one-electron contribution =   -6594.34398249 Ry
     hartree contribution      =    3315.28343597 Ry
     xc contribution           =    -209.51084056 Ry
     ewald contribution        =    2898.87543359 Ry

     total magnetization       =     1.60 Bohr mag/cell
     absolute magnetization    =     2.38 Bohr mag/cell

     convergence has been achieved in  36 iterations

     Forces acting on atoms (cartesian axes, Ry/au):

     atom    1 type  1   force =    -0.00719311    0.00000009   -0.00000000
     atom    2 type  1   force =    -0.00002072    0.00000023   -0.00000000
     atom    3 type  1   force =     0.00398173    0.00577755    0.00000000
     atom    4 type  1   force =    -0.00722622    0.00665080   -0.00000000
     atom    5 type  1   force =    -0.00107666   -0.00722621    0.00000001
     atom    6 type  1   force =     0.00304792    0.01877945    0.00000000
     atom    7 type  1   force =     0.00128503   -0.00373287    0.00000001
     atom    8 type  1   force =    -0.02436793   -0.00179831    0.00000001
     atom    9 type  1   force =     0.01085841   -0.00207055    0.00000001
     atom   10 type  1   force =    -0.00193302    0.00874242   -0.00000002
     atom   11 type  1   force =     0.00398219   -0.00577813    0.00000000
     atom   12 type  1   force =    -0.00722665   -0.00665103    0.00000001
     atom   13 type  1   force =     0.02060319   -0.00000034    0.00000000
     atom   14 type  1   force =    -0.05024291    0.00000034   -0.00000001
     atom   15 type  1   force =     0.06060928   -0.04434238   -0.00000000
     atom   16 type  2   force =    -0.06586186    0.04033962    0.00000000
     atom   17 type  1   force =     0.01906455   -0.09626123   -0.00000000
     atom   18 type  1   force =     0.01571828    0.03265729   -0.00000000
     atom   19 type  1   force =    -0.00923741   -0.01523281   -0.00000001
     atom   20 type  1   force =     0.00812989    0.00225694    0.00000000
     atom   21 type  1   force =    -0.00107713    0.00722958    0.00000000
     atom   22 type  1   force =     0.00305270   -0.01878465    0.00000001
     atom   23 type  1   force =     0.06061009    0.04436342    0.00000001
     atom   24 type  2   force =    -0.06581799   -0.04033559   -0.00000000
     atom   25 type  2   force =     0.09142477   -0.00003381    0.00000000
     atom   26 type  1   force =    -0.04565592   -0.03228307    0.00000001
     atom   27 type  1   force =     0.01143550   -0.00820132    0.00000002
     atom   28 type  1   force =    -0.00248513    0.00400241   -0.00000000
     atom   29 type  1   force =     0.00208306   -0.00392214   -0.00000002
     atom   30 type  1   force =     0.00128504    0.00373377    0.00000001
     atom   31 type  1   force =    -0.02436932    0.00179756    0.00000000
     atom   32 type  1   force =     0.01906825    0.09626808   -0.00000000
     atom   33 type  1   force =     0.01571910   -0.03265939   -0.00000000
     atom   34 type  1   force =    -0.04564607    0.03229331   -0.00000001
     atom   35 type  1   force =     0.01143473    0.00819562   -0.00000001
     atom   36 type  1   force =    -0.00278949    0.00000050   -0.00000001
     atom   37 type  1   force =     0.00273275    0.00000006   -0.00000001
     atom   38 type  1   force =     0.00096238   -0.00104409   -0.00000002
     atom   39 type  1   force =    -0.00219257   -0.00363552   -0.00000001
     atom   40 type  1   force =     0.01085957    0.00207160   -0.00000001
     atom   41 type  1   force =    -0.00193334   -0.00874277   -0.00000000
     atom   42 type  1   force =    -0.00923797    0.01523326   -0.00000000
     atom   43 type  1   force =     0.00812988   -0.00225669    0.00000001
     atom   44 type  1   force =    -0.00248409   -0.00400080    0.00000000
     atom   45 type  1   force =     0.00208236    0.00392065    0.00000000
     atom   46 type  1   force =     0.00096206    0.00104410    0.00000001
     atom   47 type  1   force =    -0.00219209    0.00363487   -0.00000000
     atom   48 type  1   force =    -0.00175756    0.00000028   -0.00000001
     atom   49 type  1   force =    -0.00709752   -0.00000013   -0.00000000

     Total force =     0.258503     Total SCF correction =     0.000008

     BFGS Geometry Optimization
     Energy error            =      6.7E-02 Ry
     Gradient error          =      9.6E-02 Ry/Bohr

     number of scf cycles    =   1
     number of bfgs steps    =   0

     energy             new  =    -589.6977534224 Ry

     new trust radius        =       0.0981383799 bohr
     new conv_thr            =            1.0E-10 Ry


ATOMIC_POSITIONS (crystal)
C                0.0664884166        0.0664884247       -0.0000000000
C                0.1333328099        0.1333328300       -0.0000000002
C                0.0665173594        0.2670133094        0.0000000000
C                0.1328688112        0.3334397220       -0.0000000001
C                0.0669501388        0.4663298350        0.0000000004
C                0.1326028388        0.5342148832        0.0000000001
C                0.0668587263        0.6665382934        0.0000000004
C                0.1328066770        0.7326523087        0.0000000003
C                0.0670246083        0.8668468706        0.0000000003
C                0.1329102043        0.9336606612       -0.0000000006
C                0.2670133457        0.0665173460        0.0000000001
C                0.3334397210        0.1328687907        0.0000000005
C                0.2671772308        0.2671772020        0.0000000001
C                0.3320882932        0.3320883223       -0.0000000004
C                0.2700717666        0.4662653780       -0.0000000001
C1               0.3324031101        0.5309994260        0.0000000002
C                0.2712706630        0.6630075145       -0.0000000001
C                0.3323211691        0.7351244995       -0.0000000000
C                0.2670915614        0.8657839634       -0.0000000003
C                0.3334379240        0.9336316620        0.0000000001
C                0.4663296787        0.0669502718        0.0000000001
C                0.5342152249        0.1326027343        0.0000000004
C                0.4662644952        0.2700726899        0.0000000005
C1               0.5310003402        0.3324043700       -0.0000000000
C1               0.5356003016        0.5355973996        0.0000000001
C                0.4669209107        0.6641497035        0.0000000002
C                0.5339687104        0.7332647023        0.0000000007
C                0.4664332995        0.8667768700       -0.0000000001
C                0.5335532919        0.9332166118       -0.0000000006
C                0.6665382553        0.0668587652        0.0000000005
C                0.7326523066        0.1328066104        0.0000000000
C                0.6630073120        0.2712710485       -0.0000000000
C                0.7351246099        0.3323210994       -0.0000000001
C                0.6641495083        0.4669215943       -0.0000000002
C                0.7332649275        0.5339684471       -0.0000000002
C                0.6665975213        0.6665975642       -0.0000000003
C                0.7334010484        0.7334010540       -0.0000000002
C                0.6667353273        0.8666457017       -0.0000000008
C                0.7334350392        0.9331229631       -0.0000000002
C                0.8668468542        0.0670246824       -0.0000000003
C                0.9336606681        0.1329101815       -0.0000000000
C                0.8657839305        0.2670915666       -0.0000000001
C                0.9336316510        0.3334379346        0.0000000003
C                0.8667768266        0.4664333949        0.0000000001
C                0.9332166586        0.5335532106        0.0000000001
C                0.8666456934        0.6667353197        0.0000000003
C                0.9331230028        0.7334350230       -0.0000000001
C                0.8666231019        0.8666231263       -0.0000000004
C                0.9331574614        0.9331574504       -0.0000000002



     Writing config-only to output data dir /home/gregb26/links/scratch/qe_tmp/vacancy_relaxed/series/5x5/nspin2/vac_5x5_relax_nspin2.save/ :
     XML data file
     NEW-OLD atomic charge density approx. for the potential

     negative rho (up, down):  5.876E-06 6.217E-06
     Generating pointlists ...
     new r_m :   0.0454 (alat units)  1.0577 (a.u.) for type    1
     new r_m :   0.0454 (alat units)  1.0577 (a.u.) for type    2

     total cpu time spent up to now is       42.5 secs

     per-process dynamical memory:   179.4 Mb

     Self-consistent Calculation

     iteration #  1     ecut=   100.00 Ry     beta= 0.30
     Davidson diagonalization with overlap
     ethr =  1.00E-06,  avg # of iterations =  9.0

     negative rho (up, down):  8.115E-06 7.852E-06

     total cpu time spent up to now is       45.0 secs

     total energy              =    -589.71126634 Ry
     estimated scf accuracy    <       0.02666528 Ry

     total magnetization       =     1.52 Bohr mag/cell
     absolute magnetization    =     2.28 Bohr mag/cell

     iteration #  2     ecut=   100.00 Ry     beta= 0.30
     Davidson diagonalization with overlap
     ethr =  1.36E-05,  avg # of iterations =  2.0

     negative rho (up, down):  7.141E-06 6.913E-06

     total cpu time spent up to now is       46.0 secs

     total energy              =    -589.71053012 Ry
     estimated scf accuracy    <       0.05021740 Ry

     total magnetization       =     0.63 Bohr mag/cell
     absolute magnetization    =     1.53 Bohr mag/cell

     iteration #  3     ecut=   100.00 Ry     beta= 0.30
     Davidson diagonalization with overlap
     ethr =  1.36E-05,  avg # of iterations =  1.5

     negative rho (up, down):  4.647E-06 4.518E-06

     total cpu time spent up to now is       46.8 secs

     total energy              =    -589.71386736 Ry
     estimated scf accuracy    <       0.01032082 Ry

     total magnetization       =     1.67 Bohr mag/cell
     absolute magnetization    =     2.37 Bohr mag/cell

     iteration #  4     ecut=   100.00 Ry     beta= 0.30
     Davidson diagonalization with overlap
     ethr =  5.27E-06,  avg # of iterations =  1.5

     negative rho (up, down):  2.210E-06 2.162E-06

     total cpu time spent up to now is       47.7 secs

     total energy              =    -589.71452285 Ry
     estimated scf accuracy    <       0.00130584 Ry

     total magnetization       =     1.30 Bohr mag/cell
     absolute magnetization    =     2.04 Bohr mag/cell

     iteration #  5     ecut=   100.00 Ry     beta= 0.30
     Davidson diagonalization with overlap
     ethr =  6.66E-07,  avg # of iterations =  2.0

     negative rho (up, down):  1.018E-06 1.005E-06

     total cpu time spent up to now is       48.6 secs

     total energy              =    -589.71468736 Ry
     estimated scf accuracy    <       0.00037160 Ry

     total magnetization       =     1.29 Bohr mag/cell
     absolute magnetization    =     2.02 Bohr mag/cell

     iteration #  6     ecut=   100.00 Ry     beta= 0.30
     Davidson diagonalization with overlap
     ethr =  1.90E-07,  avg # of iterations =  2.0

     negative rho (up, down):  3.447E-07 3.466E-07

     total cpu time spent up to now is       49.5 secs

     total energy              =    -589.71473920 Ry
     estimated scf accuracy    <       0.00017546 Ry

     total magnetization       =     1.29 Bohr mag/cell
     absolute magnetization    =     2.00 Bohr mag/cell

     iteration #  7     ecut=   100.00 Ry     beta= 0.30
     Davidson diagonalization with overlap
     ethr =  8.95E-08,  avg # of iterations =  3.0

     negative rho (up, down):  1.274E-07 1.315E-07

     total cpu time spent up to now is       50.5 secs

     total energy              =    -589.71477006 Ry
     estimated scf accuracy    <       0.00005761 Ry

     total magnetization       =     1.30 Bohr mag/cell
     absolute magnetization    =     1.99 Bohr mag/cell

     iteration #  8     ecut=   100.00 Ry     beta= 0.30
     Davidson diagonalization with overlap
     ethr =  2.94E-08,  avg # of iterations =  2.0

     total cpu time spent up to now is       51.4 secs

     total energy              =    -589.71479053 Ry
     estimated scf accuracy    <       0.00005469 Ry

     total magnetization       =     1.29 Bohr mag/cell
     absolute magnetization    =     1.97 Bohr mag/cell

     iteration #  9     ecut=   100.00 Ry     beta= 0.30
     Davidson diagonalization with overlap
     ethr =  2.79E-08,  avg # of iterations =  2.0

     negative rho (up, down):  3.113E-08 2.748E-08

     total cpu time spent up to now is       52.3 secs

     total energy              =    -589.71480434 Ry
     estimated scf accuracy    <       0.00004276 Ry

     total magnetization       =     1.28 Bohr mag/cell
     absolute magnetization    =     1.95 Bohr mag/cell

     iteration # 10     ecut=   100.00 Ry     beta= 0.30
     Davidson diagonalization with overlap
     ethr =  2.18E-08,  avg # of iterations =  2.5

     negative rho (up, down):  7.297E-08 6.349E-08

     total cpu time spent up to now is       53.2 secs

     total energy              =    -589.71481241 Ry
     estimated scf accuracy    <       0.00002237 Ry

     total magnetization       =     1.27 Bohr mag/cell
     absolute magnetization    =     1.93 Bohr mag/cell

     iteration # 11     ecut=   100.00 Ry     beta= 0.30
     Davidson diagonalization with overlap
     ethr =  1.14E-08,  avg # of iterations =  3.0

     negative rho (up, down):  4.513E-08 3.931E-08

     total cpu time spent up to now is       54.2 secs

     total energy              =    -589.71482002 Ry
     estimated scf accuracy    <       0.00000437 Ry

     total magnetization       =     1.27 Bohr mag/cell
     absolute magnetization    =     1.91 Bohr mag/cell

     iteration # 12     ecut=   100.00 Ry     beta= 0.30
     Davidson diagonalization with overlap
     ethr =  2.23E-09,  avg # of iterations =  4.0

     negative rho (up, down):  2.811E-08 2.447E-08

     total cpu time spent up to now is       55.6 secs

     total energy              =    -589.71482579 Ry
     estimated scf accuracy    <       0.00000154 Ry

     total magnetization       =     1.26 Bohr mag/cell
     absolute magnetization    =     1.89 Bohr mag/cell

     iteration # 13     ecut=   100.00 Ry     beta= 0.30
     Davidson diagonalization with overlap
     ethr =  7.85E-10,  avg # of iterations =  4.0

     total cpu time spent up to now is       56.8 secs

     total energy              =    -589.71482707 Ry
     estimated scf accuracy    <       0.00000024 Ry

     total magnetization       =     1.26 Bohr mag/cell
     absolute magnetization    =     1.88 Bohr mag/cell

     iteration # 14     ecut=   100.00 Ry     beta= 0.30
     Davidson diagonalization with overlap
     ethr =  1.20E-10,  avg # of iterations =  5.0

     total cpu time spent up to now is       58.1 secs

     total energy              =    -589.71482750 Ry
     estimated scf accuracy    <       0.00000004 Ry

     total magnetization       =     1.26 Bohr mag/cell
     absolute magnetization    =     1.87 Bohr mag/cell

     iteration # 15     ecut=   100.00 Ry     beta= 0.30
     Davidson diagonalization with overlap
     ethr =  2.27E-11,  avg # of iterations =  4.0

     total cpu time spent up to now is       59.3 secs

     total energy              =    -589.71482754 Ry
     estimated scf accuracy    <       0.00000002 Ry

     total magnetization       =     1.26 Bohr mag/cell
     absolute magnetization    =     1.87 Bohr mag/cell

     iteration # 16     ecut=   100.00 Ry     beta= 0.30
     Davidson diagonalization with overlap
     ethr =  1.18E-11,  avg # of iterations =  4.5

     total cpu time spent up to now is       60.6 secs

     total energy              =    -589.71482759 Ry
     estimated scf accuracy    <          7.1E-09 Ry

     total magnetization       =     1.26 Bohr mag/cell
     absolute magnetization    =     1.87 Bohr mag/cell

     iteration # 17     ecut=   100.00 Ry     beta= 0.30
     Davidson diagonalization with overlap
     ethr =  3.64E-12,  avg # of iterations =  5.0

     total cpu time spent up to now is       61.9 secs

     total energy              =    -589.71482761 Ry
     estimated scf accuracy    <          3.7E-09 Ry

     total magnetization       =     1.26 Bohr mag/cell
     absolute magnetization    =     1.86 Bohr mag/cell

     iteration # 18     ecut=   100.00 Ry     beta= 0.30
     Davidson diagonalization with overlap
     ethr =  1.88E-12,  avg # of iterations =  3.5

     total cpu time spent up to now is       63.1 secs

     total energy              =    -589.71482761 Ry
     estimated scf accuracy    <          7.4E-10 Ry

     total magnetization       =     1.26 Bohr mag/cell
     absolute magnetization    =     1.86 Bohr mag/cell

     iteration # 19     ecut=   100.00 Ry     beta= 0.30
     Davidson diagonalization with overlap
     ethr =  3.77E-13,  avg # of iterations =  4.0

     total cpu time spent up to now is       64.4 secs

     total energy              =    -589.71482761 Ry
     estimated scf accuracy    <          4.9E-10 Ry

     total magnetization       =     1.26 Bohr mag/cell
     absolute magnetization    =     1.86 Bohr mag/cell

     iteration # 20     ecut=   100.00 Ry     beta= 0.30
     Davidson diagonalization with overlap
     ethr =  2.51E-13,  avg # of iterations =  4.0

     total cpu time spent up to now is       65.8 secs

     total energy              =    -589.71482761 Ry
     estimated scf accuracy    <          1.2E-10 Ry

     total magnetization       =     1.26 Bohr mag/cell
     absolute magnetization    =     1.86 Bohr mag/cell

     iteration # 21     ecut=   100.00 Ry     beta= 0.30
     Davidson diagonalization with overlap
     ethr =  1.00E-13,  avg # of iterations =  2.0

     Magnetic moment per site  (integrated on atomic sphere of radius R)
     atom   1 (R=0.045)  charge=  1.5242  magn= -0.0077
     atom   2 (R=0.045)  charge=  1.5218  magn=  0.0493
     atom   3 (R=0.045)  charge=  1.5241  magn= -0.0078
     atom   4 (R=0.045)  charge=  1.5234  magn=  0.0138
     atom   5 (R=0.045)  charge=  1.5206  magn= -0.0040
     atom   6 (R=0.045)  charge=  1.5060  magn=  0.0046
     atom   7 (R=0.045)  charge=  1.5305  magn= -0.0030
     atom   8 (R=0.045)  charge=  1.5006  magn=  0.0030
     atom   9 (R=0.045)  charge=  1.5176  magn= -0.0051
     atom  10 (R=0.045)  charge=  1.5243  magn=  0.0131
     atom  11 (R=0.045)  charge=  1.5241  magn= -0.0078
     atom  12 (R=0.045)  charge=  1.5234  magn=  0.0138
     atom  13 (R=0.045)  charge=  1.5288  magn= -0.0067
     atom  14 (R=0.045)  charge=  1.5326  magn=  0.0317
     atom  15 (R=0.045)  charge=  1.5277  magn= -0.0048
     atom  16 (R=0.045)  charge=  1.4445  magn=  0.0484
     atom  17 (R=0.045)  charge=  1.4988  magn= -0.0090
     atom  18 (R=0.045)  charge=  1.5301  magn=  0.0339
     atom  19 (R=0.045)  charge=  1.5256  magn= -0.0070
     atom  20 (R=0.045)  charge=  1.5226  magn=  0.0126
     atom  21 (R=0.045)  charge=  1.5206  magn= -0.0040
     atom  22 (R=0.045)  charge=  1.5060  magn=  0.0046
     atom  23 (R=0.045)  charge=  1.5277  magn= -0.0048
     atom  24 (R=0.045)  charge=  1.4444  magn=  0.0482
     atom  25 (R=0.045)  charge=  1.4717  magn=  0.2042
     atom  26 (R=0.045)  charge=  1.5209  magn= -0.0080
     atom  27 (R=0.045)  charge=  1.5108  magn=  0.0148
     atom  28 (R=0.045)  charge=  1.5213  magn= -0.0032
     atom  29 (R=0.045)  charge=  1.5201  magn=  0.0089
     atom  30 (R=0.045)  charge=  1.5305  magn= -0.0030
     atom  31 (R=0.045)  charge=  1.5006  magn=  0.0030
     atom  32 (R=0.045)  charge=  1.4988  magn= -0.0090
     atom  33 (R=0.045)  charge=  1.5301  magn=  0.0339
     atom  34 (R=0.045)  charge=  1.5210  magn= -0.0079
     atom  35 (R=0.045)  charge=  1.5108  magn=  0.0148
     atom  36 (R=0.045)  charge=  1.5278  magn= -0.0061
     atom  37 (R=0.045)  charge=  1.5220  magn=  0.0038
     atom  38 (R=0.045)  charge=  1.5243  magn= -0.0039
     atom  39 (R=0.045)  charge=  1.5220  magn=  0.0036
     atom  40 (R=0.045)  charge=  1.5176  magn= -0.0051
     atom  41 (R=0.045)  charge=  1.5243  magn=  0.0131
     atom  42 (R=0.045)  charge=  1.5256  magn= -0.0070
     atom  43 (R=0.045)  charge=  1.5226  magn=  0.0126
     atom  44 (R=0.045)  charge=  1.5213  magn= -0.0032
     atom  45 (R=0.045)  charge=  1.5201  magn=  0.0089
     atom  46 (R=0.045)  charge=  1.5243  magn= -0.0039
     atom  47 (R=0.045)  charge=  1.5220  magn=  0.0036
     atom  48 (R=0.045)  charge=  1.5249  magn= -0.0042
     atom  49 (R=0.045)  charge=  1.5184  magn=  0.0093

     total cpu time spent up to now is       66.9 secs

     End of self-consistent calculation

 ------ SPIN UP ------------


          k = 0.0000 0.0000 0.0000 (119010 PWs)   bands (ev):

   -23.8051 -22.9455 -22.9386 -22.9217 -22.9086 -22.8956 -22.4848 -21.1456
   -21.1370 -21.0681 -21.0401 -21.0135 -20.7081 -20.2613 -20.1948 -20.1691
   -20.1286 -20.1105 -19.3946 -18.0975 -18.0500 -18.0108 -17.9930 -17.9670
   -17.5193 -17.0800 -17.0242 -17.0204 -16.8600 -16.8006 -16.1996 -15.7714
   -15.7549 -15.7319 -15.4097 -15.3679 -14.3730 -13.3615 -13.3255 -13.3169
   -13.3026 -13.2897 -13.2695 -13.2550 -13.1478 -13.1346 -12.7211 -12.6816
   -12.0538 -11.8875 -11.8863 -11.8191 -11.7819 -11.4732 -11.4239 -11.2315
   -10.8449 -10.8360 -10.8271 -10.8206 -10.8140 -10.6938 -10.6911 -10.6703
   -10.6115 -10.5498 -10.5387 -10.4490 -10.4072 -10.3812 -10.3666  -9.5495
    -9.5113  -9.0413  -8.9841  -8.9666  -8.7476  -8.7419  -8.7248  -8.7095
    -8.6922  -8.6347  -8.3669  -8.1758  -7.8756  -7.8577  -7.8415  -7.7685
    -7.7499  -7.7187  -7.7100  -7.0693  -5.9314  -5.9019  -5.8051  -5.7930
    -5.7517  -4.7588  -4.5220  -4.0439  -3.1020  -3.0302  -3.0131  -2.9038
    -2.8746  -2.1661  -1.2968  -1.2437  -1.0971  -0.9782  -0.9707  -0.9470
    -0.2957  -0.1234   0.2737   0.2784   0.2785   0.3104   0.3111   0.4368
     0.4595   0.6033   0.6110   0.7113   0.7467   1.1449   1.1496   1.1626
     1.1641   1.1682

 ------ SPIN DOWN ----------


          k = 0.0000 0.0000 0.0000 (119010 PWs)   bands (ev):

   -23.7836 -22.9295 -22.9145 -22.8988 -22.8891 -22.8713 -22.4178 -21.1226
   -21.1070 -21.0209 -21.0208 -21.0006 -20.6704 -20.2218 -20.1721 -20.1198
   -20.1107 -20.0876 -19.3304 -18.0674 -18.0182 -18.0005 -17.9561 -17.9483
   -17.4288 -17.0652 -17.0044 -17.0040 -16.8152 -16.7794 -16.1605 -15.7478
   -15.7411 -15.6989 -15.3525 -15.3444 -14.2923 -13.3417 -13.2935 -13.2919
   -13.2742 -13.2664 -13.2429 -13.2384 -13.1308 -13.1215 -12.6727 -12.6634
   -12.0186 -11.8700 -11.8499 -11.7869 -11.7682 -11.4417 -11.4039 -11.1502
   -10.8207 -10.8066 -10.7878 -10.7828 -10.7697 -10.6759 -10.6630 -10.6209
   -10.5917 -10.5425 -10.5299 -10.4367 -10.3638 -10.3466 -10.3101  -9.4989
    -9.4856  -9.0289  -8.9603  -8.9441  -8.7049  -8.6969  -8.6815  -8.6659
    -8.6548  -8.6228  -8.3044  -7.8228  -7.8119  -7.7974  -7.7758  -7.7285
    -7.6937  -7.6893  -7.6871  -6.9724  -5.8696  -5.8294  -5.7944  -5.7564
    -5.7297  -4.4815  -3.8274  -3.3898  -3.0817  -3.0157  -2.9995  -2.8120
    -2.8018  -2.0977  -1.2712  -1.2213  -1.0155  -0.9611  -0.8942  -0.8870
    -0.2180  -0.1052   0.2811   0.2823   0.2838   0.3181   0.3212   0.4688
     0.4722   0.6577   0.6677   0.7805   0.8799   1.1491   1.1520   1.1692
     1.1728   1.1845

     the Fermi energy is    -4.4873 ev

!    total energy              =    -589.71482761 Ry
     estimated scf accuracy    <          5.7E-11 Ry
     smearing contrib. (-TS)   =      -0.00219769 Ry
     internal energy E=F+TS    =    -589.71262993 Ry

     The total energy is F=E-TS. E is the sum of the following terms:
     one-electron contribution =   -6595.25958630 Ry
     hartree contribution      =    3315.61510803 Ry
     xc contribution           =    -209.58857021 Ry
     ewald contribution        =    2899.52041855 Ry

     total magnetization       =     1.26 Bohr mag/cell
     absolute magnetization    =     1.86 Bohr mag/cell

     convergence has been achieved in  21 iterations

     Forces acting on atoms (cartesian axes, Ry/au):

     atom    1 type  1   force =     0.00942412    0.00000021    0.00000002
     atom    2 type  1   force =    -0.00168686   -0.00000124   -0.00000003
     atom    3 type  1   force =    -0.00399729   -0.00548996   -0.00000003
     atom    4 type  1   force =     0.00709705   -0.00399344   -0.00000000
     atom    5 type  1   force =     0.00519294    0.00477645    0.00000000
     atom    6 type  1   force =     0.01325527   -0.02864032    0.00000000
     atom    7 type  1   force =    -0.00827343    0.00577325   -0.00000002
     atom    8 type  1   force =     0.03082447   -0.03535732   -0.00000000
     atom    9 type  1   force =    -0.01407499   -0.00788776    0.00000001
     atom   10 type  1   force =     0.00233497   -0.00906484    0.00000003
     atom   11 type  1   force =    -0.00399834    0.00549193   -0.00000005
     atom   12 type  1   force =     0.00709748    0.00399503   -0.00000002
     atom   13 type  1   force =    -0.03813709   -0.00000010   -0.00000002
     atom   14 type  1   force =     0.03980919    0.00000282    0.00000000
     atom   15 type  1   force =    -0.06935923    0.01027362   -0.00000000
     atom   16 type  2   force =     0.03418946    0.00454739   -0.00000002
     atom   17 type  1   force =    -0.01450500    0.02086776   -0.00000002
     atom   18 type  1   force =    -0.01422525   -0.04330114    0.00000000
     atom   19 type  1   force =     0.01248508    0.02595016    0.00000000
     atom   20 type  1   force =    -0.00603502   -0.00472085   -0.00000000
     atom   21 type  1   force =     0.00519671   -0.00477933    0.00000000
     atom   22 type  1   force =     0.01325717    0.02865509   -0.00000000
     atom   23 type  1   force =    -0.06932650   -0.01027471    0.00000002
     atom   24 type  2   force =     0.03417640   -0.00452929    0.00000000
     atom   25 type  2   force =     0.00776670    0.00001942    0.00000001
     atom   26 type  1   force =     0.02931676    0.03372294    0.00000000
     atom   27 type  1   force =    -0.02058815   -0.00137362    0.00000001
     atom   28 type  1   force =     0.00148878   -0.00396573    0.00000002
     atom   29 type  1   force =    -0.00024219    0.00245187    0.00000001
     atom   30 type  1   force =    -0.00827005   -0.00577651   -0.00000000
     atom   31 type  1   force =     0.03082567    0.03535824   -0.00000000
     atom   32 type  1   force =    -0.01449393   -0.02087449    0.00000002
     atom   33 type  1   force =    -0.01421884    0.04329663    0.00000000
     atom   34 type  1   force =     0.02933106   -0.03376376    0.00000001
     atom   35 type  1   force =    -0.02057630    0.00137855   -0.00000000
     atom   36 type  1   force =     0.00796554   -0.00000444    0.00000000
     atom   37 type  1   force =     0.00245201   -0.00000005    0.00000000
     atom   38 type  1   force =     0.00092258   -0.00240987    0.00000001
     atom   39 type  1   force =    -0.00132264   -0.00199644    0.00000000
     atom   40 type  1   force =    -0.01407607    0.00788878    0.00000000
     atom   41 type  1   force =     0.00233586    0.00906442   -0.00000000
     atom   42 type  1   force =     0.01248427   -0.02594922    0.00000001
     atom   43 type  1   force =    -0.00603350    0.00472058    0.00000000
     atom   44 type  1   force =     0.00148780    0.00396259    0.00000001
     atom   45 type  1   force =    -0.00024131   -0.00244930    0.00000000
     atom   46 type  1   force =     0.00092248    0.00240919    0.00000000
     atom   47 type  1   force =    -0.00132285    0.00199665    0.00000001
     atom   48 type  1   force =    -0.00330835   -0.00000028    0.00000000
     atom   49 type  1   force =     0.00667336    0.00000046    0.00000001

     Total force =     0.187836     Total SCF correction =     0.000008
     Energy error            =      1.7E-02 Ry
     Gradient error          =      6.9E-02 Ry/Bohr

     number of scf cycles    =   2
     number of bfgs steps    =   1

     energy             old  =    -589.6977534224 Ry
     energy             new  =    -589.7148276137 Ry

     CASE: energy            _new < energy            _old

     new trust radius        =       0.0387518791 bohr
     new conv_thr            =            1.0E-10 Ry


ATOMIC_POSITIONS (crystal)
C                0.0666220587        0.0666220796        0.0000000004
C                0.1333048490        0.1333048002       -0.0000000009
C                0.0665898607        0.2668332282       -0.0000000007
C                0.1330424889        0.3334560724       -0.0000000001
C                0.0669347541        0.4665104836        0.0000000005
C                0.1335519158        0.5337237425        0.0000000001
C                0.0665802952        0.6665507457        0.0000000001
C                0.1342649094        0.7320631181        0.0000000003
C                0.0670627418        0.8664102463        0.0000000006
C                0.1331556757        0.9334804777       -0.0000000000
C                0.2668331949        0.0665898849       -0.0000000011
C                0.3334560330        0.1330425185       -0.0000000000
C                0.2666099125        0.2666098741       -0.0000000004
C                0.3325909408        0.3325911353       -0.0000000003
C                0.2690565042        0.4653611578       -0.0000000002
C1               0.3324162157        0.5317084247       -0.0000000002
C                0.2710104681        0.6629060759       -0.0000000005
C                0.3332002970        0.7338721659        0.0000000001
C                0.2666074451        0.8666240130       -0.0000000003
C                0.3334865270        0.9334338274       -0.0000000000
C                0.4665104527        0.0669348834        0.0000000001
C                0.5337237352        0.1335522530        0.0000000005
C                0.4653607372        0.2690580541        0.0000000009
C1               0.5317087183        0.3324179369       -0.0000000000
C1               0.5360131655        0.5360110127        0.0000000002
C                0.4664711348        0.6652860378        0.0000000003
C                0.5337470375        0.7328757899        0.0000000009
C                0.4665423637        0.8667016336        0.0000000002
C                0.5335066000        0.9332682540       -0.0000000004
C                0.6665508523        0.0665803014        0.0000000005
C                0.7320631091        0.1342648808       -0.0000000000
C                0.6629062241        0.2710108922        0.0000000004
C                0.7338725256        0.3332001952        0.0000000000
C                0.6652872257        0.4664709702        0.0000000000
C                0.7328760981        0.5337470785       -0.0000000004
C                0.6667208536        0.6667206470       -0.0000000003
C                0.7334501576        0.7334501608       -0.0000000002
C                0.6668283424        0.8665892310       -0.0000000007
C                0.7334831734        0.9330173764       -0.0000000002
C                0.8664101808        0.0670628363       -0.0000000003
C                0.9334805121        0.1331556526       -0.0000000000
C                0.8666239354        0.2666074647        0.0000000001
C                0.9334338481        0.3334865564        0.0000000003
C                0.8667016586        0.4665423649        0.0000000003
C                0.9332682477        0.5335065965        0.0000000002
C                0.8665892395        0.6668283126        0.0000000004
C                0.9330174112        0.7334831578        0.0000000001
C                0.8665628573        0.8665628686       -0.0000000004
C                0.9332458483        0.9332458621        0.0000000001



     Writing config-only to output data dir /home/gregb26/links/scratch/qe_tmp/vacancy_relaxed/series/5x5/nspin2/vac_5x5_relax_nspin2.save/ :
     XML data file
     NEW-OLD atomic charge density approx. for the potential

     negative rho (up, down):  2.244E-06 2.315E-06
     Generating pointlists ...

     total cpu time spent up to now is       67.6 secs

     per-process dynamical memory:   167.3 Mb

     Self-consistent Calculation

     iteration #  1     ecut=   100.00 Ry     beta= 0.30
     Davidson diagonalization with overlap
     ethr =  1.00E-06,  avg # of iterations =  7.0

     negative rho (up, down):  1.788E-06 1.785E-06

     total cpu time spent up to now is       69.7 secs

     total energy              =    -589.72249620 Ry
     estimated scf accuracy    <       0.00874097 Ry

     total magnetization       =     0.99 Bohr mag/cell
     absolute magnetization    =     1.63 Bohr mag/cell

     iteration #  2     ecut=   100.00 Ry     beta= 0.30
     Davidson diagonalization with overlap
     ethr =  4.46E-06,  avg # of iterations =  2.0

     negative rho (up, down):  1.575E-06 1.577E-06

     total cpu time spent up to now is       70.7 secs

     total energy              =    -589.72237651 Ry
     estimated scf accuracy    <       0.02477040 Ry

     total magnetization       =     1.78 Bohr mag/cell
     absolute magnetization    =     2.30 Bohr mag/cell

     iteration #  3     ecut=   100.00 Ry     beta= 0.30
     Davidson diagonalization with overlap
     ethr =  4.46E-06,  avg # of iterations =  2.0

     negative rho (up, down):  9.019E-07 9.073E-07

     total cpu time spent up to now is       71.6 secs

     total energy              =    -589.72400513 Ry
     estimated scf accuracy    <       0.00103576 Ry

     total magnetization       =     1.15 Bohr mag/cell
     absolute magnetization    =     1.76 Bohr mag/cell

     iteration #  4     ecut=   100.00 Ry     beta= 0.30
     Davidson diagonalization with overlap
     ethr =  5.28E-07,  avg # of iterations =  2.0

     negative rho (up, down):  3.822E-07 3.873E-07

     total cpu time spent up to now is       72.6 secs

     total energy              =    -589.72403979 Ry
     estimated scf accuracy    <       0.00017906 Ry

     total magnetization       =     1.24 Bohr mag/cell
     absolute magnetization    =     1.83 Bohr mag/cell

     iteration #  5     ecut=   100.00 Ry     beta= 0.30
     Davidson diagonalization with overlap
     ethr =  9.14E-08,  avg # of iterations =  2.0

     negative rho (up, down):  1.803E-07 1.841E-07

     total cpu time spent up to now is       73.7 secs

     total energy              =    -589.72406347 Ry
     estimated scf accuracy    <       0.00003057 Ry

     total magnetization       =     1.22 Bohr mag/cell
     absolute magnetization    =     1.82 Bohr mag/cell

     iteration #  6     ecut=   100.00 Ry     beta= 0.30
     Davidson diagonalization with overlap
     ethr =  1.56E-08,  avg # of iterations =  3.0

     negative rho (up, down):  6.863E-08 7.093E-08

     total cpu time spent up to now is       74.9 secs

     total energy              =    -589.72406915 Ry
     estimated scf accuracy    <       0.00000866 Ry

     total magnetization       =     1.24 Bohr mag/cell
     absolute magnetization    =     1.83 Bohr mag/cell

     iteration #  7     ecut=   100.00 Ry     beta= 0.30
     Davidson diagonalization with overlap
     ethr =  4.42E-09,  avg # of iterations =  2.0

     negative rho (up, down):  2.714E-08 2.843E-08

     total cpu time spent up to now is       75.8 secs

     total energy              =    -589.72407110 Ry
     estimated scf accuracy    <       0.00000517 Ry

     total magnetization       =     1.24 Bohr mag/cell
     absolute magnetization    =     1.84 Bohr mag/cell

     iteration #  8     ecut=   100.00 Ry     beta= 0.30
     Davidson diagonalization with overlap
     ethr =  2.64E-09,  avg # of iterations =  2.5

     total cpu time spent up to now is       76.8 secs

     total energy              =    -589.72407214 Ry
     estimated scf accuracy    <       0.00000131 Ry

     total magnetization       =     1.24 Bohr mag/cell
     absolute magnetization    =     1.83 Bohr mag/cell

     iteration #  9     ecut=   100.00 Ry     beta= 0.30
     Davidson diagonalization with overlap
     ethr =  6.71E-10,  avg # of iterations =  3.0

     total cpu time spent up to now is       77.9 secs

     total energy              =    -589.72407278 Ry
     estimated scf accuracy    <       0.00000089 Ry

     total magnetization       =     1.24 Bohr mag/cell
     absolute magnetization    =     1.84 Bohr mag/cell

     iteration # 10     ecut=   100.00 Ry     beta= 0.30
     Davidson diagonalization with overlap
     ethr =  4.54E-10,  avg # of iterations =  2.0

     total cpu time spent up to now is       78.8 secs

     total energy              =    -589.72407305 Ry
     estimated scf accuracy    <       0.00000104 Ry

     total magnetization       =     1.24 Bohr mag/cell
     absolute magnetization    =     1.84 Bohr mag/cell

     iteration # 11     ecut=   100.00 Ry     beta= 0.30
     Davidson diagonalization with overlap
     ethr =  4.54E-10,  avg # of iterations =  1.5

     total cpu time spent up to now is       79.6 secs

     total energy              =    -589.72407332 Ry
     estimated scf accuracy    <       0.00000070 Ry

     total magnetization       =     1.24 Bohr mag/cell
     absolute magnetization    =     1.84 Bohr mag/cell

     iteration # 12     ecut=   100.00 Ry     beta= 0.30
     Davidson diagonalization with overlap
     ethr =  3.56E-10,  avg # of iterations =  3.0

     total cpu time spent up to now is       80.5 secs

     total energy              =    -589.72407358 Ry
     estimated scf accuracy    <       0.00000028 Ry

     total magnetization       =     1.25 Bohr mag/cell
     absolute magnetization    =     1.84 Bohr mag/cell

     iteration # 13     ecut=   100.00 Ry     beta= 0.30
     Davidson diagonalization with overlap
     ethr =  1.41E-10,  avg # of iterations =  3.5

     total cpu time spent up to now is       81.5 secs

     total energy              =    -589.72407376 Ry
     estimated scf accuracy    <       0.00000014 Ry

     total magnetization       =     1.25 Bohr mag/cell
     absolute magnetization    =     1.84 Bohr mag/cell

     iteration # 14     ecut=   100.00 Ry     beta= 0.30
     Davidson diagonalization with overlap
     ethr =  6.90E-11,  avg # of iterations =  3.5

     total cpu time spent up to now is       82.6 secs

     total energy              =    -589.72407389 Ry
     estimated scf accuracy    <       0.00000002 Ry

     total magnetization       =     1.25 Bohr mag/cell
     absolute magnetization    =     1.85 Bohr mag/cell

     iteration # 15     ecut=   100.00 Ry     beta= 0.30
     Davidson diagonalization with overlap
     ethr =  1.06E-11,  avg # of iterations =  4.0

     total cpu time spent up to now is       83.8 secs

     total energy              =    -589.72407390 Ry
     estimated scf accuracy    <       0.00000001 Ry

     total magnetization       =     1.25 Bohr mag/cell
     absolute magnetization    =     1.85 Bohr mag/cell

     iteration # 16     ecut=   100.00 Ry     beta= 0.30
     Davidson diagonalization with overlap
     ethr =  6.37E-12,  avg # of iterations =  3.5

     total cpu time spent up to now is       84.8 secs

     total energy              =    -589.72407392 Ry
     estimated scf accuracy    <          2.7E-09 Ry

     total magnetization       =     1.25 Bohr mag/cell
     absolute magnetization    =     1.85 Bohr mag/cell

     iteration # 17     ecut=   100.00 Ry     beta= 0.30
     Davidson diagonalization with overlap
     ethr =  1.39E-12,  avg # of iterations =  3.5

     total cpu time spent up to now is       85.9 secs

     total energy              =    -589.72407392 Ry
     estimated scf accuracy    <          1.2E-09 Ry

     total magnetization       =     1.25 Bohr mag/cell
     absolute magnetization    =     1.85 Bohr mag/cell

     iteration # 18     ecut=   100.00 Ry     beta= 0.30
     Davidson diagonalization with overlap
     ethr =  6.18E-13,  avg # of iterations =  4.0

     total cpu time spent up to now is       87.0 secs

     total energy              =    -589.72407392 Ry
     estimated scf accuracy    <          4.3E-10 Ry

     total magnetization       =     1.25 Bohr mag/cell
     absolute magnetization    =     1.85 Bohr mag/cell

     iteration # 19     ecut=   100.00 Ry     beta= 0.30
     Davidson diagonalization with overlap
     ethr =  2.18E-13,  avg # of iterations =  5.0

     total cpu time spent up to now is       88.2 secs

     total energy              =    -589.72407392 Ry
     estimated scf accuracy    <          1.3E-10 Ry

     total magnetization       =     1.25 Bohr mag/cell
     absolute magnetization    =     1.85 Bohr mag/cell

     iteration # 20     ecut=   100.00 Ry     beta= 0.30
     Davidson diagonalization with overlap
     ethr =  1.00E-13,  avg # of iterations =  4.0

     Magnetic moment per site  (integrated on atomic sphere of radius R)
     atom   1 (R=0.045)  charge=  1.5231  magn= -0.0072
     atom   2 (R=0.045)  charge=  1.5242  magn=  0.0449
     atom   3 (R=0.045)  charge=  1.5226  magn= -0.0073
     atom   4 (R=0.045)  charge=  1.5245  magn=  0.0120
     atom   5 (R=0.045)  charge=  1.5192  magn= -0.0038
     atom   6 (R=0.045)  charge=  1.5103  magn=  0.0041
     atom   7 (R=0.045)  charge=  1.5238  magn= -0.0031
     atom   8 (R=0.045)  charge=  1.5012  magn=  0.0030
     atom   9 (R=0.045)  charge=  1.5150  magn= -0.0050
     atom  10 (R=0.045)  charge=  1.5240  magn=  0.0121
     atom  11 (R=0.045)  charge=  1.5226  magn= -0.0073
     atom  12 (R=0.045)  charge=  1.5245  magn=  0.0120
     atom  13 (R=0.045)  charge=  1.5253  magn= -0.0061
     atom  14 (R=0.045)  charge=  1.5353  magn=  0.0297
     atom  15 (R=0.045)  charge=  1.5267  magn= -0.0046
     atom  16 (R=0.045)  charge=  1.4339  magn=  0.0493
     atom  17 (R=0.045)  charge=  1.5095  magn= -0.0090
     atom  18 (R=0.045)  charge=  1.5263  magn=  0.0354
     atom  19 (R=0.045)  charge=  1.5213  magn= -0.0071
     atom  20 (R=0.045)  charge=  1.5233  magn=  0.0124
     atom  21 (R=0.045)  charge=  1.5192  magn= -0.0038
     atom  22 (R=0.045)  charge=  1.5103  magn=  0.0041
     atom  23 (R=0.045)  charge=  1.5267  magn= -0.0046
     atom  24 (R=0.045)  charge=  1.4339  magn=  0.0490
     atom  25 (R=0.045)  charge=  1.4648  magn=  0.2106
     atom  26 (R=0.045)  charge=  1.5280  magn= -0.0080
     atom  27 (R=0.045)  charge=  1.5133  magn=  0.0144
     atom  28 (R=0.045)  charge=  1.5199  magn= -0.0031
     atom  29 (R=0.045)  charge=  1.5197  magn=  0.0084
     atom  30 (R=0.045)  charge=  1.5238  magn= -0.0031
     atom  31 (R=0.045)  charge=  1.5012  magn=  0.0030
     atom  32 (R=0.045)  charge=  1.5095  magn= -0.0090
     atom  33 (R=0.045)  charge=  1.5263  magn=  0.0354
     atom  34 (R=0.045)  charge=  1.5280  magn= -0.0080
     atom  35 (R=0.045)  charge=  1.5133  magn=  0.0144
     atom  36 (R=0.045)  charge=  1.5254  magn= -0.0064
     atom  37 (R=0.045)  charge=  1.5234  magn=  0.0039
     atom  38 (R=0.045)  charge=  1.5246  magn= -0.0041
     atom  39 (R=0.045)  charge=  1.5234  magn=  0.0033
     atom  40 (R=0.045)  charge=  1.5150  magn= -0.0050
     atom  41 (R=0.045)  charge=  1.5240  magn=  0.0121
     atom  42 (R=0.045)  charge=  1.5213  magn= -0.0071
     atom  43 (R=0.045)  charge=  1.5233  magn=  0.0124
     atom  44 (R=0.045)  charge=  1.5199  magn= -0.0031
     atom  45 (R=0.045)  charge=  1.5197  magn=  0.0084
     atom  46 (R=0.045)  charge=  1.5246  magn= -0.0041
     atom  47 (R=0.045)  charge=  1.5234  magn=  0.0033
     atom  48 (R=0.045)  charge=  1.5246  magn= -0.0042
     atom  49 (R=0.045)  charge=  1.5169  magn=  0.0080

     total cpu time spent up to now is       89.5 secs

     End of self-consistent calculation

 ------ SPIN UP ------------


          k = 0.0000 0.0000 0.0000 (119010 PWs)   bands (ev):

   -23.8053 -22.9585 -22.9359 -22.9131 -22.9086 -22.8993 -22.5028 -21.1316
   -21.1200 -21.0610 -21.0543 -21.0374 -20.7072 -20.2273 -20.2128 -20.1855
   -20.1351 -20.1172 -19.3437 -18.0524 -18.0234 -18.0147 -17.9986 -17.9945
   -17.5109 -17.0590 -17.0548 -17.0510 -16.8259 -16.8043 -16.2298 -15.7533
   -15.7305 -15.7283 -15.4091 -15.3992 -14.3628 -13.3461 -13.3331 -13.3252
   -13.3216 -13.3185 -13.2379 -13.2319 -13.1749 -13.1707 -12.7028 -12.6964
   -12.0707 -11.9002 -11.8859 -11.8072 -11.8006 -11.4481 -11.4299 -11.1774
   -10.8559 -10.8335 -10.8248 -10.8149 -10.8132 -10.6760 -10.6631 -10.6620
   -10.5521 -10.5398 -10.5171 -10.4967 -10.4554 -10.4438 -10.4199  -9.5288
    -9.5278  -8.9845  -8.9584  -8.9435  -8.8092  -8.7268  -8.7231  -8.7231
    -8.7150  -8.6578  -8.3634  -8.2113  -7.8426  -7.8250  -7.8163  -7.7920
    -7.7787  -7.7309  -7.7171  -7.0303  -5.8729  -5.8630  -5.8040  -5.8024
    -5.8020  -4.7755  -4.5320  -4.1188  -3.0614  -3.0356  -3.0256  -2.9247
    -2.9199  -2.1869  -1.2196  -1.1863  -1.1449  -1.0083  -1.0071  -0.9714
    -0.3014  -0.1223   0.2738   0.2787   0.2792   0.3086   0.3086   0.4353
     0.4840   0.5785   0.5790   0.6956   0.7375   1.1453   1.1498   1.1623
     1.1640   1.1664

 ------ SPIN DOWN ----------


          k = 0.0000 0.0000 0.0000 (119010 PWs)   bands (ev):

   -23.7842 -22.9270 -22.9174 -22.9004 -22.8919 -22.8748 -22.4369 -21.1003
   -21.0977 -21.0410 -21.0190 -21.0177 -20.6720 -20.1927 -20.1875 -20.1707
   -20.0947 -20.0856 -19.2796 -18.0313 -18.0001 -17.9969 -17.9815 -17.9488
   -17.4185 -17.0417 -17.0373 -17.0346 -16.7825 -16.7785 -16.1907 -15.7207
   -15.7137 -15.7072 -15.3754 -15.3498 -14.2809 -13.3275 -13.3084 -13.3031
   -13.2844 -13.2800 -13.2212 -13.2173 -13.1611 -13.1593 -12.6781 -12.6532
   -12.0330 -11.8792 -11.8510 -11.7877 -11.7793 -11.4160 -11.4103 -11.1029
   -10.8173 -10.8080 -10.7925 -10.7855 -10.7716 -10.6513 -10.6346 -10.6215
   -10.5347 -10.5310 -10.5094 -10.4881 -10.4347 -10.4245 -10.3229  -9.5051
    -9.4752  -8.9670  -8.9367  -8.9245  -8.8015  -8.6829  -8.6827  -8.6691
    -8.6555  -8.6487  -8.3029  -7.8552  -7.7800  -7.7728  -7.7714  -7.7642
    -7.7387  -7.6950  -7.6515  -6.9325  -5.8100  -5.7963  -5.7908  -5.7826
    -5.7562  -4.4921  -3.8992  -3.3669  -3.0434  -3.0218  -3.0059  -2.8573
    -2.8160  -2.1208  -1.1956  -1.1658  -1.0687  -0.9619  -0.9535  -0.9126
    -0.2268  -0.1040   0.2807   0.2821   0.2836   0.3168   0.3186   0.4685
     0.4940   0.6324   0.6331   0.7636   0.8682   1.1489   1.1519   1.1680
     1.1714   1.1874

     the Fermi energy is    -4.4972 ev

!    total energy              =    -589.72407392 Ry
     estimated scf accuracy    <          2.6E-11 Ry
     smearing contrib. (-TS)   =      -0.00228440 Ry
     internal energy E=F+TS    =    -589.72178953 Ry

     The total energy is F=E-TS. E is the sum of the following terms:
     one-electron contribution =   -6595.32680986 Ry
     hartree contribution      =    3315.64508960 Ry
     xc contribution           =    -209.58262832 Ry
     ewald contribution        =    2899.54255906 Ry

     total magnetization       =     1.25 Bohr mag/cell
     absolute magnetization    =     1.85 Bohr mag/cell

     convergence has been achieved in  20 iterations

     Forces acting on atoms (cartesian axes, Ry/au):

     atom    1 type  1   force =    -0.00136230   -0.00000051    0.00000000
     atom    2 type  1   force =     0.00165886    0.00000085    0.00000001
     atom    3 type  1   force =    -0.00087976    0.00101215   -0.00000000
     atom    4 type  1   force =    -0.00345159    0.00042635   -0.00000002
     atom    5 type  1   force =     0.00513541   -0.00011760   -0.00000001
     atom    6 type  1   force =    -0.00572019   -0.00476341   -0.00000000
     atom    7 type  1   force =     0.01020744   -0.00783354   -0.00000001
     atom    8 type  1   force =    -0.00048026   -0.00656297   -0.00000000
     atom    9 type  1   force =    -0.00015303   -0.01083361   -0.00000001
     atom   10 type  1   force =    -0.00142538    0.00251841    0.00000000
     atom   11 type  1   force =    -0.00087963   -0.00101309    0.00000001
     atom   12 type  1   force =    -0.00345155   -0.00042688   -0.00000001
     atom   13 type  1   force =     0.00255386   -0.00000061   -0.00000001
     atom   14 type  1   force =    -0.01745468    0.00000072    0.00000001
     atom   15 type  1   force =    -0.00044247    0.00706717   -0.00000000
     atom   16 type  2   force =    -0.01263951   -0.00863924   -0.00000001
     atom   17 type  1   force =     0.00134260    0.00692857    0.00000001
     atom   18 type  1   force =     0.00224694    0.00416395   -0.00000000
     atom   19 type  1   force =    -0.00532538   -0.01085810    0.00000000
     atom   20 type  1   force =     0.00052273    0.00275187   -0.00000000
     atom   21 type  1   force =     0.00513783    0.00012241    0.00000000
     atom   22 type  1   force =    -0.00570950    0.00476652    0.00000001
     atom   23 type  1   force =    -0.00044253   -0.00705668   -0.00000000
     atom   24 type  2   force =    -0.01260727    0.00864692    0.00000001
     atom   25 type  2   force =     0.01053535   -0.00002234    0.00000001
     atom   26 type  1   force =     0.01164923    0.00382839    0.00000000
     atom   27 type  1   force =     0.00532346    0.00479710   -0.00000001
     atom   28 type  1   force =    -0.00218297   -0.00549852   -0.00000000
     atom   29 type  1   force =     0.00140199   -0.00016525   -0.00000000
     atom   30 type  1   force =     0.01020585    0.00783870   -0.00000000
     atom   31 type  1   force =    -0.00047631    0.00656593   -0.00000000
     atom   32 type  1   force =     0.00134425   -0.00692434   -0.00000000
     atom   33 type  1   force =     0.00225188   -0.00417098    0.00000000
     atom   34 type  1   force =     0.01165420   -0.00382305    0.00000000
     atom   35 type  1   force =     0.00532623   -0.00480622    0.00000000
     atom   36 type  1   force =    -0.00441119    0.00000368   -0.00000000
     atom   37 type  1   force =     0.00015474   -0.00000053   -0.00000000
     atom   38 type  1   force =    -0.00086461    0.00097750    0.00000001
     atom   39 type  1   force =     0.00015333    0.00129112   -0.00000000
     atom   40 type  1   force =    -0.00015186    0.01083338    0.00000001
     atom   41 type  1   force =    -0.00142564   -0.00251764    0.00000001
     atom   42 type  1   force =    -0.00532254    0.01085201   -0.00000000
     atom   43 type  1   force =     0.00052179   -0.00275172   -0.00000001
     atom   44 type  1   force =    -0.00217816    0.00549780   -0.00000000
     atom   45 type  1   force =     0.00140028    0.00016313    0.00000000
     atom   46 type  1   force =    -0.00086394   -0.00097650   -0.00000001
     atom   47 type  1   force =     0.00015297   -0.00129158   -0.00000000
     atom   48 type  1   force =     0.00313520   -0.00000009    0.00000000
     atom   49 type  1   force =    -0.00371412    0.00000036    0.00000001

     Total force =     0.053250     Total SCF correction =     0.000005
     Energy error            =      9.2E-03 Ry
     Gradient error          =      1.7E-02 Ry/Bohr

     number of scf cycles    =   3
     number of bfgs steps    =   2

     energy             old  =    -589.7148276137 Ry
     energy             new  =    -589.7240739222 Ry

     CASE: energy            _new < energy            _old

     new trust radius        =       0.0150980975 bohr
     new conv_thr            =            1.0E-10 Ry


ATOMIC_POSITIONS (crystal)
C                0.0666101120        0.0666100929        0.0000000005
C                0.1333403961        0.1333404076       -0.0000000006
C                0.0665388222        0.2668253806       -0.0000000009
C                0.1329716851        0.3333927130       -0.0000000008
C                0.0670568336        0.4666564777        0.0000000002
C                0.1337520364        0.5333137758        0.0000000000
C                0.0671053552        0.6664737876       -0.0000000002
C                0.1347329995        0.7317056777        0.0000000002
C                0.0675074394        0.8658972010        0.0000000004
C                0.1330564658        0.9335219179        0.0000000001
C                0.2668253790        0.0665388162       -0.0000000009
C                0.3333926909        0.1329717013       -0.0000000002
C                0.2665863545        0.2665862650       -0.0000000007
C                0.3322581845        0.3322584614        0.0000000000
C                0.2685786319        0.4655196995       -0.0000000003
C1               0.3325071392        0.5311494777       -0.0000000004
C                0.2706742193        0.6632462352       -0.0000000004
C                0.3332150762        0.7339043943       -0.0000000001
C                0.2668564285        0.8661758442       -0.0000000001
C                0.3333912624        0.9335290847       -0.0000000001
C                0.4666563251        0.0670572168        0.0000000001
C                0.5333138423        0.1337528189        0.0000000007
C                0.4655189184        0.2685806909        0.0000000009
C1               0.5311501261        0.3325099962        0.0000000003
C1               0.5362997374        0.5362958767        0.0000000005
C                0.4665251986        0.6659051155        0.0000000004
C                0.5336386404        0.7331466185        0.0000000007
C                0.4667346571        0.8664113889        0.0000000002
C                0.5335380503        0.9333031955       -0.0000000005
C                0.6664736644        0.0671055313        0.0000000004
C                0.7317056399        0.1347331927       -0.0000000002
C                0.6632462997        0.2706748584        0.0000000004
C                0.7339051955        0.3332147984        0.0000000001
C                0.6659063971        0.4665252472        0.0000000002
C                0.7331473777        0.5336384167       -0.0000000003
C                0.6666336322        0.6666336942       -0.0000000003
C                0.7334600419        0.7334600008       -0.0000000004
C                0.6667797693        0.8666012724       -0.0000000004
C                0.7334392990        0.9330616160       -0.0000000002
C                0.8658971658        0.0675075548        0.0000000000
C                0.9335219181        0.1330564687        0.0000000003
C                0.8661760797        0.2668562666        0.0000000001
C                0.9335290811        0.3333912784       -0.0000000000
C                0.8664115681        0.4667347289        0.0000000002
C                0.9333032278        0.5335379306        0.0000000004
C                0.8666012580        0.6667797936        0.0000000003
C                0.9330616604        0.7334392559        0.0000000001
C                0.8666295045        0.8666295060       -0.0000000002
C                0.9331715457        0.9331715928        0.0000000003



     Writing config-only to output data dir /home/gregb26/links/scratch/qe_tmp/vacancy_relaxed/series/5x5/nspin2/vac_5x5_relax_nspin2.save/ :
     XML data file
     NEW-OLD atomic charge density approx. for the potential

     negative rho (up, down):  9.845E-07 1.042E-06
     Generating pointlists ...

     total cpu time spent up to now is       90.3 secs

     per-process dynamical memory:   167.8 Mb

     Self-consistent Calculation

     iteration #  1     ecut=   100.00 Ry     beta= 0.30
     Davidson diagonalization with overlap
     ethr =  1.00E-06,  avg # of iterations =  5.5

     negative rho (up, down):  9.644E-07 9.765E-07

     total cpu time spent up to now is       92.1 secs

     total energy              =    -589.72510830 Ry
     estimated scf accuracy    <       0.00143698 Ry

     total magnetization       =     1.43 Bohr mag/cell
     absolute magnetization    =     2.01 Bohr mag/cell

     iteration #  2     ecut=   100.00 Ry     beta= 0.30
     Davidson diagonalization with overlap
     ethr =  7.33E-07,  avg # of iterations =  2.0

     negative rho (up, down):  8.261E-07 8.374E-07

     total cpu time spent up to now is       93.1 secs

     total energy              =    -589.72499674 Ry
     estimated scf accuracy    <       0.00220748 Ry

     total magnetization       =     1.19 Bohr mag/cell
     absolute magnetization    =     1.81 Bohr mag/cell

     iteration #  3     ecut=   100.00 Ry     beta= 0.30
     Davidson diagonalization with overlap
     ethr =  7.33E-07,  avg # of iterations =  1.5

     negative rho (up, down):  4.583E-07 4.672E-07

     total cpu time spent up to now is       94.0 secs

     total energy              =    -589.72528304 Ry
     estimated scf accuracy    <       0.00112499 Ry

     total magnetization       =     1.48 Bohr mag/cell
     absolute magnetization    =     2.06 Bohr mag/cell

     iteration #  4     ecut=   100.00 Ry     beta= 0.30
     Davidson diagonalization with overlap
     ethr =  5.74E-07,  avg # of iterations =  1.0

     negative rho (up, down):  1.866E-07 1.926E-07

     total cpu time spent up to now is       94.8 secs

     total energy              =    -589.72532561 Ry
     estimated scf accuracy    <       0.00021744 Ry

     total magnetization       =     1.41 Bohr mag/cell
     absolute magnetization    =     2.02 Bohr mag/cell

     iteration #  5     ecut=   100.00 Ry     beta= 0.30
     Davidson diagonalization with overlap
     ethr =  1.11E-07,  avg # of iterations =  2.0

     negative rho (up, down):  3.765E-08 4.040E-08

     total cpu time spent up to now is       95.7 secs

     total energy              =    -589.72535034 Ry
     estimated scf accuracy    <       0.00006273 Ry

     total magnetization       =     1.40 Bohr mag/cell
     absolute magnetization    =     2.02 Bohr mag/cell

     iteration #  6     ecut=   100.00 Ry     beta= 0.30
     Davidson diagonalization with overlap
     ethr =  3.20E-08,  avg # of iterations =  2.5

     total cpu time spent up to now is       96.9 secs

     total energy              =    -589.72536626 Ry
     estimated scf accuracy    <       0.00003180 Ry

     total magnetization       =     1.40 Bohr mag/cell
     absolute magnetization    =     2.03 Bohr mag/cell

     iteration #  7     ecut=   100.00 Ry     beta= 0.30
     Davidson diagonalization with overlap
     ethr =  1.62E-08,  avg # of iterations =  2.5

     negative rho (up, down):  2.308E-08 2.085E-08

     total cpu time spent up to now is       97.8 secs

     total energy              =    -589.72537691 Ry
     estimated scf accuracy    <       0.00002646 Ry

     total magnetization       =     1.41 Bohr mag/cell
     absolute magnetization    =     2.05 Bohr mag/cell

     iteration #  8     ecut=   100.00 Ry     beta= 0.30
     Davidson diagonalization with overlap
     ethr =  1.35E-08,  avg # of iterations =  3.0

     negative rho (up, down):  4.126E-08 3.731E-08

     total cpu time spent up to now is       98.9 secs

     total energy              =    -589.72538576 Ry
     estimated scf accuracy    <       0.00001161 Ry

     total magnetization       =     1.42 Bohr mag/cell
     absolute magnetization    =     2.07 Bohr mag/cell

     iteration #  9     ecut=   100.00 Ry     beta= 0.30
     Davidson diagonalization with overlap
     ethr =  5.92E-09,  avg # of iterations =  3.5

     negative rho (up, down):  3.911E-08 3.539E-08

     total cpu time spent up to now is      100.3 secs

     total energy              =    -589.72539276 Ry
     estimated scf accuracy    <       0.00000248 Ry

     total magnetization       =     1.43 Bohr mag/cell
     absolute magnetization    =     2.09 Bohr mag/cell

     iteration # 10     ecut=   100.00 Ry     beta= 0.30
     Davidson diagonalization with overlap
     ethr =  1.27E-09,  avg # of iterations =  4.0

     negative rho (up, down):  2.056E-08 1.862E-08

     total cpu time spent up to now is      101.4 secs

     total energy              =    -589.72539410 Ry
     estimated scf accuracy    <       0.00000090 Ry

     total magnetization       =     1.43 Bohr mag/cell
     absolute magnetization    =     2.10 Bohr mag/cell

     iteration # 11     ecut=   100.00 Ry     beta= 0.30
     Davidson diagonalization with overlap
     ethr =  4.59E-10,  avg # of iterations =  4.5

     total cpu time spent up to now is      102.7 secs

     total energy              =    -589.72539514 Ry
     estimated scf accuracy    <       0.00000045 Ry

     total magnetization       =     1.43 Bohr mag/cell
     absolute magnetization    =     2.11 Bohr mag/cell

     iteration # 12     ecut=   100.00 Ry     beta= 0.30
     Davidson diagonalization with overlap
     ethr =  2.29E-10,  avg # of iterations =  3.5

     total cpu time spent up to now is      103.9 secs

     total energy              =    -589.72539553 Ry
     estimated scf accuracy    <       0.00000003 Ry

     total magnetization       =     1.44 Bohr mag/cell
     absolute magnetization    =     2.12 Bohr mag/cell

     iteration # 13     ecut=   100.00 Ry     beta= 0.30
     Davidson diagonalization with overlap
     ethr =  1.44E-11,  avg # of iterations =  4.5

     total cpu time spent up to now is      105.2 secs

     total energy              =    -589.72539557 Ry
     estimated scf accuracy    <       0.00000001 Ry

     total magnetization       =     1.43 Bohr mag/cell
     absolute magnetization    =     2.12 Bohr mag/cell

     iteration # 14     ecut=   100.00 Ry     beta= 0.30
     Davidson diagonalization with overlap
     ethr =  6.98E-12,  avg # of iterations =  4.0

     total cpu time spent up to now is      106.4 secs

     total energy              =    -589.72539559 Ry
     estimated scf accuracy    <          8.6E-09 Ry

     total magnetization       =     1.44 Bohr mag/cell
     absolute magnetization    =     2.12 Bohr mag/cell

     iteration # 15     ecut=   100.00 Ry     beta= 0.30
     Davidson diagonalization with overlap
     ethr =  4.38E-12,  avg # of iterations =  5.0

     total cpu time spent up to now is      107.9 secs

     total energy              =    -589.72539562 Ry
     estimated scf accuracy    <          2.8E-09 Ry

     total magnetization       =     1.44 Bohr mag/cell
     absolute magnetization    =     2.12 Bohr mag/cell

     iteration # 16     ecut=   100.00 Ry     beta= 0.30
     Davidson diagonalization with overlap
     ethr =  1.43E-12,  avg # of iterations =  4.5

     total cpu time spent up to now is      109.2 secs

     total energy              =    -589.72539562 Ry
     estimated scf accuracy    <          1.0E-09 Ry

     total magnetization       =     1.44 Bohr mag/cell
     absolute magnetization    =     2.12 Bohr mag/cell

     iteration # 17     ecut=   100.00 Ry     beta= 0.30
     Davidson diagonalization with overlap
     ethr =  5.13E-13,  avg # of iterations =  5.0

     total cpu time spent up to now is      111.8 secs

     total energy              =    -589.72539563 Ry
     estimated scf accuracy    <          3.7E-10 Ry

     total magnetization       =     1.44 Bohr mag/cell
     absolute magnetization    =     2.12 Bohr mag/cell

     iteration # 18     ecut=   100.00 Ry     beta= 0.30
     Davidson diagonalization with overlap
     ethr =  1.89E-13,  avg # of iterations =  4.0

     total cpu time spent up to now is      112.9 secs

     total energy              =    -589.72539563 Ry
     estimated scf accuracy    <          1.1E-10 Ry

     total magnetization       =     1.44 Bohr mag/cell
     absolute magnetization    =     2.12 Bohr mag/cell

     iteration # 19     ecut=   100.00 Ry     beta= 0.30
     Davidson diagonalization with overlap
     ethr =  1.00E-13,  avg # of iterations =  4.0

     Magnetic moment per site  (integrated on atomic sphere of radius R)
     atom   1 (R=0.045)  charge=  1.5232  magn= -0.0082
     atom   2 (R=0.045)  charge=  1.5235  magn=  0.0512
     atom   3 (R=0.045)  charge=  1.5239  magn= -0.0083
     atom   4 (R=0.045)  charge=  1.5238  magn=  0.0139
     atom   5 (R=0.045)  charge=  1.5201  magn= -0.0043
     atom   6 (R=0.045)  charge=  1.5140  magn=  0.0049
     atom   7 (R=0.045)  charge=  1.5219  magn= -0.0036
     atom   8 (R=0.045)  charge=  1.5070  magn=  0.0035
     atom   9 (R=0.045)  charge=  1.5135  magn= -0.0058
     atom  10 (R=0.045)  charge=  1.5225  magn=  0.0138
     atom  11 (R=0.045)  charge=  1.5239  magn= -0.0083
     atom  12 (R=0.045)  charge=  1.5238  magn=  0.0139
     atom  13 (R=0.045)  charge=  1.5282  magn= -0.0072
     atom  14 (R=0.045)  charge=  1.5338  magn=  0.0340
     atom  15 (R=0.045)  charge=  1.5287  magn= -0.0050
     atom  16 (R=0.045)  charge=  1.4307  magn=  0.0570
     atom  17 (R=0.045)  charge=  1.5088  magn= -0.0102
     atom  18 (R=0.045)  charge=  1.5277  magn=  0.0393
     atom  19 (R=0.045)  charge=  1.5216  magn= -0.0081
     atom  20 (R=0.045)  charge=  1.5217  magn=  0.0140
     atom  21 (R=0.045)  charge=  1.5201  magn= -0.0043
     atom  22 (R=0.045)  charge=  1.5140  magn=  0.0049
     atom  23 (R=0.045)  charge=  1.5287  magn= -0.0050
     atom  24 (R=0.045)  charge=  1.4307  magn=  0.0566
     atom  25 (R=0.045)  charge=  1.4652  magn=  0.2433
     atom  26 (R=0.045)  charge=  1.5283  magn= -0.0089
     atom  27 (R=0.045)  charge=  1.5182  magn=  0.0165
     atom  28 (R=0.045)  charge=  1.5206  magn= -0.0034
     atom  29 (R=0.045)  charge=  1.5190  magn=  0.0095
     atom  30 (R=0.045)  charge=  1.5219  magn= -0.0036
     atom  31 (R=0.045)  charge=  1.5070  magn=  0.0035
     atom  32 (R=0.045)  charge=  1.5088  magn= -0.0102
     atom  33 (R=0.045)  charge=  1.5277  magn=  0.0393
     atom  34 (R=0.045)  charge=  1.5283  magn= -0.0088
     atom  35 (R=0.045)  charge=  1.5182  magn=  0.0165
     atom  36 (R=0.045)  charge=  1.5246  magn= -0.0075
     atom  37 (R=0.045)  charge=  1.5224  magn=  0.0043
     atom  38 (R=0.045)  charge=  1.5249  magn= -0.0047
     atom  39 (R=0.045)  charge=  1.5206  magn=  0.0039
     atom  40 (R=0.045)  charge=  1.5135  magn= -0.0058
     atom  41 (R=0.045)  charge=  1.5225  magn=  0.0138
     atom  42 (R=0.045)  charge=  1.5216  magn= -0.0081
     atom  43 (R=0.045)  charge=  1.5217  magn=  0.0140
     atom  44 (R=0.045)  charge=  1.5206  magn= -0.0034
     atom  45 (R=0.045)  charge=  1.5190  magn=  0.0095
     atom  46 (R=0.045)  charge=  1.5249  magn= -0.0047
     atom  47 (R=0.045)  charge=  1.5206  magn=  0.0039
     atom  48 (R=0.045)  charge=  1.5250  magn= -0.0048
     atom  49 (R=0.045)  charge=  1.5136  magn=  0.0093

     total cpu time spent up to now is      114.1 secs

     End of self-consistent calculation

 ------ SPIN UP ------------


          k = 0.0000 0.0000 0.0000 (119010 PWs)   bands (ev):

   -23.8038 -22.9595 -22.9337 -22.9113 -22.9068 -22.9063 -22.4853 -21.1205
   -21.1204 -21.0721 -21.0431 -21.0185 -20.6956 -20.2402 -20.2093 -20.1852
   -20.1221 -20.1019 -19.3102 -18.0553 -18.0225 -18.0066 -17.9995 -17.9777
   -17.5130 -17.0648 -17.0418 -17.0397 -16.8266 -16.7904 -16.2270 -15.7335
   -15.7165 -15.7125 -15.4093 -15.3948 -14.3630 -13.3545 -13.3318 -13.3139
   -13.3107 -13.2940 -13.2432 -13.2318 -13.1660 -13.1651 -12.6979 -12.6936
   -12.0362 -11.8930 -11.8865 -11.8085 -11.7969 -11.4410 -11.4210 -11.1777
   -10.8596 -10.8355 -10.8271 -10.8203 -10.8096 -10.6559 -10.6528 -10.6525
   -10.5480 -10.5289 -10.5097 -10.4937 -10.4541 -10.4476 -10.4057  -9.5221
    -9.5156  -8.9846  -8.9478  -8.9355  -8.8005  -8.7250  -8.7216  -8.7070
    -8.6979  -8.6732  -8.3578  -8.1801  -7.8534  -7.8234  -7.8136  -7.7877
    -7.7754  -7.7287  -7.7017  -7.0116  -5.8734  -5.8581  -5.8077  -5.8009
    -5.7956  -4.7863  -4.5431  -4.0663  -3.0610  -3.0184  -3.0141  -2.9280
    -2.9114  -2.1970  -1.2162  -1.1778  -1.1429  -1.0075  -0.9974  -0.9717
    -0.3193  -0.1226   0.2713   0.2779   0.2781   0.3074   0.3095   0.4400
     0.5144   0.5721   0.5738   0.6878   0.7330   1.1434   1.1492   1.1632
     1.1658   1.1676

 ------ SPIN DOWN ----------


          k = 0.0000 0.0000 0.0000 (119010 PWs)   bands (ev):

   -23.7797 -22.9230 -22.9139 -22.8957 -22.8882 -22.8799 -22.4119 -21.0955
   -21.0851 -21.0596 -20.9956 -20.9954 -20.6548 -20.1975 -20.1867 -20.1681
   -20.0754 -20.0619 -19.2372 -18.0315 -18.0077 -17.9901 -17.9735 -17.9139
   -17.4089 -17.0464 -17.0233 -17.0177 -16.7727 -16.7655 -16.1828 -15.7000
   -15.6924 -15.6902 -15.3670 -15.3382 -14.2681 -13.3248 -13.3038 -13.2924
   -13.2704 -13.2583 -13.2190 -13.2153 -13.1539 -13.1482 -12.6724 -12.6400
   -11.9973 -11.8708 -11.8467 -11.7800 -11.7756 -11.4060 -11.3990 -11.0909
   -10.8144 -10.8011 -10.7907 -10.7821 -10.7755 -10.6327 -10.6225 -10.5976
   -10.5295 -10.5200 -10.4977 -10.4825 -10.4296 -10.4270 -10.2973  -9.4874
    -9.4637  -8.9704  -8.9161  -8.9140  -8.7906  -8.6812  -8.6720  -8.6657
    -8.6435  -8.6332  -8.2881  -7.7871  -7.7767  -7.7701  -7.7605  -7.7605
    -7.7240  -7.6764  -7.6271  -6.9022  -5.8102  -5.8084  -5.7908  -5.7667
    -5.7194  -4.4640  -3.8093  -3.1807  -3.0392  -3.0035  -2.9944  -2.8390
    -2.8003  -2.1212  -1.1908  -1.1539  -1.0546  -0.9608  -0.9368  -0.8949
    -0.2343  -0.1030   0.2794   0.2822   0.2833   0.3162   0.3206   0.4785
     0.5273   0.6316   0.6341   0.7637   0.8836   1.1476   1.1518   1.1691
     1.1725   1.1947

     the Fermi energy is    -4.4894 ev

!    total energy              =    -589.72539563 Ry
     estimated scf accuracy    <          6.1E-11 Ry
     smearing contrib. (-TS)   =      -0.00206613 Ry
     internal energy E=F+TS    =    -589.72332950 Ry

     The total energy is F=E-TS. E is the sum of the following terms:
     one-electron contribution =   -6595.62924874 Ry
     hartree contribution      =    3315.86830671 Ry
     xc contribution           =    -209.60414700 Ry
     ewald contribution        =    2899.64175953 Ry

     total magnetization       =     1.44 Bohr mag/cell
     absolute magnetization    =     2.12 Bohr mag/cell

     convergence has been achieved in  19 iterations

     Forces acting on atoms (cartesian axes, Ry/au):

     atom    1 type  1   force =    -0.00226649    0.00000045   -0.00000001
     atom    2 type  1   force =    -0.00148302   -0.00000062   -0.00000000
     atom    3 type  1   force =     0.00058340    0.00143784    0.00000000
     atom    4 type  1   force =    -0.00045794    0.00305582   -0.00000000
     atom    5 type  1   force =    -0.00545639   -0.00112448   -0.00000001
     atom    6 type  1   force =     0.00063255    0.00591310   -0.00000001
     atom    7 type  1   force =    -0.00377686   -0.00385600    0.00000000
     atom    8 type  1   force =    -0.00045344   -0.00128149   -0.00000001
     atom    9 type  1   force =    -0.00003737    0.00289695    0.00000001
     atom   10 type  1   force =    -0.00214464   -0.00458936   -0.00000000
     atom   11 type  1   force =     0.00058346   -0.00143725    0.00000000
     atom   12 type  1   force =    -0.00045823   -0.00305589   -0.00000001
     atom   13 type  1   force =    -0.00537107    0.00000036    0.00000000
     atom   14 type  1   force =    -0.00297116    0.00000168    0.00000000
     atom   15 type  1   force =    -0.00178838   -0.00309338    0.00000000
     atom   16 type  2   force =    -0.00846302   -0.00572510    0.00000000
     atom   17 type  1   force =    -0.00214890   -0.01116522    0.00000000
     atom   18 type  1   force =     0.00035507   -0.00034675   -0.00000000
     atom   19 type  1   force =     0.00038577    0.00180461    0.00000000
     atom   20 type  1   force =    -0.00216188   -0.00500112   -0.00000000
     atom   21 type  1   force =    -0.00545205    0.00112688   -0.00000001
     atom   22 type  1   force =     0.00063911   -0.00590865    0.00000000
     atom   23 type  1   force =    -0.00176914    0.00311590   -0.00000000
     atom   24 type  2   force =    -0.00842150    0.00574015    0.00000000
     atom   25 type  2   force =     0.01547163   -0.00002540    0.00000000
     atom   26 type  1   force =     0.00580394   -0.00526053    0.00000001
     atom   27 type  1   force =     0.00517680   -0.00003996   -0.00000000
     atom   28 type  1   force =     0.00517348    0.00575379    0.00000003
     atom   29 type  1   force =    -0.00018117    0.00062481    0.00000002
     atom   30 type  1   force =    -0.00377116    0.00385694   -0.00000000
     atom   31 type  1   force =    -0.00045534    0.00128255   -0.00000001
     atom   32 type  1   force =    -0.00213704    0.01117026    0.00000000
     atom   33 type  1   force =     0.00036055    0.00034031    0.00000000
     atom   34 type  1   force =     0.00582080    0.00524751   -0.00000001
     atom   35 type  1   force =     0.00518388    0.00003865   -0.00000000
     atom   36 type  1   force =     0.00284499   -0.00000432    0.00000002
     atom   37 type  1   force =    -0.00367275    0.00000130    0.00000000
     atom   38 type  1   force =     0.00152071    0.00057449   -0.00000001
     atom   39 type  1   force =     0.00522700    0.00554380    0.00000000
     atom   40 type  1   force =    -0.00003598   -0.00289401   -0.00000000
     atom   41 type  1   force =    -0.00214435    0.00458469   -0.00000000
     atom   42 type  1   force =     0.00038681   -0.00180564   -0.00000000
     atom   43 type  1   force =    -0.00215815    0.00499892   -0.00000001
     atom   44 type  1   force =     0.00517419   -0.00575604   -0.00000001
     atom   45 type  1   force =    -0.00018014   -0.00062276   -0.00000000
     atom   46 type  1   force =     0.00151891   -0.00057640   -0.00000001
     atom   47 type  1   force =     0.00522752   -0.00554200   -0.00000000
     atom   48 type  1   force =    -0.00265360    0.00000065    0.00000000
     atom   49 type  1   force =     0.00440059   -0.00000005    0.00000001

     Total force =     0.039957     Total SCF correction =     0.000009
     Energy error            =      1.3E-03 Ry
     Gradient error          =      1.5E-02 Ry/Bohr

     number of scf cycles    =   4
     number of bfgs steps    =   3

     energy             old  =    -589.7240739222 Ry
     energy             new  =    -589.7253956270 Ry

     CASE: energy            _new < energy            _old

     new trust radius        =       0.0248733204 bohr
     new conv_thr            =            1.0E-10 Ry


ATOMIC_POSITIONS (crystal)
C                0.0665529014        0.0665528970        0.0000000004
C                0.1333238343        0.1333238256       -0.0000000006
C                0.0664624316        0.2668890907       -0.0000000010
C                0.1327902516        0.3334759039       -0.0000000012
C                0.0670477493        0.4665713473       -0.0000000002
C                0.1336918957        0.5333057439       -0.0000000002
C                0.0674902982        0.6661641501       -0.0000000003
C                0.1351600257        0.7313692682       -0.0000000000
C                0.0676660553        0.8656735996        0.0000000006
C                0.1331507276        0.9332877102        0.0000000002
C                0.2668890807        0.0664624359       -0.0000000007
C                0.3334758858        0.1327902521       -0.0000000007
C                0.2664058770        0.2664057853       -0.0000000008
C                0.3319952102        0.3319956946        0.0000000004
C                0.2683385895        0.4653770656       -0.0000000002
C1               0.3325650278        0.5303884742       -0.0000000005
C                0.2709250721        0.6628770455       -0.0000000002
C                0.3332949103        0.7338556239       -0.0000000002
C                0.2669167779        0.8660284515        0.0000000000
C                0.3334981301        0.9333088747       -0.0000000003
C                0.4665711296        0.0670485047       -0.0000000000
C                0.5333058085        0.1336933413        0.0000000009
C                0.4653755864        0.2683424719        0.0000000008
C1               0.5303896991        0.3325703262        0.0000000007
C1               0.5369177239        0.5369106167        0.0000000008
C                0.4669044783        0.6662575771        0.0000000008
C                0.5336939807        0.7334173928        0.0000000005
C                0.4667401011        0.8666036973        0.0000000010
C                0.5335255198        0.9333496836       -0.0000000000
C                0.6661639938        0.0674907619        0.0000000001
C                0.7313691185        0.1351603580       -0.0000000006
C                0.6628771564        0.2709263662        0.0000000004
C                0.7338571342        0.3332943778        0.0000000003
C                0.6662599890        0.4669044702        0.0000000000
C                0.7334186757        0.5336937282       -0.0000000004
C                0.6666575424        0.6666573836        0.0000000003
C                0.7333784761        0.7333785192       -0.0000000004
C                0.6667693107        0.8666676588       -0.0000000003
C                0.7333069083        0.9334501551       -0.0000000000
C                0.8656734877        0.0676663474        0.0000000002
C                0.9332879000        0.1331505517        0.0000000004
C                0.8660289504        0.2669164849       -0.0000000000
C                0.9333090462        0.3334981368       -0.0000000005
C                0.8666040919        0.4667401325       -0.0000000003
C                0.9333496742        0.5335254460        0.0000000003
C                0.8666676688        0.6667692398        0.0000000000
C                0.9334501406        0.7333069386        0.0000000000
C                0.8666005706        0.8666006218       -0.0000000001
C                0.9332387383        0.9332388031        0.0000000010



     Writing config-only to output data dir /home/gregb26/links/scratch/qe_tmp/vacancy_relaxed/series/5x5/nspin2/vac_5x5_relax_nspin2.save/ :
     XML data file
     NEW-OLD atomic charge density approx. for the potential

     negative rho (up, down):  1.022E-06 1.065E-06
     Generating pointlists ...

     total cpu time spent up to now is      114.9 secs

     per-process dynamical memory:   167.8 Mb

     Self-consistent Calculation

     iteration #  1     ecut=   100.00 Ry     beta= 0.30
     Davidson diagonalization with overlap
     ethr =  1.00E-06,  avg # of iterations =  6.0

     negative rho (up, down):  1.013E-06 8.345E-07

     total cpu time spent up to now is      116.8 secs

     total energy              =    -589.72638653 Ry
     estimated scf accuracy    <       0.00130576 Ry

     total magnetization       =     1.62 Bohr mag/cell
     absolute magnetization    =     2.28 Bohr mag/cell

     iteration #  2     ecut=   100.00 Ry     beta= 0.30
     Davidson diagonalization with overlap
     ethr =  6.66E-07,  avg # of iterations =  2.0

     negative rho (up, down):  8.962E-07 7.392E-07

     total cpu time spent up to now is      117.8 secs

     total energy              =    -589.72626069 Ry
     estimated scf accuracy    <       0.00427089 Ry

     total magnetization       =     1.29 Bohr mag/cell
     absolute magnetization    =     2.01 Bohr mag/cell

     iteration #  3     ecut=   100.00 Ry     beta= 0.30
     Davidson diagonalization with overlap
     ethr =  6.66E-07,  avg # of iterations =  1.5

     negative rho (up, down):  5.116E-07 4.243E-07

     total cpu time spent up to now is      118.7 secs

     total energy              =    -589.72668565 Ry
     estimated scf accuracy    <       0.00040836 Ry

     total magnetization       =     1.59 Bohr mag/cell
     absolute magnetization    =     2.27 Bohr mag/cell

     iteration #  4     ecut=   100.00 Ry     beta= 0.30
     Davidson diagonalization with overlap
     ethr =  2.08E-07,  avg # of iterations =  1.0

     negative rho (up, down):  1.649E-07 1.387E-07

     total cpu time spent up to now is      119.6 secs

     total energy              =    -589.72671200 Ry
     estimated scf accuracy    <       0.00016531 Ry

     total magnetization       =     1.57 Bohr mag/cell
     absolute magnetization    =     2.26 Bohr mag/cell

     iteration #  5     ecut=   100.00 Ry     beta= 0.30
     Davidson diagonalization with overlap
     ethr =  8.43E-08,  avg # of iterations =  2.0

     negative rho (up, down):  2.655E-08 2.305E-08

     total cpu time spent up to now is      120.4 secs

     total energy              =    -589.72673288 Ry
     estimated scf accuracy    <       0.00006202 Ry

     total magnetization       =     1.57 Bohr mag/cell
     absolute magnetization    =     2.27 Bohr mag/cell

     iteration #  6     ecut=   100.00 Ry     beta= 0.30
     Davidson diagonalization with overlap
     ethr =  3.16E-08,  avg # of iterations =  2.0

     total cpu time spent up to now is      121.3 secs

     total energy              =    -589.72674586 Ry
     estimated scf accuracy    <       0.00002599 Ry

     total magnetization       =     1.57 Bohr mag/cell
     absolute magnetization    =     2.28 Bohr mag/cell

     iteration #  7     ecut=   100.00 Ry     beta= 0.30
     Davidson diagonalization with overlap
     ethr =  1.33E-08,  avg # of iterations =  3.0

     negative rho (up, down):  3.002E-08 2.215E-08

     total cpu time spent up to now is      122.3 secs

     total energy              =    -589.72675449 Ry
     estimated scf accuracy    <       0.00001499 Ry

     total magnetization       =     1.58 Bohr mag/cell
     absolute magnetization    =     2.29 Bohr mag/cell

     iteration #  8     ecut=   100.00 Ry     beta= 0.30
     Davidson diagonalization with overlap
     ethr =  7.65E-09,  avg # of iterations =  2.0

     negative rho (up, down):  3.761E-08 2.784E-08

     total cpu time spent up to now is      123.2 secs

     total energy              =    -589.72675943 Ry
     estimated scf accuracy    <       0.00000874 Ry

     total magnetization       =     1.58 Bohr mag/cell
     absolute magnetization    =     2.31 Bohr mag/cell

     iteration #  9     ecut=   100.00 Ry     beta= 0.30
     Davidson diagonalization with overlap
     ethr =  4.46E-09,  avg # of iterations =  3.0

     negative rho (up, down):  2.429E-08 1.806E-08

     total cpu time spent up to now is      124.2 secs

     total energy              =    -589.72676305 Ry
     estimated scf accuracy    <       0.00000311 Ry

     total magnetization       =     1.59 Bohr mag/cell
     absolute magnetization    =     2.32 Bohr mag/cell

     iteration # 10     ecut=   100.00 Ry     beta= 0.30
     Davidson diagonalization with overlap
     ethr =  1.59E-09,  avg # of iterations =  3.5

     negative rho (up, down):  1.057E-08 7.865E-09

     total cpu time spent up to now is      125.2 secs

     total energy              =    -589.72676464 Ry
     estimated scf accuracy    <       0.00000078 Ry

     total magnetization       =     1.59 Bohr mag/cell
     absolute magnetization    =     2.33 Bohr mag/cell

     iteration # 11     ecut=   100.00 Ry     beta= 0.30
     Davidson diagonalization with overlap
     ethr =  3.96E-10,  avg # of iterations =  4.0

     total cpu time spent up to now is      126.3 secs

     total energy              =    -589.72676545 Ry
     estimated scf accuracy    <       0.00000014 Ry

     total magnetization       =     1.59 Bohr mag/cell
     absolute magnetization    =     2.34 Bohr mag/cell

     iteration # 12     ecut=   100.00 Ry     beta= 0.30
     Davidson diagonalization with overlap
     ethr =  6.89E-11,  avg # of iterations =  5.0

     total cpu time spent up to now is      127.5 secs

     total energy              =    -589.72676572 Ry
     estimated scf accuracy    <       0.00000002 Ry

     total magnetization       =     1.59 Bohr mag/cell
     absolute magnetization    =     2.35 Bohr mag/cell

     iteration # 13     ecut=   100.00 Ry     beta= 0.30
     Davidson diagonalization with overlap
     ethr =  1.09E-11,  avg # of iterations =  5.0

     total cpu time spent up to now is      128.8 secs

     total energy              =    -589.72676576 Ry
     estimated scf accuracy    <       0.00000002 Ry

     total magnetization       =     1.59 Bohr mag/cell
     absolute magnetization    =     2.35 Bohr mag/cell

     iteration # 14     ecut=   100.00 Ry     beta= 0.30
     Davidson diagonalization with overlap
     ethr =  8.85E-12,  avg # of iterations =  3.0

     total cpu time spent up to now is      129.7 secs

     total energy              =    -589.72676576 Ry
     estimated scf accuracy    <          4.8E-09 Ry

     total magnetization       =     1.59 Bohr mag/cell
     absolute magnetization    =     2.35 Bohr mag/cell

     iteration # 15     ecut=   100.00 Ry     beta= 0.30
     Davidson diagonalization with overlap
     ethr =  2.47E-12,  avg # of iterations =  5.0

     total cpu time spent up to now is      131.1 secs

     total energy              =    -589.72676579 Ry
     estimated scf accuracy    <          1.9E-09 Ry

     total magnetization       =     1.59 Bohr mag/cell
     absolute magnetization    =     2.35 Bohr mag/cell

     iteration # 16     ecut=   100.00 Ry     beta= 0.30
     Davidson diagonalization with overlap
     ethr =  9.93E-13,  avg # of iterations =  4.0

     total cpu time spent up to now is      132.4 secs

     total energy              =    -589.72676579 Ry
     estimated scf accuracy    <          6.4E-10 Ry

     total magnetization       =     1.59 Bohr mag/cell
     absolute magnetization    =     2.35 Bohr mag/cell

     iteration # 17     ecut=   100.00 Ry     beta= 0.30
     Davidson diagonalization with overlap
     ethr =  3.28E-13,  avg # of iterations =  5.0

     total cpu time spent up to now is      133.7 secs

     total energy              =    -589.72676580 Ry
     estimated scf accuracy    <          1.9E-10 Ry

     total magnetization       =     1.59 Bohr mag/cell
     absolute magnetization    =     2.35 Bohr mag/cell

     iteration # 18     ecut=   100.00 Ry     beta= 0.30
     Davidson diagonalization with overlap
     ethr =  1.00E-13,  avg # of iterations =  4.5

     Magnetic moment per site  (integrated on atomic sphere of radius R)
     atom   1 (R=0.045)  charge=  1.5214  magn= -0.0091
     atom   2 (R=0.045)  charge=  1.5217  magn=  0.0563
     atom   3 (R=0.045)  charge=  1.5236  magn= -0.0092
     atom   4 (R=0.045)  charge=  1.5248  magn=  0.0155
     atom   5 (R=0.045)  charge=  1.5212  magn= -0.0047
     atom   6 (R=0.045)  charge=  1.5162  magn=  0.0056
     atom   7 (R=0.045)  charge=  1.5231  magn= -0.0040
     atom   8 (R=0.045)  charge=  1.5076  magn=  0.0039
     atom   9 (R=0.045)  charge=  1.5132  magn= -0.0064
     atom  10 (R=0.045)  charge=  1.5221  magn=  0.0153
     atom  11 (R=0.045)  charge=  1.5236  magn= -0.0092
     atom  12 (R=0.045)  charge=  1.5248  magn=  0.0155
     atom  13 (R=0.045)  charge=  1.5292  magn= -0.0081
     atom  14 (R=0.045)  charge=  1.5333  magn=  0.0377
     atom  15 (R=0.045)  charge=  1.5310  magn= -0.0055
     atom  16 (R=0.045)  charge=  1.4313  magn=  0.0628
     atom  17 (R=0.045)  charge=  1.5066  magn= -0.0112
     atom  18 (R=0.045)  charge=  1.5257  magn=  0.0436
     atom  19 (R=0.045)  charge=  1.5224  magn= -0.0090
     atom  20 (R=0.045)  charge=  1.5216  magn=  0.0152
     atom  21 (R=0.045)  charge=  1.5212  magn= -0.0047
     atom  22 (R=0.045)  charge=  1.5162  magn=  0.0055
     atom  23 (R=0.045)  charge=  1.5310  magn= -0.0055
     atom  24 (R=0.045)  charge=  1.4312  magn=  0.0623
     atom  25 (R=0.045)  charge=  1.4710  magn=  0.2693
     atom  26 (R=0.045)  charge=  1.5305  magn= -0.0096
     atom  27 (R=0.045)  charge=  1.5208  magn=  0.0186
     atom  28 (R=0.045)  charge=  1.5223  magn= -0.0037
     atom  29 (R=0.045)  charge=  1.5200  magn=  0.0104
     atom  30 (R=0.045)  charge=  1.5231  magn= -0.0040
     atom  31 (R=0.045)  charge=  1.5076  magn=  0.0039
     atom  32 (R=0.045)  charge=  1.5066  magn= -0.0112
     atom  33 (R=0.045)  charge=  1.5258  magn=  0.0436
     atom  34 (R=0.045)  charge=  1.5305  magn= -0.0095
     atom  35 (R=0.045)  charge=  1.5208  magn=  0.0186
     atom  36 (R=0.045)  charge=  1.5260  magn= -0.0083
     atom  37 (R=0.045)  charge=  1.5220  magn=  0.0048
     atom  38 (R=0.045)  charge=  1.5234  magn= -0.0052
     atom  39 (R=0.045)  charge=  1.5191  magn=  0.0043
     atom  40 (R=0.045)  charge=  1.5132  magn= -0.0064
     atom  41 (R=0.045)  charge=  1.5221  magn=  0.0153
     atom  42 (R=0.045)  charge=  1.5224  magn= -0.0090
     atom  43 (R=0.045)  charge=  1.5216  magn=  0.0152
     atom  44 (R=0.045)  charge=  1.5224  magn= -0.0036
     atom  45 (R=0.045)  charge=  1.5200  magn=  0.0104
     atom  46 (R=0.045)  charge=  1.5234  magn= -0.0052
     atom  47 (R=0.045)  charge=  1.5191  magn=  0.0044
     atom  48 (R=0.045)  charge=  1.5232  magn= -0.0054
     atom  49 (R=0.045)  charge=  1.5118  magn=  0.0105

     total cpu time spent up to now is      134.8 secs

     End of self-consistent calculation

 ------ SPIN UP ------------


          k = 0.0000 0.0000 0.0000 (119010 PWs)   bands (ev):

   -23.8032 -22.9639 -22.9348 -22.9086 -22.9076 -22.9040 -22.4703 -21.1276
   -21.1222 -21.0742 -21.0353 -21.0057 -20.6891 -20.2463 -20.2042 -20.1805
   -20.1151 -20.0915 -19.2998 -18.0599 -18.0246 -18.0034 -17.9975 -17.9556
   -17.5136 -17.0664 -17.0395 -17.0337 -16.8250 -16.7802 -16.2168 -15.7287
   -15.7160 -15.7024 -15.4077 -15.3877 -14.3517 -13.3585 -13.3251 -13.3072
   -13.2997 -13.2847 -13.2395 -13.2302 -13.1649 -13.1642 -12.6980 -12.6931
   -12.0179 -11.8883 -11.8877 -11.8068 -11.7889 -11.4352 -11.4196 -11.1663
   -10.8655 -10.8337 -10.8273 -10.8260 -10.8078 -10.6518 -10.6455 -10.6434
   -10.5485 -10.5347 -10.5097 -10.4868 -10.4474 -10.4375 -10.3947  -9.5169
    -9.5127  -8.9751  -8.9459  -8.9253  -8.8029  -8.7332  -8.7247  -8.7016
    -8.6905  -8.6716  -8.3552  -8.1187  -7.8642  -7.8219  -7.8083  -7.7820
    -7.7707  -7.7243  -7.6991  -7.0073  -5.8738  -5.8543  -5.8102  -5.7949
    -5.7907  -4.7921  -4.5523  -3.9886  -3.0585  -3.0161  -3.0034  -2.9281
    -2.9052  -2.1894  -1.2111  -1.1765  -1.1445  -1.0075  -0.9886  -0.9719
    -0.3204  -0.1231   0.2696   0.2766   0.2767   0.3079   0.3105   0.4445
     0.5237   0.5730   0.5750   0.6924   0.7452   1.1417   1.1484   1.1639
     1.1664   1.1696

 ------ SPIN DOWN ----------


          k = 0.0000 0.0000 0.0000 (119010 PWs)   bands (ev):

   -23.7765 -22.9238 -22.9144 -22.8908 -22.8822 -22.8782 -22.3898 -21.1003
   -21.0831 -21.0599 -20.9829 -20.9805 -20.6438 -20.1992 -20.1788 -20.1620
   -20.0617 -20.0486 -19.2192 -18.0330 -18.0087 -17.9907 -17.9629 -17.8847
   -17.3993 -17.0456 -17.0154 -17.0123 -16.7659 -16.7532 -16.1679 -15.6909
   -15.6867 -15.6809 -15.3565 -15.3284 -14.2475 -13.3236 -13.2940 -13.2847
   -13.2584 -13.2514 -13.2110 -13.2051 -13.1512 -13.1443 -12.6703 -12.6335
   -11.9761 -11.8642 -11.8434 -11.7706 -11.7697 -11.3966 -11.3952 -11.0731
   -10.8151 -10.8000 -10.7874 -10.7764 -10.7738 -10.6264 -10.6095 -10.5856
   -10.5290 -10.5248 -10.4983 -10.4752 -10.4171 -10.4109 -10.2763  -9.4858
    -9.4486  -8.9592  -8.9097  -8.9019  -8.7917  -8.6857  -8.6697  -8.6644
    -8.6295  -8.6213  -8.2771  -7.7730  -7.7697  -7.7554  -7.7518  -7.7389
    -7.7088  -7.6710  -7.5682  -6.8884  -5.8092  -5.8084  -5.7927  -5.7564
    -5.6921  -4.4367  -3.7061  -3.0341  -3.0299  -2.9994  -2.9825  -2.8253
    -2.7880  -2.1044  -1.1832  -1.1491  -1.0476  -0.9597  -0.9230  -0.8843
    -0.2270  -0.1008   0.2785   0.2813   0.2829   0.3173   0.3226   0.4874
     0.5392   0.6385   0.6412   0.7755   0.9135   1.1466   1.1515   1.1701
     1.1738   1.2002

     the Fermi energy is    -4.4826 ev

!    total energy              =    -589.72676580 Ry
     estimated scf accuracy    <          7.9E-11 Ry
     smearing contrib. (-TS)   =      -0.00161356 Ry
     internal energy E=F+TS    =    -589.72515224 Ry

     The total energy is F=E-TS. E is the sum of the following terms:
     one-electron contribution =   -6595.98928060 Ry
     hartree contribution      =    3316.10954593 Ry
     xc contribution           =    -209.63140497 Ry
     ewald contribution        =    2899.78598740 Ry

     total magnetization       =     1.59 Bohr mag/cell
     absolute magnetization    =     2.35 Bohr mag/cell

     convergence has been achieved in  18 iterations

     Forces acting on atoms (cartesian axes, Ry/au):

     atom    1 type  1   force =    -0.00387445   -0.00000207    0.00000000
     atom    2 type  1   force =    -0.00187198   -0.00000026    0.00000001
     atom    3 type  1   force =    -0.00204269    0.00309223    0.00000001
     atom    4 type  1   force =    -0.00174662    0.00039509    0.00000001
     atom    5 type  1   force =    -0.00337987    0.00176341   -0.00000000
     atom    6 type  1   force =    -0.00302696    0.00244469   -0.00000000
     atom    7 type  1   force =    -0.00288660    0.00114689   -0.00000000
     atom    8 type  1   force =    -0.00139951    0.00104793   -0.00000000
     atom    9 type  1   force =    -0.00047903    0.00389832   -0.00000001
     atom   10 type  1   force =     0.00001550   -0.00135003    0.00000001
     atom   11 type  1   force =    -0.00204404   -0.00309433    0.00000000
     atom   12 type  1   force =    -0.00174623   -0.00039341    0.00000000
     atom   13 type  1   force =    -0.00389454   -0.00000065   -0.00000000
     atom   14 type  1   force =    -0.00045687    0.00000484   -0.00000000
     atom   15 type  1   force =    -0.00482619   -0.00293428   -0.00000000
     atom   16 type  2   force =    -0.00229217   -0.00806386    0.00000000
     atom   17 type  1   force =    -0.00282000   -0.01361911    0.00000001
     atom   18 type  1   force =    -0.00027718   -0.00628058    0.00000000
     atom   19 type  1   force =     0.00030871    0.00190204   -0.00000001
     atom   20 type  1   force =     0.00005274   -0.00106528   -0.00000000
     atom   21 type  1   force =    -0.00337457   -0.00176163   -0.00000001
     atom   22 type  1   force =    -0.00301442   -0.00243200    0.00000000
     atom   23 type  1   force =    -0.00478813    0.00295545   -0.00000000
     atom   24 type  2   force =    -0.00225126    0.00808925    0.00000000
     atom   25 type  2   force =     0.01056415   -0.00001950   -0.00000001
     atom   26 type  1   force =     0.00412310   -0.00182310   -0.00000000
     atom   27 type  1   force =     0.00651771    0.00026049   -0.00000001
     atom   28 type  1   force =     0.00423864    0.00358332   -0.00000001
     atom   29 type  1   force =     0.00093593    0.00150678    0.00000000
     atom   30 type  1   force =    -0.00288237   -0.00114490    0.00000000
     atom   31 type  1   force =    -0.00139598   -0.00104505    0.00000001
     atom   32 type  1   force =    -0.00280579    0.01362204    0.00000000
     atom   33 type  1   force =    -0.00026626    0.00626990   -0.00000000
     atom   34 type  1   force =     0.00414766    0.00179209    0.00000001
     atom   35 type  1   force =     0.00652948   -0.00026649    0.00000002
     atom   36 type  1   force =     0.00471142   -0.00000240   -0.00000001
     atom   37 type  1   force =     0.00329780   -0.00000028   -0.00000001
     atom   38 type  1   force =     0.00281497    0.00035501    0.00000002
     atom   39 type  1   force =     0.00051727    0.00104537    0.00000000
     atom   40 type  1   force =    -0.00047913   -0.00389623    0.00000000
     atom   41 type  1   force =     0.00001621    0.00134761   -0.00000001
     atom   42 type  1   force =     0.00031038   -0.00190589   -0.00000000
     atom   43 type  1   force =     0.00005590    0.00106401    0.00000002
     atom   44 type  1   force =     0.00424063   -0.00358569    0.00000000
     atom   45 type  1   force =     0.00093524   -0.00150538   -0.00000001
     atom   46 type  1   force =     0.00281418   -0.00035351    0.00000002
     atom   47 type  1   force =     0.00051588   -0.00104353   -0.00000002
     atom   48 type  1   force =     0.00131398    0.00000139   -0.00000002
     atom   49 type  1   force =     0.00134533    0.00000127   -0.00000001

     Total force =     0.035037     Total SCF correction =     0.000009
     Energy error            =      1.4E-03 Ry
     Gradient error          =      1.4E-02 Ry/Bohr

     number of scf cycles    =   5
     number of bfgs steps    =   4

     energy             old  =    -589.7253956270 Ry
     energy             new  =    -589.7267657954 Ry

     CASE: energy            _new < energy            _old

     new trust radius        =       0.0273606524 bohr
     new conv_thr            =            1.0E-10 Ry


ATOMIC_POSITIONS (crystal)
C                0.0664466203        0.0664464832        0.0000000004
C                0.1332916431        0.1332916249       -0.0000000003
C                0.0662677819        0.2669834285       -0.0000000010
C                0.1326149500        0.3334865423       -0.0000000015
C                0.0669696782        0.4665634980       -0.0000000007
C                0.1336034813        0.5331866215       -0.0000000005
C                0.0677998847        0.6659385709       -0.0000000006
C                0.1355323860        0.7310419834       -0.0000000003
C                0.0677808603        0.8654781333        0.0000000006
C                0.1332166816        0.9331208795        0.0000000004
C                0.2669834640        0.0662676935       -0.0000000005
C                0.3334864864        0.1326149968       -0.0000000009
C                0.2662154837        0.2662153329       -0.0000000010
C                0.3317195200        0.3317204581        0.0000000007
C                0.2680571275        0.4651457492       -0.0000000002
C1               0.3328061031        0.5294777374       -0.0000000006
C                0.2713746410        0.6622597918        0.0000000002
C                0.3335443665        0.7336303556       -0.0000000004
C                0.2669755984        0.8658661441        0.0000000000
C                0.3335659441        0.9331769253       -0.0000000005
C                0.4665632423        0.0669708889       -0.0000000003
C                0.5331865365        0.1336060920        0.0000000011
C                0.4651437639        0.2680636168        0.0000000007
C1               0.5294793618        0.3328147622        0.0000000011
C1               0.5375975770        0.5375867628        0.0000000008
C                0.4672707770        0.6666848947        0.0000000009
C                0.5338016119        0.7337833652        0.0000000000
C                0.4667712218        0.8668087016        0.0000000013
C                0.5334996813        0.9334521197        0.0000000002
C                0.6659383359        0.0678007115        0.0000000001
C                0.7310417317        0.1355330265       -0.0000000007
C                0.6622600710        0.2713767437        0.0000000004
C                0.7336329637        0.3335434883        0.0000000004
C                0.6666894339        0.4672702732        0.0000000002
C                0.7337855073        0.5338012835        0.0000000000
C                0.6667292353        0.6667288810        0.0000000003
C                0.7333942435        0.7333943046       -0.0000000008
C                0.6667890556        0.8667710632        0.0000000003
C                0.7331929147        0.9337321087        0.0000000002
C                0.8654779180        0.0677813282        0.0000000005
C                0.9331212585        0.1332163460        0.0000000003
C                0.8658670499        0.2669750787       -0.0000000002
C                0.9331772890        0.3335659585       -0.0000000005
C                0.8668093847        0.4667712139       -0.0000000006
C                0.9334520419        0.5334996282        0.0000000002
C                0.8667710196        0.6667889783        0.0000000003
C                0.9337319807        0.7331930113       -0.0000000004
C                0.8666273205        0.8666274842       -0.0000000004
C                0.9332781022        0.9332782679        0.0000000011



     Writing config-only to output data dir /home/gregb26/links/scratch/qe_tmp/vacancy_relaxed/series/5x5/nspin2/vac_5x5_relax_nspin2.save/ :
     XML data file
     NEW-OLD atomic charge density approx. for the potential

     negative rho (up, down):  1.166E-06 1.219E-06
     Generating pointlists ...

     total cpu time spent up to now is      135.5 secs

     per-process dynamical memory:   167.8 Mb

     Self-consistent Calculation

     iteration #  1     ecut=   100.00 Ry     beta= 0.30
     Davidson diagonalization with overlap
     ethr =  1.00E-06,  avg # of iterations =  6.0

     negative rho (up, down):  1.089E-06 8.707E-07

     total cpu time spent up to now is      137.2 secs

     total energy              =    -589.72783856 Ry
     estimated scf accuracy    <       0.00100997 Ry

     total magnetization       =     1.74 Bohr mag/cell
     absolute magnetization    =     2.48 Bohr mag/cell

     iteration #  2     ecut=   100.00 Ry     beta= 0.30
     Davidson diagonalization with overlap
     ethr =  5.15E-07,  avg # of iterations =  2.0

     negative rho (up, down):  9.357E-07 7.497E-07

     total cpu time spent up to now is      138.2 secs

     total energy              =    -589.72781543 Ry
     estimated scf accuracy    <       0.00181384 Ry

     total magnetization       =     1.53 Bohr mag/cell
     absolute magnetization    =     2.31 Bohr mag/cell

     iteration #  3     ecut=   100.00 Ry     beta= 0.30
     Davidson diagonalization with overlap
     ethr =  5.15E-07,  avg # of iterations =  1.5

     negative rho (up, down):  5.623E-07 4.533E-07

     total cpu time spent up to now is      139.2 secs

     total energy              =    -589.72805635 Ry
     estimated scf accuracy    <       0.00035889 Ry

     total magnetization       =     1.73 Bohr mag/cell
     absolute magnetization    =     2.48 Bohr mag/cell

     iteration #  4     ecut=   100.00 Ry     beta= 0.30
     Davidson diagonalization with overlap
     ethr =  1.83E-07,  avg # of iterations =  1.0

     negative rho (up, down):  1.553E-07 1.274E-07

     total cpu time spent up to now is      140.1 secs

     total energy              =    -589.72808787 Ry
     estimated scf accuracy    <       0.00012181 Ry

     total magnetization       =     1.71 Bohr mag/cell
     absolute magnetization    =     2.47 Bohr mag/cell

     iteration #  5     ecut=   100.00 Ry     beta= 0.30
     Davidson diagonalization with overlap
     ethr =  6.21E-08,  avg # of iterations =  2.0

     negative rho (up, down):  1.882E-08 1.590E-08

     total cpu time spent up to now is      141.1 secs

     total energy              =    -589.72810981 Ry
     estimated scf accuracy    <       0.00003905 Ry

     total magnetization       =     1.71 Bohr mag/cell
     absolute magnetization    =     2.49 Bohr mag/cell

     iteration #  6     ecut=   100.00 Ry     beta= 0.30
     Davidson diagonalization with overlap
     ethr =  1.99E-08,  avg # of iterations =  3.0

     negative rho (up, down):  1.021E-08 6.980E-09

     total cpu time spent up to now is      142.3 secs

     total energy              =    -589.72812179 Ry
     estimated scf accuracy    <       0.00001753 Ry

     total magnetization       =     1.72 Bohr mag/cell
     absolute magnetization    =     2.50 Bohr mag/cell

     iteration #  7     ecut=   100.00 Ry     beta= 0.30
     Davidson diagonalization with overlap
     ethr =  8.94E-09,  avg # of iterations =  2.5

     negative rho (up, down):  2.963E-08 2.061E-08

     total cpu time spent up to now is      143.5 secs

     total energy              =    -589.72812911 Ry
     estimated scf accuracy    <       0.00000995 Ry

     total magnetization       =     1.72 Bohr mag/cell
     absolute magnetization    =     2.51 Bohr mag/cell

     iteration #  8     ecut=   100.00 Ry     beta= 0.30
     Davidson diagonalization with overlap
     ethr =  5.08E-09,  avg # of iterations =  3.0

     negative rho (up, down):  2.843E-08 1.986E-08

     total cpu time spent up to now is      144.5 secs

     total energy              =    -589.72813388 Ry
     estimated scf accuracy    <       0.00000361 Ry

     total magnetization       =     1.73 Bohr mag/cell
     absolute magnetization    =     2.53 Bohr mag/cell

     iteration #  9     ecut=   100.00 Ry     beta= 0.30
     Davidson diagonalization with overlap
     ethr =  1.84E-09,  avg # of iterations =  3.5

     negative rho (up, down):  1.913E-08 1.338E-08

     total cpu time spent up to now is      145.8 secs

     total energy              =    -589.72813591 Ry
     estimated scf accuracy    <       0.00000125 Ry

     total magnetization       =     1.73 Bohr mag/cell
     absolute magnetization    =     2.54 Bohr mag/cell

     iteration # 10     ecut=   100.00 Ry     beta= 0.30
     Davidson diagonalization with overlap
     ethr =  6.37E-10,  avg # of iterations =  4.0

     total cpu time spent up to now is      147.0 secs

     total energy              =    -589.72813677 Ry
     estimated scf accuracy    <       0.00000036 Ry

     total magnetization       =     1.73 Bohr mag/cell
     absolute magnetization    =     2.55 Bohr mag/cell

     iteration # 11     ecut=   100.00 Ry     beta= 0.30
     Davidson diagonalization with overlap
     ethr =  1.82E-10,  avg # of iterations =  4.0

     total cpu time spent up to now is      148.2 secs

     total energy              =    -589.72813723 Ry
     estimated scf accuracy    <       0.00000010 Ry

     total magnetization       =     1.74 Bohr mag/cell
     absolute magnetization    =     2.55 Bohr mag/cell

     iteration # 12     ecut=   100.00 Ry     beta= 0.30
     Davidson diagonalization with overlap
     ethr =  5.01E-11,  avg # of iterations =  4.0

     total cpu time spent up to now is      149.4 secs

     total energy              =    -589.72813740 Ry
     estimated scf accuracy    <       0.00000002 Ry

     total magnetization       =     1.74 Bohr mag/cell
     absolute magnetization    =     2.56 Bohr mag/cell

     iteration # 13     ecut=   100.00 Ry     beta= 0.30
     Davidson diagonalization with overlap
     ethr =  1.04E-11,  avg # of iterations =  4.0

     total cpu time spent up to now is      150.7 secs

     total energy              =    -589.72813743 Ry
     estimated scf accuracy    <       0.00000001 Ry

     total magnetization       =     1.74 Bohr mag/cell
     absolute magnetization    =     2.56 Bohr mag/cell

     iteration # 14     ecut=   100.00 Ry     beta= 0.30
     Davidson diagonalization with overlap
     ethr =  5.69E-12,  avg # of iterations =  4.0

     total cpu time spent up to now is      152.1 secs

     total energy              =    -589.72813745 Ry
     estimated scf accuracy    <          3.2E-09 Ry

     total magnetization       =     1.74 Bohr mag/cell
     absolute magnetization    =     2.56 Bohr mag/cell

     iteration # 15     ecut=   100.00 Ry     beta= 0.30
     Davidson diagonalization with overlap
     ethr =  1.64E-12,  avg # of iterations =  5.0

     total cpu time spent up to now is      154.0 secs

     total energy              =    -589.72813746 Ry
     estimated scf accuracy    <          1.2E-09 Ry

     total magnetization       =     1.74 Bohr mag/cell
     absolute magnetization    =     2.56 Bohr mag/cell

     iteration # 16     ecut=   100.00 Ry     beta= 0.30
     Davidson diagonalization with overlap
     ethr =  5.90E-13,  avg # of iterations =  5.0

     total cpu time spent up to now is      155.3 secs

     total energy              =    -589.72813747 Ry
     estimated scf accuracy    <          3.7E-10 Ry

     total magnetization       =     1.74 Bohr mag/cell
     absolute magnetization    =     2.56 Bohr mag/cell

     iteration # 17     ecut=   100.00 Ry     beta= 0.30
     Davidson diagonalization with overlap
     ethr =  1.90E-13,  avg # of iterations =  5.0

     total cpu time spent up to now is      156.6 secs

     total energy              =    -589.72813747 Ry
     estimated scf accuracy    <          1.3E-10 Ry

     total magnetization       =     1.74 Bohr mag/cell
     absolute magnetization    =     2.56 Bohr mag/cell

     iteration # 18     ecut=   100.00 Ry     beta= 0.30
     Davidson diagonalization with overlap
     ethr =  1.00E-13,  avg # of iterations =  4.5

     Magnetic moment per site  (integrated on atomic sphere of radius R)
     atom   1 (R=0.045)  charge=  1.5203  magn= -0.0100
     atom   2 (R=0.045)  charge=  1.5194  magn=  0.0615
     atom   3 (R=0.045)  charge=  1.5238  magn= -0.0101
     atom   4 (R=0.045)  charge=  1.5252  magn=  0.0169
     atom   5 (R=0.045)  charge=  1.5228  magn= -0.0051
     atom   6 (R=0.045)  charge=  1.5184  magn=  0.0061
     atom   7 (R=0.045)  charge=  1.5239  magn= -0.0044
     atom   8 (R=0.045)  charge=  1.5070  magn=  0.0043
     atom   9 (R=0.045)  charge=  1.5125  magn= -0.0070
     atom  10 (R=0.045)  charge=  1.5217  magn=  0.0167
     atom  11 (R=0.045)  charge=  1.5238  magn= -0.0101
     atom  12 (R=0.045)  charge=  1.5252  magn=  0.0169
     atom  13 (R=0.045)  charge=  1.5304  magn= -0.0089
     atom  14 (R=0.045)  charge=  1.5337  magn=  0.0411
     atom  15 (R=0.045)  charge=  1.5330  magn= -0.0059
     atom  16 (R=0.045)  charge=  1.4303  magn=  0.0677
     atom  17 (R=0.045)  charge=  1.5038  magn= -0.0121
     atom  18 (R=0.045)  charge=  1.5236  magn=  0.0476
     atom  19 (R=0.045)  charge=  1.5221  magn= -0.0099
     atom  20 (R=0.045)  charge=  1.5218  magn=  0.0164
     atom  21 (R=0.045)  charge=  1.5228  magn= -0.0051
     atom  22 (R=0.045)  charge=  1.5183  magn=  0.0061
     atom  23 (R=0.045)  charge=  1.5330  magn= -0.0059
     atom  24 (R=0.045)  charge=  1.4302  magn=  0.0669
     atom  25 (R=0.045)  charge=  1.4757  magn=  0.2929
     atom  26 (R=0.045)  charge=  1.5329  magn= -0.0102
     atom  27 (R=0.045)  charge=  1.5235  magn=  0.0204
     atom  28 (R=0.045)  charge=  1.5242  magn= -0.0038
     atom  29 (R=0.045)  charge=  1.5214  magn=  0.0112
     atom  30 (R=0.045)  charge=  1.5239  magn= -0.0044
     atom  31 (R=0.045)  charge=  1.5070  magn=  0.0043
     atom  32 (R=0.045)  charge=  1.5038  magn= -0.0121
     atom  33 (R=0.045)  charge=  1.5236  magn=  0.0476
     atom  34 (R=0.045)  charge=  1.5329  magn= -0.0102
     atom  35 (R=0.045)  charge=  1.5235  magn=  0.0204
     atom  36 (R=0.045)  charge=  1.5270  magn= -0.0090
     atom  37 (R=0.045)  charge=  1.5217  magn=  0.0051
     atom  38 (R=0.045)  charge=  1.5228  magn= -0.0057
     atom  39 (R=0.045)  charge=  1.5181  magn=  0.0048
     atom  40 (R=0.045)  charge=  1.5125  magn= -0.0070
     atom  41 (R=0.045)  charge=  1.5218  magn=  0.0167
     atom  42 (R=0.045)  charge=  1.5221  magn= -0.0099
     atom  43 (R=0.045)  charge=  1.5218  magn=  0.0164
     atom  44 (R=0.045)  charge=  1.5242  magn= -0.0038
     atom  45 (R=0.045)  charge=  1.5214  magn=  0.0112
     atom  46 (R=0.045)  charge=  1.5228  magn= -0.0057
     atom  47 (R=0.045)  charge=  1.5181  magn=  0.0048
     atom  48 (R=0.045)  charge=  1.5219  magn= -0.0058
     atom  49 (R=0.045)  charge=  1.5108  magn=  0.0115

     total cpu time spent up to now is      157.8 secs

     End of self-consistent calculation

 ------ SPIN UP ------------


          k = 0.0000 0.0000 0.0000 (119010 PWs)   bands (ev):

   -23.8033 -22.9686 -22.9387 -22.9047 -22.9027 -22.9025 -22.4569 -21.1296
   -21.1238 -21.0753 -21.0300 -20.9967 -20.6859 -20.2468 -20.2024 -20.1708
   -20.1133 -20.0825 -19.2897 -18.0609 -18.0287 -18.0055 -17.9902 -17.9375
   -17.5138 -17.0676 -17.0366 -17.0316 -16.8222 -16.7691 -16.2077 -15.7256
   -15.7132 -15.6966 -15.4027 -15.3810 -14.3414 -13.3589 -13.3176 -13.3028
   -13.2931 -13.2790 -13.2360 -13.2296 -13.1642 -13.1628 -12.6946 -12.6911
   -12.0003 -11.8891 -11.8829 -11.8032 -11.7793 -11.4332 -11.4194 -11.1553
   -10.8714 -10.8371 -10.8265 -10.8250 -10.8062 -10.6511 -10.6379 -10.6321
   -10.5450 -10.5435 -10.5089 -10.4813 -10.4407 -10.4284 -10.3854  -9.5136
    -9.5009  -8.9709  -8.9416  -8.9166  -8.8069  -8.7372  -8.7275  -8.6978
    -8.6881  -8.6676  -8.3554  -8.0694  -7.8698  -7.8210  -7.8076  -7.7794
    -7.7620  -7.7190  -7.6962  -7.0025  -5.8730  -5.8538  -5.8112  -5.7923
    -5.7821  -4.7990  -4.5671  -3.9085  -3.0588  -3.0127  -2.9975  -2.9260
    -2.8983  -2.1843  -1.2117  -1.1737  -1.1495  -1.0027  -0.9790  -0.9721
    -0.3207  -0.1234   0.2676   0.2749   0.2753   0.3092   0.3114   0.4482
     0.5296   0.5736   0.5752   0.6979   0.7558   1.1398   1.1475   1.1647
     1.1670   1.1714

 ------ SPIN DOWN ----------


          k = 0.0000 0.0000 0.0000 (119010 PWs)   bands (ev):

   -23.7741 -22.9263 -22.9156 -22.8859 -22.8782 -22.8701 -22.3698 -21.1003
   -21.0818 -21.0590 -20.9729 -20.9697 -20.6366 -20.1952 -20.1747 -20.1507
   -20.0495 -20.0410 -19.2024 -18.0311 -18.0122 -17.9919 -17.9523 -17.8596
   -17.3899 -17.0445 -17.0117 -17.0067 -16.7581 -16.7403 -16.1548 -15.6851
   -15.6811 -15.6720 -15.3469 -15.3158 -14.2290 -13.3210 -13.2843 -13.2803
   -13.2514 -13.2465 -13.2037 -13.1942 -13.1482 -13.1406 -12.6673 -12.6241
   -11.9560 -11.8570 -11.8408 -11.7645 -11.7584 -11.3928 -11.3911 -11.0560
   -10.8173 -10.8001 -10.7837 -10.7724 -10.7668 -10.6197 -10.5950 -10.5780
   -10.5321 -10.5251 -10.4958 -10.4698 -10.4046 -10.3981 -10.2573  -9.4800
    -9.4318  -8.9539  -8.9007  -8.8912  -8.7943  -8.6866  -8.6678  -8.6625
    -8.6190  -8.6116  -8.2697  -7.7705  -7.7653  -7.7474  -7.7444  -7.7171
    -7.6974  -7.6658  -7.5052  -6.8750  -5.8101  -5.8070  -5.7930  -5.7447
    -5.6692  -4.4119  -3.6061  -3.0317  -2.9944  -2.9741  -2.8956  -2.8127
    -2.7744  -2.0908  -1.1811  -1.1425  -1.0438  -0.9586  -0.9093  -0.8695
    -0.2200  -0.0983   0.2775   0.2800   0.2824   0.3192   0.3245   0.4955
     0.5484   0.6444   0.6470   0.7876   0.9397   1.1455   1.1510   1.1714
     1.1752   1.2054

     the Fermi energy is    -4.4819 ev

!    total energy              =    -589.72813747 Ry
     estimated scf accuracy    <          4.8E-11 Ry
     smearing contrib. (-TS)   =      -0.00095145 Ry
     internal energy E=F+TS    =    -589.72718602 Ry

     The total energy is F=E-TS. E is the sum of the following terms:
     one-electron contribution =   -6596.30860740 Ry
     hartree contribution      =    3316.32489182 Ry
     xc contribution           =    -209.65568629 Ry
     ewald contribution        =    2899.91221586 Ry

     total magnetization       =     1.74 Bohr mag/cell
     absolute magnetization    =     2.56 Bohr mag/cell

     convergence has been achieved in  18 iterations

     Forces acting on atoms (cartesian axes, Ry/au):

     atom    1 type  1   force =    -0.00204962   -0.00000247    0.00000000
     atom    2 type  1   force =    -0.00320955   -0.00000095   -0.00000001
     atom    3 type  1   force =    -0.00282057    0.00090750   -0.00000001
     atom    4 type  1   force =    -0.00207797   -0.00020464   -0.00000001
     atom    5 type  1   force =    -0.00327909    0.00108251   -0.00000000
     atom    6 type  1   force =    -0.00280942    0.00120547   -0.00000002
     atom    7 type  1   force =    -0.00389292    0.00397255   -0.00000001
     atom    8 type  1   force =    -0.00105696    0.00136204    0.00000001
     atom    9 type  1   force =    -0.00034261    0.00364517   -0.00000000
     atom   10 type  1   force =     0.00014685   -0.00030931    0.00000000
     atom   11 type  1   force =    -0.00282207   -0.00090991   -0.00000000
     atom   12 type  1   force =    -0.00207762    0.00020521    0.00000001
     atom   13 type  1   force =    -0.00411647   -0.00000037   -0.00000000
     atom   14 type  1   force =     0.00135062    0.00000480   -0.00000001
     atom   15 type  1   force =    -0.00573979   -0.00283037   -0.00000000
     atom   16 type  2   force =     0.00160676   -0.01049296    0.00000001
     atom   17 type  1   force =    -0.00294033   -0.01298948   -0.00000000
     atom   18 type  1   force =    -0.00092378   -0.00783730    0.00000001
     atom   19 type  1   force =     0.00023784    0.00106959    0.00000000
     atom   20 type  1   force =    -0.00029559   -0.00050918    0.00000001
     atom   21 type  1   force =    -0.00327045   -0.00107966    0.00000001
     atom   22 type  1   force =    -0.00279281   -0.00118560   -0.00000001
     atom   23 type  1   force =    -0.00569519    0.00284584    0.00000000
     atom   24 type  2   force =     0.00163583    0.01052373    0.00000000
     atom   25 type  2   force =     0.00514848   -0.00000794   -0.00000001
     atom   26 type  1   force =     0.00333051   -0.00060277    0.00000001
     atom   27 type  1   force =     0.00627733   -0.00003320    0.00000002
     atom   28 type  1   force =     0.00392681    0.00268390   -0.00000001
     atom   29 type  1   force =     0.00154195    0.00041615   -0.00000000
     atom   30 type  1   force =    -0.00388792   -0.00396717   -0.00000001
     atom   31 type  1   force =    -0.00105039   -0.00135646    0.00000001
     atom   32 type  1   force =    -0.00292428    0.01299016   -0.00000001
     atom   33 type  1   force =    -0.00091016    0.00782272    0.00000001
     atom   34 type  1   force =     0.00335437    0.00056152    0.00000001
     atom   35 type  1   force =     0.00629282    0.00002623    0.00000000
     atom   36 type  1   force =     0.00800114   -0.00000163    0.00000000
     atom   37 type  1   force =     0.00683609    0.00000043    0.00000001
     atom   38 type  1   force =     0.00275255    0.00041024   -0.00000002
     atom   39 type  1   force =    -0.00041931   -0.00226938    0.00000000
     atom   40 type  1   force =    -0.00034208   -0.00364335   -0.00000000
     atom   41 type  1   force =     0.00014768    0.00030569   -0.00000001
     atom   42 type  1   force =     0.00024252   -0.00107840    0.00000001
     atom   43 type  1   force =    -0.00029226    0.00050662   -0.00000000
     atom   44 type  1   force =     0.00393119   -0.00268929    0.00000001
     atom   45 type  1   force =     0.00154097   -0.00041391   -0.00000000
     atom   46 type  1   force =     0.00275154   -0.00040867   -0.00000001
     atom   47 type  1   force =    -0.00042080    0.00227307    0.00000000
     atom   48 type  1   force =     0.00120043    0.00000158    0.00000000
     atom   49 type  1   force =     0.00020574    0.00000169   -0.00000001

     Total force =     0.036106     Total SCF correction =     0.000005
     Energy error            =      1.4E-03 Ry
     Gradient error          =      1.3E-02 Ry/Bohr

     number of scf cycles    =   6
     number of bfgs steps    =   5

     energy             old  =    -589.7267657954 Ry
     energy             new  =    -589.7281374673 Ry

     CASE: energy            _new < energy            _old

     new trust radius        =       0.0410409787 bohr
     new conv_thr            =            1.0E-10 Ry


ATOMIC_POSITIONS (crystal)
C                0.0663159512        0.0663155547        0.0000000004
C                0.1331852253        0.1331850998       -0.0000000004
C                0.0660351859        0.2670062813       -0.0000000016
C                0.1323093291        0.3334834667       -0.0000000027
C                0.0668668842        0.4664664221       -0.0000000013
C                0.1334541608        0.5329978455       -0.0000000019
C                0.0681406579        0.6656381333       -0.0000000012
C                0.1361087970        0.7305297434       -0.0000000000
C                0.0679660731        0.8651814234        0.0000000006
C                0.1332916285        0.9328607189        0.0000000005
C                0.2670064025        0.0660349248       -0.0000000004
C                0.3334834136        0.1323093806       -0.0000000011
C                0.2658811024        0.2658808936       -0.0000000014
C                0.3312866920        0.3312884046        0.0000000009
C                0.2676071495        0.4647273828       -0.0000000003
C1               0.3334874905        0.5278265240       -0.0000000001
C                0.2721868940        0.6611505748        0.0000000002
C                0.3340032302        0.7331848870       -0.0000000004
C                0.2671236075        0.8655319657        0.0000000003
C                0.3336675797        0.9329260275       -0.0000000004
C                0.4664661504        0.0668690785        0.0000000002
C                0.5329972309        0.1334593399        0.0000000008
C                0.4647249919        0.2676181558        0.0000000008
C1               0.5278281945        0.3335020083        0.0000000016
C1               0.5386172285        0.5386011103        0.0000000007
C                0.4678773497        0.6673846140        0.0000000017
C                0.5340258240        0.7344076879        0.0000000005
C                0.4668365284        0.8671692000        0.0000000021
C                0.5335378386        0.9335811055        0.0000000007
C                0.6656376079        0.0681423597       -0.0000000006
C                0.7305292448        0.1361102137       -0.0000000008
C                0.6611513356        0.2721903825       -0.0000000001
C                0.7331897293        0.3340016066        0.0000000011
C                0.6673934405        0.4678753888        0.0000000006
C                0.7344114936        0.5340254538       -0.0000000001
C                0.6669722548        0.6669715942        0.0000000013
C                0.7335197926        0.7335199925       -0.0000000001
C                0.6668158448        0.8669595623       -0.0000000004
C                0.7331429015        0.9340567961        0.0000000005
C                0.8651810560        0.0679668736        0.0000000007
C                0.9328615337        0.1332909165        0.0000000003
C                0.8655339655        0.2671225144        0.0000000000
C                0.9329268336        0.3336675343       -0.0000000013
C                0.8671706485        0.4668363431       -0.0000000007
C                0.9335808424        0.5335378818        0.0000000002
C                0.8669594265        0.6668157249       -0.0000000007
C                0.9340563525        0.7331432354       -0.0000000004
C                0.8666551508        0.8666555364        0.0000000000
C                0.9333250869        0.9333254680        0.0000000016



     Writing config-only to output data dir /home/gregb26/links/scratch/qe_tmp/vacancy_relaxed/series/5x5/nspin2/vac_5x5_relax_nspin2.save/ :
     XML data file
     NEW-OLD atomic charge density approx. for the potential

     negative rho (up, down):  2.084E-06 2.188E-06
     Generating pointlists ...

     total cpu time spent up to now is      158.5 secs

     per-process dynamical memory:   167.8 Mb

     Self-consistent Calculation

     iteration #  1     ecut=   100.00 Ry     beta= 0.30
     Davidson diagonalization with overlap
     ethr =  1.00E-06,  avg # of iterations =  6.0

     negative rho (up, down):  1.962E-06 1.635E-06

     total cpu time spent up to now is      160.5 secs

     total energy              =    -589.72971549 Ry
     estimated scf accuracy    <       0.00151860 Ry

     total magnetization       =     1.90 Bohr mag/cell
     absolute magnetization    =     2.70 Bohr mag/cell

     iteration #  2     ecut=   100.00 Ry     beta= 0.30
     Davidson diagonalization with overlap
     ethr =  7.75E-07,  avg # of iterations =  2.0

     negative rho (up, down):  1.434E-06 1.201E-06

     total cpu time spent up to now is      161.6 secs

     total energy              =    -589.72984225 Ry
     estimated scf accuracy    <       0.00054323 Ry

     total magnetization       =     1.81 Bohr mag/cell
     absolute magnetization    =     2.64 Bohr mag/cell

     iteration #  3     ecut=   100.00 Ry     beta= 0.30
     Davidson diagonalization with overlap
     ethr =  2.77E-07,  avg # of iterations =  1.5

     negative rho (up, down):  8.075E-07 6.823E-07

     total cpu time spent up to now is      162.5 secs

     total energy              =    -589.72995516 Ry
     estimated scf accuracy    <       0.00039102 Ry

     total magnetization       =     1.90 Bohr mag/cell
     absolute magnetization    =     2.72 Bohr mag/cell

     iteration #  4     ecut=   100.00 Ry     beta= 0.30
     Davidson diagonalization with overlap
     ethr =  2.00E-07,  avg # of iterations =  2.0

     negative rho (up, down):  2.202E-07 1.895E-07

     total cpu time spent up to now is      163.3 secs

     total energy              =    -589.73002022 Ry
     estimated scf accuracy    <       0.00009230 Ry

     total magnetization       =     1.88 Bohr mag/cell
     absolute magnetization    =     2.71 Bohr mag/cell

     iteration #  5     ecut=   100.00 Ry     beta= 0.30
     Davidson diagonalization with overlap
     ethr =  4.71E-08,  avg # of iterations =  4.0

     negative rho (up, down):  3.000E-08 2.679E-08

     total cpu time spent up to now is      164.4 secs

     total energy              =    -589.73005664 Ry
     estimated scf accuracy    <       0.00002747 Ry

     total magnetization       =     1.89 Bohr mag/cell
     absolute magnetization    =     2.74 Bohr mag/cell

     iteration #  6     ecut=   100.00 Ry     beta= 0.30
     Davidson diagonalization with overlap
     ethr =  1.40E-08,  avg # of iterations =  2.5

     negative rho (up, down):  1.403E-08 9.841E-09

     total cpu time spent up to now is      165.4 secs

     total energy              =    -589.73007458 Ry
     estimated scf accuracy    <       0.00001078 Ry

     total magnetization       =     1.90 Bohr mag/cell
     absolute magnetization    =     2.75 Bohr mag/cell

     iteration #  7     ecut=   100.00 Ry     beta= 0.30
     Davidson diagonalization with overlap
     ethr =  5.50E-09,  avg # of iterations =  3.5

     negative rho (up, down):  3.423E-08 2.450E-08

     total cpu time spent up to now is      166.4 secs

     total energy              =    -589.73008491 Ry
     estimated scf accuracy    <       0.00000487 Ry

     total magnetization       =     1.91 Bohr mag/cell
     absolute magnetization    =     2.78 Bohr mag/cell

     iteration #  8     ecut=   100.00 Ry     beta= 0.30
     Davidson diagonalization with overlap
     ethr =  2.48E-09,  avg # of iterations =  3.5

     negative rho (up, down):  2.711E-08 1.956E-08

     total cpu time spent up to now is      167.5 secs

     total energy              =    -589.73008935 Ry
     estimated scf accuracy    <       0.00000159 Ry

     total magnetization       =     1.91 Bohr mag/cell
     absolute magnetization    =     2.79 Bohr mag/cell

     iteration #  9     ecut=   100.00 Ry     beta= 0.30
     Davidson diagonalization with overlap
     ethr =  8.11E-10,  avg # of iterations =  4.0

     total cpu time spent up to now is      168.7 secs

     total energy              =    -589.73009157 Ry
     estimated scf accuracy    <       0.00000035 Ry

     total magnetization       =     1.91 Bohr mag/cell
     absolute magnetization    =     2.80 Bohr mag/cell

     iteration # 10     ecut=   100.00 Ry     beta= 0.30
     Davidson diagonalization with overlap
     ethr =  1.80E-10,  avg # of iterations =  4.0

     total cpu time spent up to now is      170.0 secs

     total energy              =    -589.73009222 Ry
     estimated scf accuracy    <       0.00000016 Ry

     total magnetization       =     1.91 Bohr mag/cell
     absolute magnetization    =     2.81 Bohr mag/cell

     iteration # 11     ecut=   100.00 Ry     beta= 0.30
     Davidson diagonalization with overlap
     ethr =  7.94E-11,  avg # of iterations =  3.5

     total cpu time spent up to now is      171.0 secs

     total energy              =    -589.73009239 Ry
     estimated scf accuracy    <       0.00000006 Ry

     total magnetization       =     1.92 Bohr mag/cell
     absolute magnetization    =     2.82 Bohr mag/cell

     iteration # 12     ecut=   100.00 Ry     beta= 0.30
     Davidson diagonalization with overlap
     ethr =  3.07E-11,  avg # of iterations =  4.0

     total cpu time spent up to now is      172.2 secs

     total energy              =    -589.73009248 Ry
     estimated scf accuracy    <       0.00000002 Ry

     total magnetization       =     1.92 Bohr mag/cell
     absolute magnetization    =     2.82 Bohr mag/cell

     iteration # 13     ecut=   100.00 Ry     beta= 0.30
     Davidson diagonalization with overlap
     ethr =  8.61E-12,  avg # of iterations =  4.0

     total cpu time spent up to now is      173.4 secs

     total energy              =    -589.73009252 Ry
     estimated scf accuracy    <          7.5E-09 Ry

     total magnetization       =     1.92 Bohr mag/cell
     absolute magnetization    =     2.82 Bohr mag/cell

     iteration # 14     ecut=   100.00 Ry     beta= 0.30
     Davidson diagonalization with overlap
     ethr =  3.84E-12,  avg # of iterations =  5.0

     total cpu time spent up to now is      174.7 secs

     total energy              =    -589.73009254 Ry
     estimated scf accuracy    <          2.2E-09 Ry

     total magnetization       =     1.92 Bohr mag/cell
     absolute magnetization    =     2.82 Bohr mag/cell

     iteration # 15     ecut=   100.00 Ry     beta= 0.30
     Davidson diagonalization with overlap
     ethr =  1.12E-12,  avg # of iterations =  5.0

     total cpu time spent up to now is      176.2 secs

     total energy              =    -589.73009255 Ry
     estimated scf accuracy    <          7.0E-10 Ry

     total magnetization       =     1.92 Bohr mag/cell
     absolute magnetization    =     2.83 Bohr mag/cell

     iteration # 16     ecut=   100.00 Ry     beta= 0.30
     Davidson diagonalization with overlap
     ethr =  3.59E-13,  avg # of iterations =  4.5

     total cpu time spent up to now is      177.5 secs

     total energy              =    -589.73009255 Ry
     estimated scf accuracy    <          2.7E-10 Ry

     total magnetization       =     1.92 Bohr mag/cell
     absolute magnetization    =     2.83 Bohr mag/cell

     iteration # 17     ecut=   100.00 Ry     beta= 0.30
     Davidson diagonalization with overlap
     ethr =  1.38E-13,  avg # of iterations =  5.0

     Magnetic moment per site  (integrated on atomic sphere of radius R)
     atom   1 (R=0.045)  charge=  1.5190  magn= -0.0111
     atom   2 (R=0.045)  charge=  1.5175  magn=  0.0683
     atom   3 (R=0.045)  charge=  1.5239  magn= -0.0112
     atom   4 (R=0.045)  charge=  1.5264  magn=  0.0189
     atom   5 (R=0.045)  charge=  1.5252  magn= -0.0056
     atom   6 (R=0.045)  charge=  1.5210  magn=  0.0068
     atom   7 (R=0.045)  charge=  1.5245  magn= -0.0049
     atom   8 (R=0.045)  charge=  1.5051  magn=  0.0048
     atom   9 (R=0.045)  charge=  1.5114  magn= -0.0078
     atom  10 (R=0.045)  charge=  1.5209  magn=  0.0187
     atom  11 (R=0.045)  charge=  1.5239  magn= -0.0112
     atom  12 (R=0.045)  charge=  1.5264  magn=  0.0189
     atom  13 (R=0.045)  charge=  1.5326  magn= -0.0100
     atom  14 (R=0.045)  charge=  1.5346  magn=  0.0454
     atom  15 (R=0.045)  charge=  1.5355  magn= -0.0065
     atom  16 (R=0.045)  charge=  1.4277  magn=  0.0728
     atom  17 (R=0.045)  charge=  1.4979  magn= -0.0133
     atom  18 (R=0.045)  charge=  1.5203  magn=  0.0530
     atom  19 (R=0.045)  charge=  1.5213  magn= -0.0111
     atom  20 (R=0.045)  charge=  1.5216  magn=  0.0179
     atom  21 (R=0.045)  charge=  1.5252  magn= -0.0056
     atom  22 (R=0.045)  charge=  1.5210  magn=  0.0067
     atom  23 (R=0.045)  charge=  1.5355  magn= -0.0065
     atom  24 (R=0.045)  charge=  1.4276  magn=  0.0720
     atom  25 (R=0.045)  charge=  1.4819  magn=  0.3203
     atom  26 (R=0.045)  charge=  1.5369  magn= -0.0108
     atom  27 (R=0.045)  charge=  1.5278  magn=  0.0226
     atom  28 (R=0.045)  charge=  1.5269  magn= -0.0041
     atom  29 (R=0.045)  charge=  1.5237  magn=  0.0123
     atom  30 (R=0.045)  charge=  1.5245  magn= -0.0049
     atom  31 (R=0.045)  charge=  1.5051  magn=  0.0047
     atom  32 (R=0.045)  charge=  1.4979  magn= -0.0133
     atom  33 (R=0.045)  charge=  1.5204  magn=  0.0530
     atom  34 (R=0.045)  charge=  1.5370  magn= -0.0108
     atom  35 (R=0.045)  charge=  1.5279  magn=  0.0226
     atom  36 (R=0.045)  charge=  1.5282  magn= -0.0099
     atom  37 (R=0.045)  charge=  1.5221  magn=  0.0055
     atom  38 (R=0.045)  charge=  1.5225  magn= -0.0063
     atom  39 (R=0.045)  charge=  1.5172  magn=  0.0054
     atom  40 (R=0.045)  charge=  1.5114  magn= -0.0078
     atom  41 (R=0.045)  charge=  1.5209  magn=  0.0187
     atom  42 (R=0.045)  charge=  1.5214  magn= -0.0111
     atom  43 (R=0.045)  charge=  1.5216  magn=  0.0179
     atom  44 (R=0.045)  charge=  1.5269  magn= -0.0041
     atom  45 (R=0.045)  charge=  1.5237  magn=  0.0123
     atom  46 (R=0.045)  charge=  1.5225  magn= -0.0063
     atom  47 (R=0.045)  charge=  1.5172  magn=  0.0054
     atom  48 (R=0.045)  charge=  1.5211  magn= -0.0063
     atom  49 (R=0.045)  charge=  1.5093  magn=  0.0131

     total cpu time spent up to now is      178.8 secs

     End of self-consistent calculation

 ------ SPIN UP ------------


          k = 0.0000 0.0000 0.0000 (119010 PWs)   bands (ev):

   -23.8043 -22.9773 -22.9491 -22.9033 -22.8998 -22.8846 -22.4409 -21.1301
   -21.1240 -21.0773 -21.0265 -20.9822 -20.6865 -20.2463 -20.2006 -20.1565
   -20.1110 -20.0707 -19.2772 -18.0617 -18.0345 -18.0069 -17.9807 -17.9149
   -17.5150 -17.0668 -17.0309 -17.0281 -16.8205 -16.7559 -16.2001 -15.7203
   -15.7109 -15.6850 -15.3995 -15.3708 -14.3311 -13.3602 -13.3046 -13.2998
   -13.2865 -13.2712 -13.2300 -13.2242 -13.1644 -13.1629 -12.6888 -12.6881
   -11.9817 -11.8915 -11.8729 -11.7996 -11.7653 -11.4274 -11.4203 -11.1438
   -10.8803 -10.8486 -10.8292 -10.8108 -10.8040 -10.6485 -10.6224 -10.6112
   -10.5584 -10.5429 -10.5057 -10.4755 -10.4323 -10.4156 -10.3744  -9.5139
    -9.4846  -8.9613  -8.9365  -8.9007  -8.8097  -8.7414  -8.7292  -8.6957
    -8.6883  -8.6572  -8.3594  -8.0350  -7.8764  -7.8191  -7.8059  -7.7775
    -7.7499  -7.7115  -7.6933  -6.9975  -5.8728  -5.8549  -5.8108  -5.7891
    -5.7701  -4.8109  -4.6107  -3.7904  -3.0601  -3.0075  -2.9885  -2.9259
    -2.8921  -2.1816  -1.2115  -1.1708  -1.1544  -1.0025  -0.9725  -0.9682
    -0.3224  -0.1240   0.2650   0.2724   0.2738   0.3115   0.3121   0.4517
     0.5333   0.5743   0.5750   0.7028   0.7674   1.1374   1.1463   1.1657
     1.1678   1.1735

 ------ SPIN DOWN ----------


          k = 0.0000 0.0000 0.0000 (119010 PWs)   bands (ev):

   -23.7720 -22.9337 -22.9195 -22.8791 -22.8749 -22.8511 -22.3453 -21.0988
   -21.0783 -21.0579 -20.9637 -20.9537 -20.6325 -20.1881 -20.1702 -20.1352
   -20.0333 -20.0317 -19.1819 -18.0267 -18.0171 -17.9933 -17.9394 -17.8291
   -17.3796 -17.0406 -17.0061 -16.9976 -16.7499 -16.7251 -16.1425 -15.6768
   -15.6754 -15.6561 -15.3330 -15.3037 -14.2085 -13.3183 -13.2780 -13.2690
   -13.2451 -13.2384 -13.1910 -13.1789 -13.1454 -13.1366 -12.6636 -12.6109
   -11.9342 -11.8446 -11.8378 -11.7581 -11.7426 -11.3914 -11.3806 -11.0379
   -10.8234 -10.8018 -10.7785 -10.7684 -10.7507 -10.6095 -10.5705 -10.5668
   -10.5430 -10.5223 -10.4894 -10.4633 -10.3887 -10.3812 -10.2336  -9.4771
    -9.4098  -8.9427  -8.8900  -8.8733  -8.7953  -8.6877  -8.6633  -8.6596
    -8.6026  -8.6016  -8.2635  -7.7665  -7.7596  -7.7378  -7.7349  -7.7096
    -7.6805  -7.6600  -7.4481  -6.8591  -5.8123  -5.8030  -5.7939  -5.7289
    -5.6409  -4.3832  -3.4701  -3.0295  -2.9868  -2.9619  -2.7986  -2.7597
    -2.7555  -2.0772  -1.1765  -1.1339  -1.0380  -0.9573  -0.8934  -0.8569
    -0.2117  -0.0955   0.2762   0.2782   0.2820   0.3224   0.3265   0.5050
     0.5595   0.6515   0.6535   0.8001   0.9699   1.1441   1.1504   1.1733
     1.1770   1.2118

     the Fermi energy is    -4.5052 ev

!    total energy              =    -589.73009255 Ry
     estimated scf accuracy    <          8.7E-11 Ry
     smearing contrib. (-TS)   =       0.00035538 Ry
     internal energy E=F+TS    =    -589.73044793 Ry

     The total energy is F=E-TS. E is the sum of the following terms:
     one-electron contribution =   -6596.67772459 Ry
     hartree contribution      =    3316.57463057 Ry
     xc contribution           =    -209.68213924 Ry
     ewald contribution        =    2900.05478533 Ry

     total magnetization       =     1.92 Bohr mag/cell
     absolute magnetization    =     2.83 Bohr mag/cell

     convergence has been achieved in  17 iterations

     Forces acting on atoms (cartesian axes, Ry/au):

     atom    1 type  1   force =    -0.00232489   -0.00000507    0.00000001
     atom    2 type  1   force =    -0.00288568   -0.00000146    0.00000001
     atom    3 type  1   force =    -0.00480493    0.00047935    0.00000000
     atom    4 type  1   force =    -0.00309948   -0.00247181    0.00000001
     atom    5 type  1   force =    -0.00186740    0.00156433    0.00000000
     atom    6 type  1   force =    -0.00269959   -0.00019649    0.00000001
     atom    7 type  1   force =    -0.00340669    0.00676772    0.00000000
     atom    8 type  1   force =    -0.00151168    0.00062035   -0.00000000
     atom    9 type  1   force =    -0.00062835    0.00321394    0.00000000
     atom   10 type  1   force =     0.00171044    0.00032014    0.00000000
     atom   11 type  1   force =    -0.00480786   -0.00048478   -0.00000000
     atom   12 type  1   force =    -0.00309746    0.00247196   -0.00000000
     atom   13 type  1   force =    -0.00331596   -0.00000088    0.00000000
     atom   14 type  1   force =     0.00190922    0.00000244   -0.00000001
     atom   15 type  1   force =    -0.00488839   -0.00411065   -0.00000000
     atom   16 type  2   force =     0.00698312   -0.01151670   -0.00000001
     atom   17 type  1   force =    -0.00252542   -0.01184137   -0.00000000
     atom   18 type  1   force =    -0.00146075   -0.00938059    0.00000001
     atom   19 type  1   force =    -0.00043550    0.00096955   -0.00000001
     atom   20 type  1   force =     0.00041317    0.00156926    0.00000001
     atom   21 type  1   force =    -0.00185594   -0.00156385    0.00000000
     atom   22 type  1   force =    -0.00268427    0.00022392   -0.00000001
     atom   23 type  1   force =    -0.00485346    0.00410121    0.00000001
     atom   24 type  2   force =     0.00695824    0.01154460   -0.00000001
     atom   25 type  2   force =    -0.00211652    0.00002629    0.00000000
     atom   26 type  1   force =    -0.00038895    0.00089562   -0.00000001
     atom   27 type  1   force =     0.00623109   -0.00171328    0.00000002
     atom   28 type  1   force =     0.00252197    0.00128093   -0.00000002
     atom   29 type  1   force =     0.00214744    0.00064345   -0.00000000
     atom   30 type  1   force =    -0.00340156   -0.00675835    0.00000000
     atom   31 type  1   force =    -0.00150037   -0.00061161    0.00000001
     atom   32 type  1   force =    -0.00251200    0.01183697    0.00000000
     atom   33 type  1   force =    -0.00144772    0.00936425   -0.00000001
     atom   34 type  1   force =    -0.00038135   -0.00093851   -0.00000001
     atom   35 type  1   force =     0.00624651    0.00170807    0.00000001
     atom   36 type  1   force =     0.00980080    0.00000011   -0.00000002
     atom   37 type  1   force =     0.01021771    0.00000011    0.00000001
     atom   38 type  1   force =     0.00393718   -0.00036078    0.00000001
     atom   39 type  1   force =    -0.00270494   -0.00440078   -0.00000001
     atom   40 type  1   force =    -0.00062897   -0.00321353    0.00000000
     atom   41 type  1   force =     0.00171269   -0.00032539   -0.00000000
     atom   42 type  1   force =    -0.00042720   -0.00098567   -0.00000000
     atom   43 type  1   force =     0.00041744   -0.00157530    0.00000000
     atom   44 type  1   force =     0.00252730   -0.00128902   -0.00000000
     atom   45 type  1   force =     0.00214616   -0.00063960   -0.00000001
     atom   46 type  1   force =     0.00393690    0.00036628    0.00000001
     atom   47 type  1   force =    -0.00270965    0.00440895    0.00000000
     atom   48 type  1   force =     0.00270642    0.00000304    0.00000001
     atom   49 type  1   force =    -0.00115088    0.00000262   -0.00000001

     Total force =     0.040189     Total SCF correction =     0.000007
     Energy error            =      2.0E-03 Ry
     Gradient error          =      1.2E-02 Ry/Bohr

     number of scf cycles    =   7
     number of bfgs steps    =   6

     energy             old  =    -589.7281374673 Ry
     energy             new  =    -589.7300925491 Ry

     CASE: energy            _new < energy            _old

     new trust radius        =       0.0615614680 bohr
     new conv_thr            =            1.0E-10 Ry


ATOMIC_POSITIONS (crystal)
C                0.0660479764        0.0660467022        0.0000000006
C                0.1329968850        0.1329964602        0.0000000000
C                0.0655506439        0.2669500731       -0.0000000020
C                0.1318629310        0.3332887031       -0.0000000036
C                0.0666660371        0.4663117098       -0.0000000024
C                0.1331656096        0.5327235598       -0.0000000025
C                0.0684992477        0.6652810023       -0.0000000014
C                0.1370674865        0.7295859870       -0.0000000006
C                0.0682090552        0.8647363618        0.0000000012
C                0.1335052998        0.9324390468        0.0000000007
C                0.2669505208        0.0655497664       -0.0000000000
C                0.3332887692        0.1318630334       -0.0000000021
C                0.2653052673        0.2653048890       -0.0000000015
C                0.3305493716        0.3305520844        0.0000000013
C                0.2670935985        0.4638717627       -0.0000000002
C1               0.3350397795        0.5249703317       -0.0000000005
C                0.2737467667        0.6590805796        0.0000000001
C                0.3348901249        0.7322829327       -0.0000000000
C                0.2673195667        0.8649623157        0.0000000001
C                0.3337761329        0.9325889927        0.0000000002
C                0.4663117605        0.0666699451        0.0000000001
C                0.5327213041        0.1331759416        0.0000000002
C                0.4638701374        0.2671104233        0.0000000008
C1               0.5249698117        0.3350621903        0.0000000018
C1               0.5401448121        0.5401245277        0.0000000015
C                0.4687851761        0.6684117660        0.0000000022
C                0.5346306785        0.7353895051        0.0000000013
C                0.4669283714        0.8677971526        0.0000000029
C                0.5336004727        0.9338594231        0.0000000016
C                0.6652796972        0.0685028797       -0.0000000012
C                0.7295849865        0.1370707373       -0.0000000013
C                0.6590825153        0.2737522983        0.0000000000
C                0.7322919143        0.3348869836        0.0000000013
C                0.6684277795        0.4687796718       -0.0000000003
C                0.7353961106        0.5346304479        0.0000000001
C                0.6675202166        0.6675191469        0.0000000016
C                0.7338678375        0.7338682756        0.0000000008
C                0.6669938908        0.8673079142       -0.0000000003
C                0.7330853560        0.9344743335        0.0000000005
C                0.8647357537        0.0682103219        0.0000000012
C                0.9324409166        0.1335037821        0.0000000006
C                0.8649670230        0.2673170386       -0.0000000002
C                0.9325909908        0.3337757341       -0.0000000028
C                0.8678002418        0.4669276571       -0.0000000021
C                0.9338586571        0.5336008619       -0.0000000005
C                0.8673073342        0.6669940121       -0.0000000010
C                0.9344727723        0.7330863666       -0.0000000003
C                0.8667467080        0.8667477548        0.0000000011
C                0.9333890363        0.9333899459        0.0000000029



     Writing config-only to output data dir /home/gregb26/links/scratch/qe_tmp/vacancy_relaxed/series/5x5/nspin2/vac_5x5_relax_nspin2.save/ :
     XML data file
     NEW-OLD atomic charge density approx. for the potential

     negative rho (up, down):  3.749E-06 3.919E-06
     Generating pointlists ...

     total cpu time spent up to now is      179.5 secs

     per-process dynamical memory:   167.8 Mb

     Self-consistent Calculation

     iteration #  1     ecut=   100.00 Ry     beta= 0.30
     Davidson diagonalization with overlap
     ethr =  1.00E-06,  avg # of iterations =  7.0

     negative rho (up, down):  3.363E-06 2.833E-06

     total cpu time spent up to now is      181.7 secs

     total energy              =    -589.73147057 Ry
     estimated scf accuracy    <       0.00321432 Ry

     total magnetization       =     1.99 Bohr mag/cell
     absolute magnetization    =     2.88 Bohr mag/cell

     iteration #  2     ecut=   100.00 Ry     beta= 0.30
     Davidson diagonalization with overlap
     ethr =  1.64E-06,  avg # of iterations =  2.0
     Minimization algorithm failed to find Fermi energy: reverting to bisection
     Possible cause: smearing is larger than the electronic band-gap.

     negative rho (up, down):  2.216E-06 1.881E-06

     total cpu time spent up to now is      182.6 secs

     total energy              =    -589.73170075 Ry
     estimated scf accuracy    <       0.00096438 Ry

     total magnetization       =     2.00 Bohr mag/cell
     absolute magnetization    =     2.90 Bohr mag/cell

     iteration #  3     ecut=   100.00 Ry     beta= 0.30
     Davidson diagonalization with overlap
     ethr =  4.92E-07,  avg # of iterations =  1.5
     Minimization algorithm failed to find Fermi energy: reverting to bisection
     Possible cause: smearing is larger than the electronic band-gap.

     negative rho (up, down):  7.028E-07 6.080E-07

     total cpu time spent up to now is      183.7 secs

     total energy              =    -589.73178294 Ry
     estimated scf accuracy    <       0.00036997 Ry

     total magnetization       =     2.00 Bohr mag/cell
     absolute magnetization    =     2.91 Bohr mag/cell

     iteration #  4     ecut=   100.00 Ry     beta= 0.30
     Davidson diagonalization with overlap
     ethr =  1.89E-07,  avg # of iterations =  3.0
     Minimization algorithm failed to find Fermi energy: reverting to bisection
     Possible cause: smearing is larger than the electronic band-gap.

     negative rho (up, down):  4.046E-07 3.534E-07

     total cpu time spent up to now is      184.7 secs

     total energy              =    -589.73182620 Ry
     estimated scf accuracy    <       0.00007991 Ry

     total magnetization       =     2.00 Bohr mag/cell
     absolute magnetization    =     2.93 Bohr mag/cell

     iteration #  5     ecut=   100.00 Ry     beta= 0.30
     Davidson diagonalization with overlap
     ethr =  4.08E-08,  avg # of iterations =  2.0
     Minimization algorithm failed to find Fermi energy: reverting to bisection
     Possible cause: smearing is larger than the electronic band-gap.

     negative rho (up, down):  1.566E-07 1.393E-07

     total cpu time spent up to now is      185.8 secs

     total energy              =    -589.73184789 Ry
     estimated scf accuracy    <       0.00002694 Ry

     total magnetization       =     2.00 Bohr mag/cell
     absolute magnetization    =     2.93 Bohr mag/cell

     iteration #  6     ecut=   100.00 Ry     beta= 0.30
     Davidson diagonalization with overlap
     ethr =  1.37E-08,  avg # of iterations =  2.0
     Minimization algorithm failed to find Fermi energy: reverting to bisection
     Possible cause: smearing is larger than the electronic band-gap.

     negative rho (up, down):  5.381E-08 4.903E-08

     total cpu time spent up to now is      187.0 secs

     total energy              =    -589.73185535 Ry
     estimated scf accuracy    <       0.00000496 Ry

     total magnetization       =     2.00 Bohr mag/cell
     absolute magnetization    =     2.94 Bohr mag/cell

     iteration #  7     ecut=   100.00 Ry     beta= 0.30
     Davidson diagonalization with overlap
     ethr =  2.53E-09,  avg # of iterations =  4.0
     Minimization algorithm failed to find Fermi energy: reverting to bisection
     Possible cause: smearing is larger than the electronic band-gap.

     total cpu time spent up to now is      188.2 secs

     total energy              =    -589.73185856 Ry
     estimated scf accuracy    <       0.00000171 Ry

     total magnetization       =     2.00 Bohr mag/cell
     absolute magnetization    =     2.94 Bohr mag/cell

     iteration #  8     ecut=   100.00 Ry     beta= 0.30
     Davidson diagonalization with overlap
     ethr =  8.74E-10,  avg # of iterations =  3.0
     Minimization algorithm failed to find Fermi energy: reverting to bisection
     Possible cause: smearing is larger than the electronic band-gap.

     total cpu time spent up to now is      189.3 secs

     total energy              =    -589.73185997 Ry
     estimated scf accuracy    <       0.00000059 Ry

     total magnetization       =     2.00 Bohr mag/cell
     absolute magnetization    =     2.95 Bohr mag/cell

     iteration #  9     ecut=   100.00 Ry     beta= 0.30
     Davidson diagonalization with overlap
     ethr =  3.03E-10,  avg # of iterations =  3.5
     Minimization algorithm failed to find Fermi energy: reverting to bisection
     Possible cause: smearing is larger than the electronic band-gap.

     total cpu time spent up to now is      190.6 secs

     total energy              =    -589.73186057 Ry
     estimated scf accuracy    <       0.00000016 Ry

     total magnetization       =     2.00 Bohr mag/cell
     absolute magnetization    =     2.96 Bohr mag/cell

     iteration # 10     ecut=   100.00 Ry     beta= 0.30
     Davidson diagonalization with overlap
     ethr =  8.33E-11,  avg # of iterations =  4.0
     Minimization algorithm failed to find Fermi energy: reverting to bisection
     Possible cause: smearing is larger than the electronic band-gap.

     total cpu time spent up to now is      191.8 secs

     total energy              =    -589.73186086 Ry
     estimated scf accuracy    <       0.00000009 Ry

     total magnetization       =     2.00 Bohr mag/cell
     absolute magnetization    =     2.96 Bohr mag/cell

     iteration # 11     ecut=   100.00 Ry     beta= 0.30
     Davidson diagonalization with overlap
     ethr =  4.47E-11,  avg # of iterations =  4.0
     Minimization algorithm failed to find Fermi energy: reverting to bisection
     Possible cause: smearing is larger than the electronic band-gap.

     total cpu time spent up to now is      193.1 secs

     total energy              =    -589.73186101 Ry
     estimated scf accuracy    <       0.00000004 Ry

     total magnetization       =     2.00 Bohr mag/cell
     absolute magnetization    =     2.96 Bohr mag/cell

     iteration # 12     ecut=   100.00 Ry     beta= 0.30
     Davidson diagonalization with overlap
     ethr =  2.03E-11,  avg # of iterations =  4.0
     Minimization algorithm failed to find Fermi energy: reverting to bisection
     Possible cause: smearing is larger than the electronic band-gap.

     total cpu time spent up to now is      194.3 secs

     total energy              =    -589.73186108 Ry
     estimated scf accuracy    <       0.00000001 Ry

     total magnetization       =     2.00 Bohr mag/cell
     absolute magnetization    =     2.97 Bohr mag/cell

     iteration # 13     ecut=   100.00 Ry     beta= 0.30
     Davidson diagonalization with overlap
     ethr =  5.60E-12,  avg # of iterations =  4.5
     Minimization algorithm failed to find Fermi energy: reverting to bisection
     Possible cause: smearing is larger than the electronic band-gap.

     total cpu time spent up to now is      195.6 secs

     total energy              =    -589.73186111 Ry
     estimated scf accuracy    <          4.5E-09 Ry

     total magnetization       =     2.00 Bohr mag/cell
     absolute magnetization    =     2.97 Bohr mag/cell

     iteration # 14     ecut=   100.00 Ry     beta= 0.30
     Davidson diagonalization with overlap
     ethr =  2.30E-12,  avg # of iterations =  4.5
     Minimization algorithm failed to find Fermi energy: reverting to bisection
     Possible cause: smearing is larger than the electronic band-gap.

     total cpu time spent up to now is      197.0 secs

     total energy              =    -589.73186112 Ry
     estimated scf accuracy    <          1.9E-09 Ry

     total magnetization       =     2.00 Bohr mag/cell
     absolute magnetization    =     2.97 Bohr mag/cell

     iteration # 15     ecut=   100.00 Ry     beta= 0.30
     Davidson diagonalization with overlap
     ethr =  9.74E-13,  avg # of iterations =  5.0
     Minimization algorithm failed to find Fermi energy: reverting to bisection
     Possible cause: smearing is larger than the electronic band-gap.

     total cpu time spent up to now is      198.2 secs

     total energy              =    -589.73186112 Ry
     estimated scf accuracy    <          8.0E-10 Ry

     total magnetization       =     2.00 Bohr mag/cell
     absolute magnetization    =     2.97 Bohr mag/cell

     iteration # 16     ecut=   100.00 Ry     beta= 0.30
     Davidson diagonalization with overlap
     ethr =  4.08E-13,  avg # of iterations =  5.0
     Minimization algorithm failed to find Fermi energy: reverting to bisection
     Possible cause: smearing is larger than the electronic band-gap.

     total cpu time spent up to now is      199.5 secs

     total energy              =    -589.73186112 Ry
     estimated scf accuracy    <          4.2E-10 Ry

     total magnetization       =     2.00 Bohr mag/cell
     absolute magnetization    =     2.97 Bohr mag/cell

     iteration # 17     ecut=   100.00 Ry     beta= 0.30
     Davidson diagonalization with overlap
     ethr =  2.15E-13,  avg # of iterations =  4.0
     Minimization algorithm failed to find Fermi energy: reverting to bisection
     Possible cause: smearing is larger than the electronic band-gap.

     total cpu time spent up to now is      200.6 secs

     total energy              =    -589.73186112 Ry
     estimated scf accuracy    <          1.5E-10 Ry

     total magnetization       =     2.00 Bohr mag/cell
     absolute magnetization    =     2.97 Bohr mag/cell

     iteration # 18     ecut=   100.00 Ry     beta= 0.30
     Davidson diagonalization with overlap
     ethr =  1.00E-13,  avg # of iterations =  5.0
     Minimization algorithm failed to find Fermi energy: reverting to bisection
     Possible cause: smearing is larger than the electronic band-gap.

     Magnetic moment per site  (integrated on atomic sphere of radius R)
     atom   1 (R=0.045)  charge=  1.5172  magn= -0.0123
     atom   2 (R=0.045)  charge=  1.5157  magn=  0.0752
     atom   3 (R=0.045)  charge=  1.5246  magn= -0.0122
     atom   4 (R=0.045)  charge=  1.5278  magn=  0.0208
     atom   5 (R=0.045)  charge=  1.5283  magn= -0.0062
     atom   6 (R=0.045)  charge=  1.5234  magn=  0.0070
     atom   7 (R=0.045)  charge=  1.5253  magn= -0.0052
     atom   8 (R=0.045)  charge=  1.5004  magn=  0.0049
     atom   9 (R=0.045)  charge=  1.5085  magn= -0.0084
     atom  10 (R=0.045)  charge=  1.5202  magn=  0.0205
     atom  11 (R=0.045)  charge=  1.5246  magn= -0.0122
     atom  12 (R=0.045)  charge=  1.5278  magn=  0.0208
     atom  13 (R=0.045)  charge=  1.5360  magn= -0.0109
     atom  14 (R=0.045)  charge=  1.5383  magn=  0.0494
     atom  15 (R=0.045)  charge=  1.5375  magn= -0.0073
     atom  16 (R=0.045)  charge=  1.4231  magn=  0.0728
     atom  17 (R=0.045)  charge=  1.4886  magn= -0.0142
     atom  18 (R=0.045)  charge=  1.5162  magn=  0.0575
     atom  19 (R=0.045)  charge=  1.5193  magn= -0.0119
     atom  20 (R=0.045)  charge=  1.5215  magn=  0.0190
     atom  21 (R=0.045)  charge=  1.5283  magn= -0.0062
     atom  22 (R=0.045)  charge=  1.5233  magn=  0.0069
     atom  23 (R=0.045)  charge=  1.5374  magn= -0.0073
     atom  24 (R=0.045)  charge=  1.4230  magn=  0.0724
     atom  25 (R=0.045)  charge=  1.4863  magn=  0.3232
     atom  26 (R=0.045)  charge=  1.5409  magn= -0.0114
     atom  27 (R=0.045)  charge=  1.5319  magn=  0.0231
     atom  28 (R=0.045)  charge=  1.5309  magn= -0.0045
     atom  29 (R=0.045)  charge=  1.5273  magn=  0.0130
     atom  30 (R=0.045)  charge=  1.5253  magn= -0.0052
     atom  31 (R=0.045)  charge=  1.5004  magn=  0.0049
     atom  32 (R=0.045)  charge=  1.4885  magn= -0.0142
     atom  33 (R=0.045)  charge=  1.5163  magn=  0.0575
     atom  34 (R=0.045)  charge=  1.5409  magn= -0.0113
     atom  35 (R=0.045)  charge=  1.5319  magn=  0.0231
     atom  36 (R=0.045)  charge=  1.5312  magn= -0.0102
     atom  37 (R=0.045)  charge=  1.5242  magn=  0.0056
     atom  38 (R=0.045)  charge=  1.5229  magn= -0.0067
     atom  39 (R=0.045)  charge=  1.5178  magn=  0.0060
     atom  40 (R=0.045)  charge=  1.5084  magn= -0.0084
     atom  41 (R=0.045)  charge=  1.5203  magn=  0.0205
     atom  42 (R=0.045)  charge=  1.5193  magn= -0.0119
     atom  43 (R=0.045)  charge=  1.5215  magn=  0.0190
     atom  44 (R=0.045)  charge=  1.5309  magn= -0.0044
     atom  45 (R=0.045)  charge=  1.5273  magn=  0.0130
     atom  46 (R=0.045)  charge=  1.5229  magn= -0.0067
     atom  47 (R=0.045)  charge=  1.5178  magn=  0.0060
     atom  48 (R=0.045)  charge=  1.5199  magn= -0.0067
     atom  49 (R=0.045)  charge=  1.5078  magn=  0.0147

     total cpu time spent up to now is      201.8 secs

     End of self-consistent calculation

 ------ SPIN UP ------------


          k = 0.0000 0.0000 0.0000 (119010 PWs)   bands (ev):

   -23.8091 -23.0057 -22.9692 -22.9002 -22.8913 -22.8541 -22.4382 -21.1327
   -21.1281 -21.0820 -21.0347 -20.9679 -20.6873 -20.2448 -20.2102 -20.1385
   -20.1203 -20.0570 -19.2839 -18.0648 -18.0453 -18.0134 -17.9746 -17.9011
   -17.5080 -17.0651 -17.0353 -17.0300 -16.8254 -16.7415 -16.2019 -15.7219
   -15.7180 -15.6792 -15.4003 -15.3656 -14.3326 -13.3660 -13.3086 -13.2987
   -13.2756 -13.2728 -13.2247 -13.2222 -13.1646 -13.1641 -12.6869 -12.6816
   -11.9778 -11.8952 -11.8629 -11.8047 -11.7530 -11.4271 -11.4239 -11.1451
   -10.8998 -10.8657 -10.8283 -10.8021 -10.7865 -10.6683 -10.5997 -10.5897
   -10.5739 -10.5339 -10.4968 -10.4706 -10.4258 -10.4074 -10.3734  -9.5197
    -9.4662  -8.9541  -8.9403  -8.8882  -8.8166  -8.7440  -8.7356  -8.7050
    -8.6930  -8.6423  -8.3640  -8.0883  -7.8777  -7.8157  -7.8110  -7.7836
    -7.7377  -7.6982  -7.6978  -7.0062  -5.8744  -5.8606  -5.8128  -5.7878
    -5.7658  -4.8260  -4.7628  -3.6348  -3.0644  -3.0024  -2.9925  -2.9361
    -2.8853  -2.1855  -1.2209  -1.1739  -1.1582  -1.0075  -0.9729  -0.9659
    -0.3236  -0.1246   0.2656   0.2695   0.2760   0.3076   0.3153   0.4489
     0.5234   0.5720   0.5751   0.7030   0.7656   1.1377   1.1462   1.1635
     1.1689   1.1727

 ------ SPIN DOWN ----------


          k = 0.0000 0.0000 0.0000 (119010 PWs)   bands (ev):

   -23.7743 -22.9517 -22.9408 -22.8723 -22.8677 -22.8206 -22.3373 -21.0966
   -21.0840 -21.0586 -20.9674 -20.9399 -20.6313 -20.1794 -20.1789 -20.1154
   -20.0428 -20.0165 -19.1850 -18.0269 -18.0257 -17.9979 -17.9349 -17.8121
   -17.3660 -17.0372 -17.0120 -16.9956 -16.7521 -16.7101 -16.1426 -15.6806
   -15.6774 -15.6457 -15.3262 -15.3041 -14.2068 -13.3228 -13.2852 -13.2621
   -13.2354 -13.2341 -13.1931 -13.1626 -13.1469 -13.1350 -12.6638 -12.6013
   -11.9277 -11.8371 -11.8331 -11.7645 -11.7306 -11.3978 -11.3744 -11.0383
   -10.8370 -10.8168 -10.7718 -10.7603 -10.7241 -10.6159 -10.5763 -10.5532
   -10.5346 -10.5117 -10.4754 -10.4589 -10.3814 -10.3717 -10.2221  -9.4824
    -9.3886  -8.9336  -8.8941  -8.8607  -8.8011  -8.6891  -8.6634  -8.6563
    -8.6033  -8.5868  -8.2610  -7.7661  -7.7570  -7.7487  -7.7251  -7.7212
    -7.6787  -7.6645  -7.4817  -6.8592  -5.8149  -5.7985  -5.7968  -5.7193
    -5.6325  -4.3686  -3.3309  -3.0284  -2.9794  -2.9603  -2.8516  -2.7892
    -2.7618  -2.0745  -1.1813  -1.1303  -1.0315  -0.9564  -0.8875  -0.8575
    -0.2051  -0.0933   0.2759   0.2783   0.2847   0.3232   0.3269   0.5060
     0.5546   0.6572   0.6614   0.8054   0.9713   1.1452   1.1508   1.1744
     1.1767   1.2127

     the Fermi energy is    -4.6596 ev

!    total energy              =    -589.73186112 Ry
     estimated scf accuracy    <          3.6E-11 Ry
     smearing contrib. (-TS)   =       0.00177893 Ry
     internal energy E=F+TS    =    -589.73364006 Ry

     The total energy is F=E-TS. E is the sum of the following terms:
     one-electron contribution =   -6596.90774658 Ry
     hartree contribution      =    3316.69544912 Ry
     xc contribution           =    -209.68612374 Ry
     ewald contribution        =    2900.16478113 Ry

     total magnetization       =     2.00 Bohr mag/cell
     absolute magnetization    =     2.97 Bohr mag/cell

     convergence has been achieved in  18 iterations

     Forces acting on atoms (cartesian axes, Ry/au):

     atom    1 type  1   force =     0.00254132   -0.00000781    0.00000000
     atom    2 type  1   force =    -0.00627728   -0.00000588   -0.00000001
     atom    3 type  1   force =    -0.00484026   -0.00299784   -0.00000000
     atom    4 type  1   force =    -0.00400578   -0.00240705    0.00000001
     atom    5 type  1   force =     0.00006508   -0.00174060    0.00000000
     atom    6 type  1   force =     0.00042441   -0.00355663    0.00000001
     atom    7 type  1   force =    -0.00217380    0.00676946    0.00000001
     atom    8 type  1   force =    -0.00084618    0.00038482    0.00000000
     atom    9 type  1   force =     0.00059345   -0.00090171   -0.00000000
     atom   10 type  1   force =    -0.00009437    0.00263536   -0.00000000
     atom   11 type  1   force =    -0.00484351    0.00298910   -0.00000000
     atom   12 type  1   force =    -0.00400421    0.00240082    0.00000002
     atom   13 type  1   force =    -0.00357068   -0.00000006    0.00000000
     atom   14 type  1   force =     0.00305223   -0.00000644   -0.00000001
     atom   15 type  1   force =    -0.00217183   -0.00698073   -0.00000001
     atom   16 type  2   force =     0.01556257   -0.00732307    0.00000000
     atom   17 type  1   force =     0.00082410   -0.00788188   -0.00000001
     atom   18 type  1   force =    -0.00241658   -0.00569210    0.00000001
     atom   19 type  1   force =     0.00019644   -0.00230824   -0.00000000
     atom   20 type  1   force =    -0.00080862    0.00240082    0.00000001
     atom   21 type  1   force =     0.00007075    0.00174183   -0.00000001
     atom   22 type  1   force =     0.00042134    0.00355893   -0.00000001
     atom   23 type  1   force =    -0.00220375    0.00694563    0.00000000
     atom   24 type  2   force =     0.01547263    0.00731811   -0.00000001
     atom   25 type  2   force =    -0.00897782    0.00004788   -0.00000000
     atom   26 type  1   force =    -0.01074296    0.00298359   -0.00000001
     atom   27 type  1   force =     0.00288015   -0.00408008    0.00000002
     atom   28 type  1   force =    -0.00101005   -0.00105518   -0.00000002
     atom   29 type  1   force =     0.00298426   -0.00183723    0.00000000
     atom   30 type  1   force =    -0.00217031   -0.00675347    0.00000000
     atom   31 type  1   force =    -0.00083281   -0.00037454    0.00000001
     atom   32 type  1   force =     0.00081864    0.00787950    0.00000000
     atom   33 type  1   force =    -0.00241728    0.00568618   -0.00000001
     atom   34 type  1   force =    -0.01077337   -0.00296970    0.00000001
     atom   35 type  1   force =     0.00286947    0.00407853    0.00000000
     atom   36 type  1   force =     0.01017072    0.00000397   -0.00000002
     atom   37 type  1   force =     0.01479192    0.00000271   -0.00000001
     atom   38 type  1   force =     0.00220580    0.00046965    0.00000002
     atom   39 type  1   force =    -0.00232377   -0.00808100   -0.00000001
     atom   40 type  1   force =     0.00059557    0.00090013    0.00000000
     atom   41 type  1   force =    -0.00009239   -0.00264595    0.00000000
     atom   42 type  1   force =     0.00020863    0.00228694    0.00000001
     atom   43 type  1   force =    -0.00080458   -0.00241309    0.00000001
     atom   44 type  1   force =    -0.00100656    0.00104900    0.00000001
     atom   45 type  1   force =     0.00298159    0.00184029   -0.00000001
     atom   46 type  1   force =     0.00220525   -0.00045912    0.00000001
     atom   47 type  1   force =    -0.00232990    0.00809788   -0.00000000
     atom   48 type  1   force =     0.00302455    0.00000530   -0.00000000
     atom   49 type  1   force =    -0.00322226    0.00000297   -0.00000001

     Total force =     0.046367     Total SCF correction =     0.000007
     Energy error            =      1.8E-03 Ry
     Gradient error          =      1.6E-02 Ry/Bohr

     number of scf cycles    =   8
     number of bfgs steps    =   7

     energy             old  =    -589.7300925491 Ry
     energy             new  =    -589.7318611248 Ry

     CASE: energy            _new < energy            _old

     new trust radius        =       0.0172497166 bohr
     new conv_thr            =            1.0E-10 Ry


ATOMIC_POSITIONS (crystal)
C                0.0660430832        0.0660410854        0.0000000006
C                0.1328199726        0.1328189986       -0.0000000002
C                0.0654692868        0.2667710695       -0.0000000020
C                0.1317109463        0.3331425667       -0.0000000033
C                0.0667107916        0.4661366663       -0.0000000028
C                0.1331771352        0.5326690112       -0.0000000023
C                0.0684101741        0.6652747053       -0.0000000011
C                0.1372293441        0.7293669614       -0.0000000008
C                0.0683242970        0.8646309197        0.0000000013
C                0.1334744347        0.9323586386        0.0000000007
C                0.2667718348        0.0654679133        0.0000000001
C                0.3331429551        0.1317108108       -0.0000000019
C                0.2650982313        0.2650978405       -0.0000000015
C                0.3304040947        0.3304063786        0.0000000012
C                0.2673218052        0.4633930644       -0.0000000004
C1               0.3357992694        0.5244140751       -0.0000000006
C                0.2744690880        0.6583236310       -0.0000000000
C                0.3351017882        0.7319953999        0.0000000002
C                0.2674659116        0.8647503182       -0.0000000000
C                0.3337487710        0.9324964898        0.0000000003
C                0.4661367870        0.0667151767       -0.0000000004
C                0.5326665426        0.1331880100        0.0000000002
C                0.4633916765        0.2673376124        0.0000000007
C1               0.5244118167        0.3358209547        0.0000000017
C1               0.5403989335        0.5403805471        0.0000000017
C                0.4687223110        0.6683794852        0.0000000020
C                0.5349913077        0.7355010127        0.0000000017
C                0.4669127873        0.8679478756        0.0000000029
C                0.5337386352        0.9338987660        0.0000000022
C                0.6652727621        0.0684148561       -0.0000000011
C                0.7293657540        0.1372335123       -0.0000000014
C                0.6583255793        0.2744748982        0.0000000003
C                0.7320051823        0.3350981587        0.0000000009
C                0.6683949661        0.4687165660       -0.0000000003
C                0.7355077944        0.5349907328        0.0000000003
C                0.6678114278        0.6678104993        0.0000000012
C                0.7341809140        0.7341816609        0.0000000003
C                0.6670365715        0.8674497391        0.0000000007
C                0.7332632560        0.9343922291        0.0000000004
C                0.8646303646        0.0683256879        0.0000000013
C                0.9323612195        0.1334723300        0.0000000008
C                0.8647565168        0.2674626327       -0.0000000002
C                0.9324993243        0.3337479074       -0.0000000026
C                0.8679514964        0.4669118390       -0.0000000024
C                0.9338977443        0.5337391534       -0.0000000009
C                0.8674486687        0.6670370938       -0.0000000007
C                0.9343896607        0.7332649428       -0.0000000006
C                0.8668010848        0.8668026771        0.0000000010
C                0.9333690331        0.9333702320        0.0000000031



     Writing config-only to output data dir /home/gregb26/links/scratch/qe_tmp/vacancy_relaxed/series/5x5/nspin2/vac_5x5_relax_nspin2.save/ :
     XML data file
     NEW-OLD atomic charge density approx. for the potential

     negative rho (up, down):  9.600E-07 1.037E-06
     Generating pointlists ...

     total cpu time spent up to now is      202.6 secs

     per-process dynamical memory:   167.8 Mb

     Self-consistent Calculation

     iteration #  1     ecut=   100.00 Ry     beta= 0.30
     Davidson diagonalization with overlap
     ethr =  1.00E-06,  avg # of iterations =  6.0
     Minimization algorithm failed to find Fermi energy: reverting to bisection
     Possible cause: smearing is larger than the electronic band-gap.

     negative rho (up, down):  8.695E-07 8.650E-07

     total cpu time spent up to now is      204.3 secs

     total energy              =    -589.73279761 Ry
     estimated scf accuracy    <       0.00036772 Ry

     total magnetization       =     2.00 Bohr mag/cell
     absolute magnetization    =     2.97 Bohr mag/cell

     iteration #  2     ecut=   100.00 Ry     beta= 0.30
     Davidson diagonalization with overlap
     ethr =  1.88E-07,  avg # of iterations =  2.0
     Minimization algorithm failed to find Fermi energy: reverting to bisection
     Possible cause: smearing is larger than the electronic band-gap.

     negative rho (up, down):  4.787E-07 4.830E-07

     total cpu time spent up to now is      205.2 secs

     total energy              =    -589.73281387 Ry
     estimated scf accuracy    <       0.00010852 Ry

     total magnetization       =     2.00 Bohr mag/cell
     absolute magnetization    =     2.97 Bohr mag/cell

     iteration #  3     ecut=   100.00 Ry     beta= 0.30
     Davidson diagonalization with overlap
     ethr =  5.54E-08,  avg # of iterations =  2.0
     Minimization algorithm failed to find Fermi energy: reverting to bisection
     Possible cause: smearing is larger than the electronic band-gap.

     negative rho (up, down):  2.485E-07 2.546E-07

     total cpu time spent up to now is      206.2 secs

     total energy              =    -589.73282164 Ry
     estimated scf accuracy    <       0.00003517 Ry

     total magnetization       =     2.00 Bohr mag/cell
     absolute magnetization    =     2.97 Bohr mag/cell

     iteration #  4     ecut=   100.00 Ry     beta= 0.30
     Davidson diagonalization with overlap
     ethr =  1.79E-08,  avg # of iterations =  2.0
     Minimization algorithm failed to find Fermi energy: reverting to bisection
     Possible cause: smearing is larger than the electronic band-gap.

     negative rho (up, down):  1.019E-07 1.067E-07

     total cpu time spent up to now is      207.1 secs

     total energy              =    -589.73282566 Ry
     estimated scf accuracy    <       0.00000867 Ry

     total magnetization       =     2.00 Bohr mag/cell
     absolute magnetization    =     2.97 Bohr mag/cell

     iteration #  5     ecut=   100.00 Ry     beta= 0.30
     Davidson diagonalization with overlap
     ethr =  4.42E-09,  avg # of iterations =  2.0
     Minimization algorithm failed to find Fermi energy: reverting to bisection
     Possible cause: smearing is larger than the electronic band-gap.

     negative rho (up, down):  4.134E-08 4.443E-08

     total cpu time spent up to now is      208.1 secs

     total energy              =    -589.73282701 Ry
     estimated scf accuracy    <       0.00000163 Ry

     total magnetization       =     2.00 Bohr mag/cell
     absolute magnetization    =     2.97 Bohr mag/cell

     iteration #  6     ecut=   100.00 Ry     beta= 0.30
     Davidson diagonalization with overlap
     ethr =  8.33E-10,  avg # of iterations =  2.0
     Minimization algorithm failed to find Fermi energy: reverting to bisection
     Possible cause: smearing is larger than the electronic band-gap.

     negative rho (up, down):  1.298E-08 1.451E-08

     total cpu time spent up to now is      209.0 secs

     total energy              =    -589.73282730 Ry
     estimated scf accuracy    <       0.00000041 Ry

     total magnetization       =     2.00 Bohr mag/cell
     absolute magnetization    =     2.97 Bohr mag/cell

     iteration #  7     ecut=   100.00 Ry     beta= 0.30
     Davidson diagonalization with overlap
     ethr =  2.08E-10,  avg # of iterations =  3.0
     Minimization algorithm failed to find Fermi energy: reverting to bisection
     Possible cause: smearing is larger than the electronic band-gap.

     total cpu time spent up to now is      209.9 secs

     total energy              =    -589.73282735 Ry
     estimated scf accuracy    <       0.00000009 Ry

     total magnetization       =     2.00 Bohr mag/cell
     absolute magnetization    =     2.97 Bohr mag/cell

     iteration #  8     ecut=   100.00 Ry     beta= 0.30
     Davidson diagonalization with overlap
     ethr =  4.65E-11,  avg # of iterations =  4.0
     Minimization algorithm failed to find Fermi energy: reverting to bisection
     Possible cause: smearing is larger than the electronic band-gap.

     total cpu time spent up to now is      211.1 secs

     total energy              =    -589.73282738 Ry
     estimated scf accuracy    <          8.5E-09 Ry

     total magnetization       =     2.00 Bohr mag/cell
     absolute magnetization    =     2.97 Bohr mag/cell

     iteration #  9     ecut=   100.00 Ry     beta= 0.30
     Davidson diagonalization with overlap
     ethr =  4.34E-12,  avg # of iterations =  4.0
     Minimization algorithm failed to find Fermi energy: reverting to bisection
     Possible cause: smearing is larger than the electronic band-gap.

     total cpu time spent up to now is      212.3 secs

     total energy              =    -589.73282738 Ry
     estimated scf accuracy    <          2.2E-09 Ry

     total magnetization       =     2.00 Bohr mag/cell
     absolute magnetization    =     2.97 Bohr mag/cell

     iteration # 10     ecut=   100.00 Ry     beta= 0.30
     Davidson diagonalization with overlap
     ethr =  1.12E-12,  avg # of iterations =  2.0
     Minimization algorithm failed to find Fermi energy: reverting to bisection
     Possible cause: smearing is larger than the electronic band-gap.

     total cpu time spent up to now is      213.2 secs

     total energy              =    -589.73282738 Ry
     estimated scf accuracy    <          9.1E-10 Ry

     total magnetization       =     2.00 Bohr mag/cell
     absolute magnetization    =     2.97 Bohr mag/cell

     iteration # 11     ecut=   100.00 Ry     beta= 0.30
     Davidson diagonalization with overlap
     ethr =  4.63E-13,  avg # of iterations =  4.0
     Minimization algorithm failed to find Fermi energy: reverting to bisection
     Possible cause: smearing is larger than the electronic band-gap.

     total cpu time spent up to now is      214.3 secs

     total energy              =    -589.73282738 Ry
     estimated scf accuracy    <          2.7E-10 Ry

     total magnetization       =     2.00 Bohr mag/cell
     absolute magnetization    =     2.97 Bohr mag/cell

     iteration # 12     ecut=   100.00 Ry     beta= 0.30
     Davidson diagonalization with overlap
     ethr =  1.40E-13,  avg # of iterations =  3.5
     Minimization algorithm failed to find Fermi energy: reverting to bisection
     Possible cause: smearing is larger than the electronic band-gap.

     total cpu time spent up to now is      215.4 secs

     total energy              =    -589.73282738 Ry
     estimated scf accuracy    <          1.5E-10 Ry

     total magnetization       =     2.00 Bohr mag/cell
     absolute magnetization    =     2.97 Bohr mag/cell

     iteration # 13     ecut=   100.00 Ry     beta= 0.30
     Davidson diagonalization with overlap
     ethr =  1.00E-13,  avg # of iterations =  3.0
     Minimization algorithm failed to find Fermi energy: reverting to bisection
     Possible cause: smearing is larger than the electronic band-gap.

     Magnetic moment per site  (integrated on atomic sphere of radius R)
     atom   1 (R=0.045)  charge=  1.5180  magn= -0.0123
     atom   2 (R=0.045)  charge=  1.5173  magn=  0.0751
     atom   3 (R=0.045)  charge=  1.5250  magn= -0.0121
     atom   4 (R=0.045)  charge=  1.5285  magn=  0.0206
     atom   5 (R=0.045)  charge=  1.5280  magn= -0.0062
     atom   6 (R=0.045)  charge=  1.5218  magn=  0.0069
     atom   7 (R=0.045)  charge=  1.5247  magn= -0.0052
     atom   8 (R=0.045)  charge=  1.4973  magn=  0.0050
     atom   9 (R=0.045)  charge=  1.5079  magn= -0.0084
     atom  10 (R=0.045)  charge=  1.5198  magn=  0.0208
     atom  11 (R=0.045)  charge=  1.5250  magn= -0.0121
     atom  12 (R=0.045)  charge=  1.5284  magn=  0.0206
     atom  13 (R=0.045)  charge=  1.5361  magn= -0.0108
     atom  14 (R=0.045)  charge=  1.5409  magn=  0.0490
     atom  15 (R=0.045)  charge=  1.5358  magn= -0.0073
     atom  16 (R=0.045)  charge=  1.4215  magn=  0.0723
     atom  17 (R=0.045)  charge=  1.4876  magn= -0.0142
     atom  18 (R=0.045)  charge=  1.5172  magn=  0.0580
     atom  19 (R=0.045)  charge=  1.5184  magn= -0.0120
     atom  20 (R=0.045)  charge=  1.5216  magn=  0.0191
     atom  21 (R=0.045)  charge=  1.5279  magn= -0.0062
     atom  22 (R=0.045)  charge=  1.5218  magn=  0.0068
     atom  23 (R=0.045)  charge=  1.5357  magn= -0.0073
     atom  24 (R=0.045)  charge=  1.4214  magn=  0.0719
     atom  25 (R=0.045)  charge=  1.4891  magn=  0.3216
     atom  26 (R=0.045)  charge=  1.5408  magn= -0.0116
     atom  27 (R=0.045)  charge=  1.5297  magn=  0.0234
     atom  28 (R=0.045)  charge=  1.5305  magn= -0.0044
     atom  29 (R=0.045)  charge=  1.5275  magn=  0.0132
     atom  30 (R=0.045)  charge=  1.5247  magn= -0.0052
     atom  31 (R=0.045)  charge=  1.4973  magn=  0.0049
     atom  32 (R=0.045)  charge=  1.4876  magn= -0.0142
     atom  33 (R=0.045)  charge=  1.5172  magn=  0.0580
     atom  34 (R=0.045)  charge=  1.5408  magn= -0.0116
     atom  35 (R=0.045)  charge=  1.5297  magn=  0.0234
     atom  36 (R=0.045)  charge=  1.5317  magn= -0.0100
     atom  37 (R=0.045)  charge=  1.5263  magn=  0.0056
     atom  38 (R=0.045)  charge=  1.5246  magn= -0.0066
     atom  39 (R=0.045)  charge=  1.5189  magn=  0.0060
     atom  40 (R=0.045)  charge=  1.5079  magn= -0.0085
     atom  41 (R=0.045)  charge=  1.5198  magn=  0.0208
     atom  42 (R=0.045)  charge=  1.5185  magn= -0.0120
     atom  43 (R=0.045)  charge=  1.5216  magn=  0.0191
     atom  44 (R=0.045)  charge=  1.5306  magn= -0.0044
     atom  45 (R=0.045)  charge=  1.5276  magn=  0.0132
     atom  46 (R=0.045)  charge=  1.5246  magn= -0.0066
     atom  47 (R=0.045)  charge=  1.5189  magn=  0.0060
     atom  48 (R=0.045)  charge=  1.5217  magn= -0.0066
     atom  49 (R=0.045)  charge=  1.5073  magn=  0.0148

     total cpu time spent up to now is      216.4 secs

     End of self-consistent calculation

 ------ SPIN UP ------------


          k = 0.0000 0.0000 0.0000 (119010 PWs)   bands (ev):

   -23.8082 -23.0024 -22.9657 -22.9073 -22.8871 -22.8405 -22.4424 -21.1292
   -21.1174 -21.0714 -21.0433 -20.9694 -20.6960 -20.2460 -20.2015 -20.1327
   -20.1225 -20.0630 -19.2893 -18.0519 -18.0390 -18.0111 -17.9702 -17.9144
   -17.5180 -17.0561 -17.0360 -17.0258 -16.8273 -16.7496 -16.2006 -15.7281
   -15.7191 -15.6796 -15.3935 -15.3644 -14.3313 -13.3627 -13.3081 -13.3013
   -13.2763 -13.2722 -13.2280 -13.2208 -13.1631 -13.1614 -12.6835 -12.6722
   -11.9921 -11.8947 -11.8616 -11.7945 -11.7479 -11.4310 -11.4160 -11.1500
   -10.8979 -10.8631 -10.8350 -10.7980 -10.7761 -10.6775 -10.5978 -10.5921
   -10.5759 -10.5407 -10.4924 -10.4673 -10.4153 -10.4075 -10.3800  -9.5291
    -9.4636  -8.9567  -8.9459  -8.8866  -8.8007  -8.7379  -8.7338  -8.7123
    -8.6896  -8.6381  -8.3710  -8.1098  -7.8795  -7.8148  -7.8110  -7.7835
    -7.7331  -7.7073  -7.7020  -7.0115  -5.8683  -5.8572  -5.8069  -5.7847
    -5.7746  -4.8350  -4.7610  -3.5902  -3.0647  -3.0071  -2.9985  -2.9295
    -2.8888  -2.1879  -1.2236  -1.1739  -1.1574  -1.0049  -0.9759  -0.9730
    -0.3224  -0.1251   0.2645   0.2697   0.2767   0.3079   0.3168   0.4464
     0.5177   0.5721   0.5772   0.6946   0.7680   1.1375   1.1463   1.1629
     1.1697   1.1724

 ------ SPIN DOWN ----------


          k = 0.0000 0.0000 0.0000 (119010 PWs)   bands (ev):

   -23.7732 -22.9475 -22.9383 -22.8743 -22.8667 -22.8072 -22.3400 -21.0848
   -21.0816 -21.0476 -20.9736 -20.9425 -20.6402 -20.1791 -20.1704 -20.1110
   -20.0429 -20.0225 -19.1916 -18.0206 -18.0135 -17.9901 -17.9350 -17.8250
   -17.3763 -17.0273 -17.0129 -16.9922 -16.7536 -16.7180 -16.1415 -15.6825
   -15.6815 -15.6466 -15.3252 -15.2980 -14.2067 -13.3162 -13.2851 -13.2628
   -13.2378 -13.2333 -13.1899 -13.1680 -13.1463 -13.1326 -12.6607 -12.5919
   -11.9413 -11.8363 -11.8303 -11.7552 -11.7263 -11.4024 -11.3651 -11.0415
   -10.8331 -10.8148 -10.7676 -10.7659 -10.7138 -10.6203 -10.5798 -10.5546
   -10.5370 -10.5106 -10.4760 -10.4557 -10.3734 -10.3714 -10.2268  -9.4919
    -9.3850  -8.9298  -8.9063  -8.8590  -8.7858  -8.6784  -8.6622  -8.6509
    -8.6084  -8.5879  -8.2677  -7.7796  -7.7593  -7.7553  -7.7264  -7.7263
    -7.6758  -7.6740  -7.4887  -6.8650  -5.8086  -5.7914  -5.7848  -5.7225
    -5.6460  -4.3776  -3.2910  -3.0307  -2.9844  -2.9664  -2.8575  -2.7896
    -2.7571  -2.0769  -1.1832  -1.1319  -1.0309  -0.9564  -0.8950  -0.8563
    -0.2034  -0.0943   0.2762   0.2772   0.2852   0.3237   0.3284   0.5037
     0.5462   0.6607   0.6640   0.7992   0.9738   1.1449   1.1509   1.1743
     1.1772   1.2121

     the Fermi energy is    -4.6594 ev

!    total energy              =    -589.73282738 Ry
     estimated scf accuracy    <          6.2E-11 Ry
     smearing contrib. (-TS)   =       0.00180839 Ry
     internal energy E=F+TS    =    -589.73463577 Ry

     The total energy is F=E-TS. E is the sum of the following terms:
     one-electron contribution =   -6596.65157902 Ry
     hartree contribution      =    3316.56216994 Ry
     xc contribution           =    -209.67476856 Ry
     ewald contribution        =    2900.02954187 Ry

     total magnetization       =     2.00 Bohr mag/cell
     absolute magnetization    =     2.97 Bohr mag/cell

     convergence has been achieved in  13 iterations

     Forces acting on atoms (cartesian axes, Ry/au):

     atom    1 type  1   force =    -0.00288600   -0.00000810    0.00000000
     atom    2 type  1   force =    -0.00138448   -0.00000475    0.00000000
     atom    3 type  1   force =    -0.00529779   -0.00153226    0.00000000
     atom    4 type  1   force =    -0.00350552   -0.00350434    0.00000000
     atom    5 type  1   force =     0.00239282    0.00056422    0.00000000
     atom    6 type  1   force =     0.00019700   -0.00756333    0.00000000
     atom    7 type  1   force =     0.00060837    0.00490959   -0.00000000
     atom    8 type  1   force =     0.00022438   -0.00270716    0.00000001
     atom    9 type  1   force =    -0.00153613   -0.00109985    0.00000001
     atom   10 type  1   force =     0.00259170    0.00046720   -0.00000000
     atom   11 type  1   force =    -0.00529899    0.00151817   -0.00000001
     atom   12 type  1   force =    -0.00350648    0.00350307    0.00000001
     atom   13 type  1   force =    -0.00148712   -0.00000156   -0.00000001
     atom   14 type  1   force =    -0.00038436    0.00000014   -0.00000002
     atom   15 type  1   force =     0.00391380    0.00134684    0.00000001
     atom   16 type  2   force =     0.00757282   -0.00963451    0.00000001
     atom   17 type  1   force =    -0.00058801    0.00095199   -0.00000001
     atom   18 type  1   force =    -0.00229181   -0.00374827   -0.00000000
     atom   19 type  1   force =    -0.00181672   -0.00023453    0.00000001
     atom   20 type  1   force =    -0.00023636    0.00243442    0.00000001
     atom   21 type  1   force =     0.00238799   -0.00056993    0.00000000
     atom   22 type  1   force =     0.00018184    0.00755125   -0.00000001
     atom   23 type  1   force =     0.00387378   -0.00136927    0.00000000
     atom   24 type  2   force =     0.00751923    0.00960938   -0.00000001
     atom   25 type  2   force =    -0.01339361    0.00003467   -0.00000000
     atom   26 type  1   force =     0.00104448    0.00140158   -0.00000001
     atom   27 type  1   force =    -0.00447734   -0.00009923    0.00000000
     atom   28 type  1   force =    -0.00086775   -0.00461579   -0.00000001
     atom   29 type  1   force =     0.00073940    0.00143005   -0.00000001
     atom   30 type  1   force =     0.00061401   -0.00490398    0.00000001
     atom   31 type  1   force =     0.00023037    0.00271233    0.00000001
     atom   32 type  1   force =    -0.00060402   -0.00094611    0.00000000
     atom   33 type  1   force =    -0.00229640    0.00375404   -0.00000000
     atom   34 type  1   force =     0.00102139   -0.00138049    0.00000002
     atom   35 type  1   force =    -0.00449448    0.00010346   -0.00000001
     atom   36 type  1   force =     0.00810899   -0.00000120   -0.00000000
     atom   37 type  1   force =     0.00827660    0.00000311    0.00000000
     atom   38 type  1   force =     0.00410497   -0.00079064    0.00000001
     atom   39 type  1   force =    -0.00207865   -0.00401997   -0.00000000
     atom   40 type  1   force =    -0.00153394    0.00110005   -0.00000001
     atom   41 type  1   force =     0.00259567   -0.00047725    0.00000001
     atom   42 type  1   force =    -0.00181447    0.00022709    0.00000000
     atom   43 type  1   force =    -0.00023139   -0.00244310    0.00000001
     atom   44 type  1   force =    -0.00087555    0.00461582    0.00000001
     atom   45 type  1   force =     0.00073948   -0.00142543   -0.00000001
     atom   46 type  1   force =     0.00410168    0.00080003    0.00000000
     atom   47 type  1   force =    -0.00208275    0.00403311    0.00000000
     atom   48 type  1   force =     0.00252337    0.00000726    0.00000000
     atom   49 type  1   force =    -0.00059401    0.00000218   -0.00000001

     Total force =     0.034908     Total SCF correction =     0.000006
     Energy error            =      9.7E-04 Ry
     Gradient error          =      1.3E-02 Ry/Bohr

     number of scf cycles    =   9
     number of bfgs steps    =   8

     energy             old  =    -589.7318611248 Ry
     energy             new  =    -589.7328273844 Ry

     CASE: energy            _new < energy            _old

     new trust radius        =       0.0279397643 bohr
     new conv_thr            =            9.7E-11 Ry


ATOMIC_POSITIONS (crystal)
C                0.0659096856        0.0659061557        0.0000000005
C                0.1326202088        0.1326181563       -0.0000000003
C                0.0653006533        0.2664150527       -0.0000000018
C                0.1315873025        0.3327812881       -0.0000000028
C                0.0667801984        0.4659961226       -0.0000000032
C                0.1335206731        0.5323592071       -0.0000000018
C                0.0681967516        0.6653952652       -0.0000000007
C                0.1375286867        0.7290089402       -0.0000000007
C                0.0683928466        0.8644803215        0.0000000018
C                0.1335885143        0.9322581061        0.0000000006
C                0.2664168948        0.0652979963        0.0000000002
C                0.3327819943        0.1315868247       -0.0000000015
C                0.2648336476        0.2648330824       -0.0000000018
C                0.3302073924        0.3302092757        0.0000000000
C                0.2676815195        0.4632075708       -0.0000000001
C1               0.3371499693        0.5234746103       -0.0000000004
C                0.2751384999        0.6575767578       -0.0000000003
C                0.3353094759        0.7315944764        0.0000000000
C                0.2675160914        0.8645272932        0.0000000003
C                0.3336687241        0.9323989054        0.0000000005
C                0.4659964220        0.0667844391       -0.0000000009
C                0.5323570174        0.1335302885        0.0000000000
C                0.4632056914        0.2676939421        0.0000000006
C1               0.5234711794        0.3371678905        0.0000000013
C1               0.5403302812        0.5403163140        0.0000000019
C                0.4688303769        0.6683453526        0.0000000014
C                0.5351740822        0.7354617697        0.0000000019
C                0.4670733912        0.8679412899        0.0000000028
C                0.5337607948        0.9340435895        0.0000000027
C                0.6653927585        0.0682028385       -0.0000000008
C                0.7290074295        0.1375339838       -0.0000000010
C                0.6575776107        0.2751445322        0.0000000006
C                0.7316042455        0.3353056772        0.0000000006
C                0.6683578271        0.4688254409        0.0000000004
C                0.7354676665        0.5351728513        0.0000000000
C                0.6683166408        0.6683154847        0.0000000010
C                0.7346227349        0.7346241950       -0.0000000004
C                0.6672524122        0.8676842668        0.0000000022
C                0.7334832781        0.9342873095        0.0000000002
C                0.8644798418        0.0683945124        0.0000000008
C                0.9322621279        0.1335853472        0.0000000011
C                0.8645350977        0.2675119119       -0.0000000003
C                0.9324032125        0.3336671187       -0.0000000021
C                0.8679449680        0.4670719822       -0.0000000028
C                0.9340420792        0.5337617455       -0.0000000021
C                0.8676821231        0.6672536496       -0.0000000002
C                0.9342829541        0.7334862259       -0.0000000008
C                0.8668881584        0.8668911173        0.0000000007
C                0.9334012003        0.9334028582        0.0000000029



     Writing config-only to output data dir /home/gregb26/links/scratch/qe_tmp/vacancy_relaxed/series/5x5/nspin2/vac_5x5_relax_nspin2.save/ :
     XML data file
     NEW-OLD atomic charge density approx. for the potential

     negative rho (up, down):  1.336E-06 1.441E-06
     Generating pointlists ...

     total cpu time spent up to now is      217.1 secs

     per-process dynamical memory:   167.8 Mb

     Self-consistent Calculation

     iteration #  1     ecut=   100.00 Ry     beta= 0.30
     Davidson diagonalization with overlap
     ethr =  1.00E-06,  avg # of iterations =  6.0
     Minimization algorithm failed to find Fermi energy: reverting to bisection
     Possible cause: smearing is larger than the electronic band-gap.

     negative rho (up, down):  1.304E-06 1.311E-06

     total cpu time spent up to now is      218.9 secs

     total energy              =    -589.73379516 Ry
     estimated scf accuracy    <       0.00046788 Ry

     total magnetization       =     2.00 Bohr mag/cell
     absolute magnetization    =     2.97 Bohr mag/cell

     iteration #  2     ecut=   100.00 Ry     beta= 0.30
     Davidson diagonalization with overlap
     ethr =  2.39E-07,  avg # of iterations =  2.0
     Minimization algorithm failed to find Fermi energy: reverting to bisection
     Possible cause: smearing is larger than the electronic band-gap.

     negative rho (up, down):  6.932E-07 7.061E-07

     total cpu time spent up to now is      219.9 secs

     total energy              =    -589.73381699 Ry
     estimated scf accuracy    <       0.00012794 Ry

     total magnetization       =     2.00 Bohr mag/cell
     absolute magnetization    =     2.97 Bohr mag/cell

     iteration #  3     ecut=   100.00 Ry     beta= 0.30
     Davidson diagonalization with overlap
     ethr =  6.53E-08,  avg # of iterations =  2.0
     Minimization algorithm failed to find Fermi energy: reverting to bisection
     Possible cause: smearing is larger than the electronic band-gap.

     negative rho (up, down):  2.222E-07 2.320E-07

     total cpu time spent up to now is      220.8 secs

     total energy              =    -589.73382207 Ry
     estimated scf accuracy    <       0.00003230 Ry

     total magnetization       =     2.00 Bohr mag/cell
     absolute magnetization    =     2.97 Bohr mag/cell

     iteration #  4     ecut=   100.00 Ry     beta= 0.30
     Davidson diagonalization with overlap
     ethr =  1.65E-08,  avg # of iterations =  2.0
     Minimization algorithm failed to find Fermi energy: reverting to bisection
     Possible cause: smearing is larger than the electronic band-gap.

     negative rho (up, down):  1.134E-07 1.204E-07

     total cpu time spent up to now is      221.9 secs

     total energy              =    -589.73382590 Ry
     estimated scf accuracy    <       0.00000934 Ry

     total magnetization       =     2.00 Bohr mag/cell
     absolute magnetization    =     2.97 Bohr mag/cell

     iteration #  5     ecut=   100.00 Ry     beta= 0.30
     Davidson diagonalization with overlap
     ethr =  4.77E-09,  avg # of iterations =  2.0
     Minimization algorithm failed to find Fermi energy: reverting to bisection
     Possible cause: smearing is larger than the electronic band-gap.

     negative rho (up, down):  5.474E-08 5.923E-08

     total cpu time spent up to now is      222.8 secs

     total energy              =    -589.73382731 Ry
     estimated scf accuracy    <       0.00000220 Ry

     total magnetization       =     2.00 Bohr mag/cell
     absolute magnetization    =     2.97 Bohr mag/cell

     iteration #  6     ecut=   100.00 Ry     beta= 0.30
     Davidson diagonalization with overlap
     ethr =  1.12E-09,  avg # of iterations =  2.0
     Minimization algorithm failed to find Fermi energy: reverting to bisection
     Possible cause: smearing is larger than the electronic band-gap.

     negative rho (up, down):  1.459E-08 1.645E-08

     total cpu time spent up to now is      223.8 secs

     total energy              =    -589.73382771 Ry
     estimated scf accuracy    <       0.00000066 Ry

     total magnetization       =     2.00 Bohr mag/cell
     absolute magnetization    =     2.97 Bohr mag/cell

     iteration #  7     ecut=   100.00 Ry     beta= 0.30
     Davidson diagonalization with overlap
     ethr =  3.37E-10,  avg # of iterations =  3.0
     Minimization algorithm failed to find Fermi energy: reverting to bisection
     Possible cause: smearing is larger than the electronic band-gap.

     total cpu time spent up to now is      224.8 secs

     total energy              =    -589.73382786 Ry
     estimated scf accuracy    <       0.00000010 Ry

     total magnetization       =     2.00 Bohr mag/cell
     absolute magnetization    =     2.96 Bohr mag/cell

     iteration #  8     ecut=   100.00 Ry     beta= 0.30
     Davidson diagonalization with overlap
     ethr =  5.24E-11,  avg # of iterations =  4.0
     Minimization algorithm failed to find Fermi energy: reverting to bisection
     Possible cause: smearing is larger than the electronic band-gap.

     total cpu time spent up to now is      226.0 secs

     total energy              =    -589.73382791 Ry
     estimated scf accuracy    <       0.00000003 Ry

     total magnetization       =     2.00 Bohr mag/cell
     absolute magnetization    =     2.96 Bohr mag/cell

     iteration #  9     ecut=   100.00 Ry     beta= 0.30
     Davidson diagonalization with overlap
     ethr =  1.34E-11,  avg # of iterations =  3.0
     Minimization algorithm failed to find Fermi energy: reverting to bisection
     Possible cause: smearing is larger than the electronic band-gap.

     total cpu time spent up to now is      227.2 secs

     total energy              =    -589.73382793 Ry
     estimated scf accuracy    <       0.00000001 Ry

     total magnetization       =     2.00 Bohr mag/cell
     absolute magnetization    =     2.96 Bohr mag/cell

     iteration # 10     ecut=   100.00 Ry     beta= 0.30
     Davidson diagonalization with overlap
     ethr =  5.68E-12,  avg # of iterations =  2.5
     Minimization algorithm failed to find Fermi energy: reverting to bisection
     Possible cause: smearing is larger than the electronic band-gap.

     total cpu time spent up to now is      228.2 secs

     total energy              =    -589.73382795 Ry
     estimated scf accuracy    <          5.5E-09 Ry

     total magnetization       =     2.00 Bohr mag/cell
     absolute magnetization    =     2.96 Bohr mag/cell

     iteration # 11     ecut=   100.00 Ry     beta= 0.30
     Davidson diagonalization with overlap
     ethr =  2.80E-12,  avg # of iterations =  3.5
     Minimization algorithm failed to find Fermi energy: reverting to bisection
     Possible cause: smearing is larger than the electronic band-gap.

     total cpu time spent up to now is      229.4 secs

     total energy              =    -589.73382795 Ry
     estimated scf accuracy    <          2.1E-09 Ry

     total magnetization       =     2.00 Bohr mag/cell
     absolute magnetization    =     2.96 Bohr mag/cell

     iteration # 12     ecut=   100.00 Ry     beta= 0.30
     Davidson diagonalization with overlap
     ethr =  1.10E-12,  avg # of iterations =  4.0
     Minimization algorithm failed to find Fermi energy: reverting to bisection
     Possible cause: smearing is larger than the electronic band-gap.

     total cpu time spent up to now is      230.8 secs

     total energy              =    -589.73382796 Ry
     estimated scf accuracy    <          7.6E-10 Ry

     total magnetization       =     2.00 Bohr mag/cell
     absolute magnetization    =     2.96 Bohr mag/cell

     iteration # 13     ecut=   100.00 Ry     beta= 0.30
     Davidson diagonalization with overlap
     ethr =  3.87E-13,  avg # of iterations =  4.0
     Minimization algorithm failed to find Fermi energy: reverting to bisection
     Possible cause: smearing is larger than the electronic band-gap.

     total cpu time spent up to now is      232.0 secs

     total energy              =    -589.73382796 Ry
     estimated scf accuracy    <          3.1E-10 Ry

     total magnetization       =     2.00 Bohr mag/cell
     absolute magnetization    =     2.96 Bohr mag/cell

     iteration # 14     ecut=   100.00 Ry     beta= 0.30
     Davidson diagonalization with overlap
     ethr =  1.59E-13,  avg # of iterations =  4.0
     Minimization algorithm failed to find Fermi energy: reverting to bisection
     Possible cause: smearing is larger than the electronic band-gap.

     Magnetic moment per site  (integrated on atomic sphere of radius R)
     atom   1 (R=0.045)  charge=  1.5192  magn= -0.0120
     atom   2 (R=0.045)  charge=  1.5195  magn=  0.0735
     atom   3 (R=0.045)  charge=  1.5262  magn= -0.0119
     atom   4 (R=0.045)  charge=  1.5279  magn=  0.0204
     atom   5 (R=0.045)  charge=  1.5268  magn= -0.0061
     atom   6 (R=0.045)  charge=  1.5194  magn=  0.0068
     atom   7 (R=0.045)  charge=  1.5229  magn= -0.0051
     atom   8 (R=0.045)  charge=  1.4946  magn=  0.0049
     atom   9 (R=0.045)  charge=  1.5064  magn= -0.0084
     atom  10 (R=0.045)  charge=  1.5198  magn=  0.0204
     atom  11 (R=0.045)  charge=  1.5262  magn= -0.0119
     atom  12 (R=0.045)  charge=  1.5279  magn=  0.0204
     atom  13 (R=0.045)  charge=  1.5368  magn= -0.0106
     atom  14 (R=0.045)  charge=  1.5404  magn=  0.0488
     atom  15 (R=0.045)  charge=  1.5342  magn= -0.0069
     atom  16 (R=0.045)  charge=  1.4196  magn=  0.0720
     atom  17 (R=0.045)  charge=  1.4859  magn= -0.0141
     atom  18 (R=0.045)  charge=  1.5173  magn=  0.0576
     atom  19 (R=0.045)  charge=  1.5180  magn= -0.0119
     atom  20 (R=0.045)  charge=  1.5208  magn=  0.0188
     atom  21 (R=0.045)  charge=  1.5267  magn= -0.0061
     atom  22 (R=0.045)  charge=  1.5194  magn=  0.0068
     atom  23 (R=0.045)  charge=  1.5342  magn= -0.0069
     atom  24 (R=0.045)  charge=  1.4195  magn=  0.0718
     atom  25 (R=0.045)  charge=  1.4895  magn=  0.3244
     atom  26 (R=0.045)  charge=  1.5409  magn= -0.0114
     atom  27 (R=0.045)  charge=  1.5278  magn=  0.0236
     atom  28 (R=0.045)  charge=  1.5292  magn= -0.0043
     atom  29 (R=0.045)  charge=  1.5270  magn=  0.0130
     atom  30 (R=0.045)  charge=  1.5229  magn= -0.0051
     atom  31 (R=0.045)  charge=  1.4946  magn=  0.0049
     atom  32 (R=0.045)  charge=  1.4859  magn= -0.0141
     atom  33 (R=0.045)  charge=  1.5173  magn=  0.0576
     atom  34 (R=0.045)  charge=  1.5409  magn= -0.0114
     atom  35 (R=0.045)  charge=  1.5278  magn=  0.0236
     atom  36 (R=0.045)  charge=  1.5294  magn= -0.0101
     atom  37 (R=0.045)  charge=  1.5290  magn=  0.0055
     atom  38 (R=0.045)  charge=  1.5265  magn= -0.0066
     atom  39 (R=0.045)  charge=  1.5215  magn=  0.0059
     atom  40 (R=0.045)  charge=  1.5064  magn= -0.0084
     atom  41 (R=0.045)  charge=  1.5198  magn=  0.0204
     atom  42 (R=0.045)  charge=  1.5180  magn= -0.0119
     atom  43 (R=0.045)  charge=  1.5209  magn=  0.0188
     atom  44 (R=0.045)  charge=  1.5293  magn= -0.0043
     atom  45 (R=0.045)  charge=  1.5270  magn=  0.0130
     atom  46 (R=0.045)  charge=  1.5265  magn= -0.0066
     atom  47 (R=0.045)  charge=  1.5215  magn=  0.0059
     atom  48 (R=0.045)  charge=  1.5235  magn= -0.0065
     atom  49 (R=0.045)  charge=  1.5074  magn=  0.0145

     total cpu time spent up to now is      233.2 secs

     End of self-consistent calculation

 ------ SPIN UP ------------


          k = 0.0000 0.0000 0.0000 (119010 PWs)   bands (ev):

   -23.8037 -22.9906 -22.9534 -22.9189 -22.8786 -22.8238 -22.4472 -21.1156
   -21.1008 -21.0568 -21.0497 -20.9671 -20.7089 -20.2370 -20.2001 -20.1286
   -20.1169 -20.0592 -19.2925 -18.0367 -18.0298 -18.0178 -17.9511 -17.9176
   -17.5222 -17.0472 -17.0236 -17.0121 -16.8332 -16.7541 -16.2093 -15.7245
   -15.7125 -15.6756 -15.3908 -15.3587 -14.3361 -13.3557 -13.3000 -13.2986
   -13.2638 -13.2626 -13.2242 -13.2141 -13.1638 -13.1629 -12.6747 -12.6610
   -12.0118 -11.8913 -11.8474 -11.7870 -11.7398 -11.4300 -11.4128 -11.1723
   -10.8894 -10.8541 -10.8451 -10.7899 -10.7625 -10.6734 -10.5923 -10.5735
   -10.5691 -10.5285 -10.4713 -10.4557 -10.4112 -10.4064 -10.3858  -9.5336
    -9.4711  -8.9596  -8.9144  -8.8890  -8.8005  -8.7271  -8.7236  -8.7170
    -8.6869  -8.6280  -8.3816  -8.1946  -7.8722  -7.8132  -7.8048  -7.7863
    -7.7267  -7.7005  -7.6988  -7.0156  -5.8603  -5.8500  -5.8086  -5.7788
    -5.7716  -4.8475  -4.7895  -3.5346  -3.0667  -3.0049  -2.9964  -2.9307
    -2.8904  -2.1971  -1.2267  -1.1713  -1.1613  -1.0123  -0.9762  -0.9731
    -0.3253  -0.1254   0.2627   0.2710   0.2773   0.3095   0.3183   0.4424
     0.5093   0.5714   0.5736   0.6923   0.7663   1.1369   1.1468   1.1631
     1.1704   1.1729

 ------ SPIN DOWN ----------


          k = 0.0000 0.0000 0.0000 (119010 PWs)   bands (ev):

   -23.7690 -22.9346 -22.9305 -22.8833 -22.8572 -22.7912 -22.3435 -21.0679
   -21.0676 -21.0317 -20.9804 -20.9422 -20.6535 -20.1696 -20.1688 -20.1066
   -20.0371 -20.0192 -19.1953 -18.0137 -18.0044 -17.9880 -17.9188 -17.8251
   -17.3824 -17.0182 -17.0005 -16.9792 -16.7578 -16.7226 -16.1496 -15.6786
   -15.6752 -15.6430 -15.3195 -15.2950 -14.2109 -13.3082 -13.2749 -13.2590
   -13.2259 -13.2246 -13.1849 -13.1651 -13.1450 -13.1353 -12.6523 -12.5810
   -11.9598 -11.8334 -11.8161 -11.7474 -11.7188 -11.4030 -11.3616 -11.0600
   -10.8231 -10.8085 -10.7744 -10.7606 -10.7019 -10.6119 -10.5684 -10.5432
   -10.5293 -10.4995 -10.4530 -10.4445 -10.3754 -10.3683 -10.2318  -9.4958
    -9.3921  -8.9303  -8.8774  -8.8619  -8.7847  -8.6656  -8.6529  -8.6433
    -8.6134  -8.5867  -8.2792  -7.8380  -7.7566  -7.7531  -7.7260  -7.7226
    -7.6685  -7.6673  -7.5192  -6.8702  -5.8070  -5.7926  -5.7765  -5.7111
    -5.6447  -4.3930  -3.2353  -3.0322  -2.9819  -2.9647  -2.8569  -2.7922
    -2.7576  -2.0868  -1.1855  -1.1283  -1.0371  -0.9565  -0.8971  -0.8626
    -0.2068  -0.0967   0.2751   0.2775   0.2858   0.3251   0.3296   0.5001
     0.5381   0.6592   0.6593   0.7966   0.9720   1.1440   1.1513   1.1749
     1.1778   1.2121

     the Fermi energy is    -4.6853 ev

!    total energy              =    -589.73382796 Ry
     estimated scf accuracy    <          7.8E-11 Ry
     smearing contrib. (-TS)   =       0.00176179 Ry
     internal energy E=F+TS    =    -589.73558976 Ry

     The total energy is F=E-TS. E is the sum of the following terms:
     one-electron contribution =   -6596.07439533 Ry
     hartree contribution      =    3316.27995200 Ry
     xc contribution           =    -209.65102858 Ry
     ewald contribution        =    2899.70988215 Ry

     total magnetization       =     2.00 Bohr mag/cell
     absolute magnetization    =     2.96 Bohr mag/cell

     convergence has been achieved in  14 iterations

     Forces acting on atoms (cartesian axes, Ry/au):

     atom    1 type  1   force =    -0.00205844   -0.00000487    0.00000001
     atom    2 type  1   force =    -0.00204932   -0.00000639   -0.00000000
     atom    3 type  1   force =    -0.00154985    0.00068378   -0.00000001
     atom    4 type  1   force =    -0.00153638    0.00002798   -0.00000000
     atom    5 type  1   force =     0.00240901   -0.00280496    0.00000001
     atom    6 type  1   force =     0.00171484   -0.00146006    0.00000000
     atom    7 type  1   force =     0.00223309   -0.00437296   -0.00000000
     atom    8 type  1   force =     0.00005995   -0.00197305    0.00000001
     atom    9 type  1   force =     0.00033828   -0.00353445   -0.00000001
     atom   10 type  1   force =    -0.00159983    0.00086440    0.00000001
     atom   11 type  1   force =    -0.00155126   -0.00069300   -0.00000001
     atom   12 type  1   force =    -0.00153770   -0.00002958    0.00000001
     atom   13 type  1   force =     0.00167403    0.00000115    0.00000000
     atom   14 type  1   force =     0.00231861    0.00000649   -0.00000000
     atom   15 type  1   force =     0.00143189    0.00210817   -0.00000001
     atom   16 type  2   force =     0.00167208   -0.00846989   -0.00000001
     atom   17 type  1   force =    -0.00088764    0.00432416   -0.00000000
     atom   18 type  1   force =     0.00056329   -0.00094833    0.00000000
     atom   19 type  1   force =    -0.00161660   -0.00167493   -0.00000001
     atom   20 type  1   force =     0.00024095   -0.00074108    0.00000001
     atom   21 type  1   force =     0.00239125    0.00279683    0.00000001
     atom   22 type  1   force =     0.00169430    0.00144998   -0.00000000
     atom   23 type  1   force =     0.00141779   -0.00212178    0.00000000
     atom   24 type  2   force =     0.00164130    0.00843866   -0.00000000
     atom   25 type  2   force =    -0.00991274    0.00001633   -0.00000000
     atom   26 type  1   force =     0.00276194   -0.00047992   -0.00000000
     atom   27 type  1   force =     0.00048481   -0.00073866    0.00000001
     atom   28 type  1   force =    -0.00342585   -0.00234911   -0.00000001
     atom   29 type  1   force =     0.00117958   -0.00092822   -0.00000001
     atom   30 type  1   force =     0.00223340    0.00436331    0.00000000
     atom   31 type  1   force =     0.00005764    0.00196924    0.00000001
     atom   32 type  1   force =    -0.00089945   -0.00432468   -0.00000001
     atom   33 type  1   force =     0.00055411    0.00097012   -0.00000000
     atom   34 type  1   force =     0.00274473    0.00049370    0.00000000
     atom   35 type  1   force =     0.00047467    0.00074519   -0.00000001
     atom   36 type  1   force =    -0.00559802   -0.00000040   -0.00000000
     atom   37 type  1   force =     0.00159782    0.00000189    0.00000002
     atom   38 type  1   force =     0.00059528    0.00160856   -0.00000001
     atom   39 type  1   force =     0.00107191   -0.00007941    0.00000000
     atom   40 type  1   force =     0.00034042    0.00353477    0.00000001
     atom   41 type  1   force =    -0.00159605   -0.00086557    0.00000000
     atom   42 type  1   force =    -0.00162492    0.00168861    0.00000000
     atom   43 type  1   force =     0.00023601    0.00074055   -0.00000000
     atom   44 type  1   force =    -0.00343668    0.00235469    0.00000001
     atom   45 type  1   force =     0.00117902    0.00092766   -0.00000000
     atom   46 type  1   force =     0.00059502   -0.00160286   -0.00000001
     atom   47 type  1   force =     0.00107064    0.00008153    0.00000001
     atom   48 type  1   force =     0.00229102    0.00000362    0.00000000
     atom   49 type  1   force =    -0.00038794    0.00000276   -0.00000001

     Total force =     0.023857     Total SCF correction =     0.000007
     Energy error            =      1.0E-03 Ry
     Gradient error          =      9.9E-03 Ry/Bohr

     number of scf cycles    =  10
     number of bfgs steps    =   9

     energy             old  =    -589.7328273844 Ry
     energy             new  =    -589.7338279609 Ry

     CASE: energy            _new < energy            _old

     new trust radius        =       0.0323189957 bohr
     new conv_thr            =            9.9E-11 Ry


ATOMIC_POSITIONS (crystal)
C                0.0657536541        0.0657485507        0.0000000010
C                0.1323825166        0.1323789900       -0.0000000004
C                0.0650687564        0.2661970163       -0.0000000019
C                0.1313878977        0.3325305131       -0.0000000023
C                0.0670363426        0.4657483220       -0.0000000033
C                0.1337718121        0.5322192559       -0.0000000013
C                0.0684080157        0.6652067028       -0.0000000005
C                0.1378508136        0.7286421687       -0.0000000006
C                0.0686359128        0.8642163553        0.0000000018
C                0.1335725694        0.9321102755        0.0000000009
C                0.2661999826        0.0650647129       -0.0000000001
C                0.3325315308        0.1313870363       -0.0000000010
C                0.2646462901        0.2646457697       -0.0000000018
C                0.3301323352        0.3301346629       -0.0000000008
C                0.2678561833        0.4630654063       -0.0000000005
C1               0.3386670893        0.5222711541       -0.0000000007
C                0.2755234418        0.6570429086       -0.0000000004
C                0.3355845500        0.7312321455        0.0000000002
C                0.2676077174        0.8642341266        0.0000000001
C                0.3337109780        0.9322172200        0.0000000008
C                0.4657486076        0.0670396575       -0.0000000010
C                0.5322170448        0.1337797761       -0.0000000002
C                0.4630635201        0.2678657197        0.0000000005
C1               0.5222674489        0.3386805202        0.0000000010
C1               0.5401420050        0.5401320976        0.0000000019
C                0.4690715122        0.6683803398        0.0000000010
C                0.5354823976        0.7354936031        0.0000000022
C                0.4671354727        0.8678454842        0.0000000025
C                0.5338950319        0.9341291834        0.0000000027
C                0.6652042971        0.0684146484       -0.0000000003
C                0.7286405628        0.1378566811       -0.0000000005
C                0.6570428683        0.2755293964        0.0000000006
C                0.7312407142        0.3355814229        0.0000000001
C                0.6683900000        0.4690671202        0.0000000009
C                0.7354984615        0.5354807740       -0.0000000003
C                0.6684945306        0.6684931686        0.0000000006
C                0.7349796434        0.7349817980       -0.0000000003
C                0.6673047180        0.8679818796        0.0000000031
C                0.7336551893        0.9343424604        0.0000000002
C                0.8642159566        0.0686378858        0.0000000011
C                0.9321154983        0.1335686860        0.0000000014
C                0.8642421719        0.2676033491       -0.0000000003
C                0.9322224568        0.3337086528       -0.0000000018
C                0.8678486995        0.4671337065       -0.0000000029
C                0.9341273435        0.5338962116       -0.0000000031
C                0.8679786969        0.6673067493       -0.0000000002
C                0.9343366887        0.7336590940       -0.0000000008
C                0.8670155765        0.8670198379        0.0000000006
C                0.9334278293        0.9334301359        0.0000000023



     Writing config-only to output data dir /home/gregb26/links/scratch/qe_tmp/vacancy_relaxed/series/5x5/nspin2/vac_5x5_relax_nspin2.save/ :
     XML data file
     NEW-OLD atomic charge density approx. for the potential

     negative rho (up, down):  1.288E-06 1.484E-06
     Generating pointlists ...

     total cpu time spent up to now is      234.1 secs

     per-process dynamical memory:   167.8 Mb

     Self-consistent Calculation

     iteration #  1     ecut=   100.00 Ry     beta= 0.30
     Davidson diagonalization with overlap
     ethr =  1.00E-06,  avg # of iterations =  6.0
     Minimization algorithm failed to find Fermi energy: reverting to bisection
     Possible cause: smearing is larger than the electronic band-gap.

     negative rho (up, down):  1.906E-06 1.962E-06

     total cpu time spent up to now is      235.9 secs

     total energy              =    -589.73426311 Ry
     estimated scf accuracy    <       0.00048159 Ry

     total magnetization       =     2.00 Bohr mag/cell
     absolute magnetization    =     2.96 Bohr mag/cell

     iteration #  2     ecut=   100.00 Ry     beta= 0.30
     Davidson diagonalization with overlap
     ethr =  2.46E-07,  avg # of iterations =  2.0
     Minimization algorithm failed to find Fermi energy: reverting to bisection
     Possible cause: smearing is larger than the electronic band-gap.

     negative rho (up, down):  1.525E-06 1.577E-06

     total cpu time spent up to now is      236.9 secs

     total energy              =    -589.73428164 Ry
     estimated scf accuracy    <       0.00032658 Ry

     total magnetization       =     2.00 Bohr mag/cell
     absolute magnetization    =     2.96 Bohr mag/cell

     iteration #  3     ecut=   100.00 Ry     beta= 0.30
     Davidson diagonalization with overlap
     ethr =  1.67E-07,  avg # of iterations =  1.5
     Minimization algorithm failed to find Fermi energy: reverting to bisection
     Possible cause: smearing is larger than the electronic band-gap.

     negative rho (up, down):  7.095E-07 7.443E-07

     total cpu time spent up to now is      237.7 secs

     total energy              =    -589.73431037 Ry
     estimated scf accuracy    <       0.00015832 Ry

     total magnetization       =     2.00 Bohr mag/cell
     absolute magnetization    =     2.96 Bohr mag/cell

     iteration #  4     ecut=   100.00 Ry     beta= 0.30
     Davidson diagonalization with overlap
     ethr =  8.08E-08,  avg # of iterations =  1.5
     Minimization algorithm failed to find Fermi energy: reverting to bisection
     Possible cause: smearing is larger than the electronic band-gap.

     negative rho (up, down):  2.623E-07 2.816E-07

     total cpu time spent up to now is      238.8 secs

     total energy              =    -589.73432404 Ry
     estimated scf accuracy    <       0.00001412 Ry

     total magnetization       =     2.00 Bohr mag/cell
     absolute magnetization    =     2.96 Bohr mag/cell

     iteration #  5     ecut=   100.00 Ry     beta= 0.30
     Davidson diagonalization with overlap
     ethr =  7.20E-09,  avg # of iterations =  2.0
     Minimization algorithm failed to find Fermi energy: reverting to bisection
     Possible cause: smearing is larger than the electronic band-gap.

     negative rho (up, down):  9.792E-08 1.081E-07

     total cpu time spent up to now is      240.0 secs

     total energy              =    -589.73432712 Ry
     estimated scf accuracy    <       0.00000341 Ry

     total magnetization       =     2.00 Bohr mag/cell
     absolute magnetization    =     2.95 Bohr mag/cell

     iteration #  6     ecut=   100.00 Ry     beta= 0.30
     Davidson diagonalization with overlap
     ethr =  1.74E-09,  avg # of iterations =  2.0
     Minimization algorithm failed to find Fermi energy: reverting to bisection
     Possible cause: smearing is larger than the electronic band-gap.

     negative rho (up, down):  2.885E-08 3.335E-08

     total cpu time spent up to now is      241.1 secs

     total energy              =    -589.73432796 Ry
     estimated scf accuracy    <       0.00000092 Ry

     total magnetization       =     2.00 Bohr mag/cell
     absolute magnetization    =     2.95 Bohr mag/cell

     iteration #  7     ecut=   100.00 Ry     beta= 0.30
     Davidson diagonalization with overlap
     ethr =  4.68E-10,  avg # of iterations =  3.0
     Minimization algorithm failed to find Fermi energy: reverting to bisection
     Possible cause: smearing is larger than the electronic band-gap.

     total cpu time spent up to now is      242.1 secs

     total energy              =    -589.73432831 Ry
     estimated scf accuracy    <       0.00000033 Ry

     total magnetization       =     2.00 Bohr mag/cell
     absolute magnetization    =     2.95 Bohr mag/cell

     iteration #  8     ecut=   100.00 Ry     beta= 0.30
     Davidson diagonalization with overlap
     ethr =  1.66E-10,  avg # of iterations =  3.5
     Minimization algorithm failed to find Fermi energy: reverting to bisection
     Possible cause: smearing is larger than the electronic band-gap.

     total cpu time spent up to now is      243.1 secs

     total energy              =    -589.73432849 Ry
     estimated scf accuracy    <       0.00000014 Ry

     total magnetization       =     2.00 Bohr mag/cell
     absolute magnetization    =     2.95 Bohr mag/cell

     iteration #  9     ecut=   100.00 Ry     beta= 0.30
     Davidson diagonalization with overlap
     ethr =  6.95E-11,  avg # of iterations =  2.5
     Minimization algorithm failed to find Fermi energy: reverting to bisection
     Possible cause: smearing is larger than the electronic band-gap.

     total cpu time spent up to now is      244.1 secs

     total energy              =    -589.73432859 Ry
     estimated scf accuracy    <       0.00000006 Ry

     total magnetization       =     2.00 Bohr mag/cell
     absolute magnetization    =     2.95 Bohr mag/cell

     iteration # 10     ecut=   100.00 Ry     beta= 0.30
     Davidson diagonalization with overlap
     ethr =  2.96E-11,  avg # of iterations =  3.0
     Minimization algorithm failed to find Fermi energy: reverting to bisection
     Possible cause: smearing is larger than the electronic band-gap.

     total cpu time spent up to now is      245.1 secs

     total energy              =    -589.73432864 Ry
     estimated scf accuracy    <       0.00000002 Ry

     total magnetization       =     2.00 Bohr mag/cell
     absolute magnetization    =     2.95 Bohr mag/cell

     iteration # 11     ecut=   100.00 Ry     beta= 0.30
     Davidson diagonalization with overlap
     ethr =  1.20E-11,  avg # of iterations =  4.0
     Minimization algorithm failed to find Fermi energy: reverting to bisection
     Possible cause: smearing is larger than the electronic band-gap.

     total cpu time spent up to now is      246.3 secs

     total energy              =    -589.73432867 Ry
     estimated scf accuracy    <          5.6E-09 Ry

     total magnetization       =     2.00 Bohr mag/cell
     absolute magnetization    =     2.94 Bohr mag/cell

     iteration # 12     ecut=   100.00 Ry     beta= 0.30
     Davidson diagonalization with overlap
     ethr =  2.87E-12,  avg # of iterations =  4.0
     Minimization algorithm failed to find Fermi energy: reverting to bisection
     Possible cause: smearing is larger than the electronic band-gap.

     total cpu time spent up to now is      247.5 secs

     total energy              =    -589.73432868 Ry
     estimated scf accuracy    <          2.3E-09 Ry

     total magnetization       =     2.00 Bohr mag/cell
     absolute magnetization    =     2.94 Bohr mag/cell

     iteration # 13     ecut=   100.00 Ry     beta= 0.30
     Davidson diagonalization with overlap
     ethr =  1.16E-12,  avg # of iterations =  4.5
     Minimization algorithm failed to find Fermi energy: reverting to bisection
     Possible cause: smearing is larger than the electronic band-gap.

     total cpu time spent up to now is      248.8 secs

     total energy              =    -589.73432868 Ry
     estimated scf accuracy    <          5.2E-10 Ry

     total magnetization       =     2.00 Bohr mag/cell
     absolute magnetization    =     2.94 Bohr mag/cell

     iteration # 14     ecut=   100.00 Ry     beta= 0.30
     Davidson diagonalization with overlap
     ethr =  2.67E-13,  avg # of iterations =  4.0
     Minimization algorithm failed to find Fermi energy: reverting to bisection
     Possible cause: smearing is larger than the electronic band-gap.

     total cpu time spent up to now is      250.0 secs

     total energy              =    -589.73432868 Ry
     estimated scf accuracy    <          3.4E-10 Ry

     total magnetization       =     2.00 Bohr mag/cell
     absolute magnetization    =     2.94 Bohr mag/cell

     iteration # 15     ecut=   100.00 Ry     beta= 0.30
     Davidson diagonalization with overlap
     ethr =  1.73E-13,  avg # of iterations =  5.0
     Minimization algorithm failed to find Fermi energy: reverting to bisection
     Possible cause: smearing is larger than the electronic band-gap.

     total cpu time spent up to now is      251.3 secs

     total energy              =    -589.73432868 Ry
     estimated scf accuracy    <          1.6E-10 Ry

     total magnetization       =     2.00 Bohr mag/cell
     absolute magnetization    =     2.94 Bohr mag/cell

     iteration # 16     ecut=   100.00 Ry     beta= 0.30
     Davidson diagonalization with overlap
     ethr =  1.00E-13,  avg # of iterations =  3.0
     Minimization algorithm failed to find Fermi energy: reverting to bisection
     Possible cause: smearing is larger than the electronic band-gap.

     Magnetic moment per site  (integrated on atomic sphere of radius R)
     atom   1 (R=0.045)  charge=  1.5203  magn= -0.0117
     atom   2 (R=0.045)  charge=  1.5198  magn=  0.0711
     atom   3 (R=0.045)  charge=  1.5266  magn= -0.0116
     atom   4 (R=0.045)  charge=  1.5276  magn=  0.0198
     atom   5 (R=0.045)  charge=  1.5255  magn= -0.0059
     atom   6 (R=0.045)  charge=  1.5195  magn=  0.0068
     atom   7 (R=0.045)  charge=  1.5228  magn= -0.0049
     atom   8 (R=0.045)  charge=  1.4942  magn=  0.0047
     atom   9 (R=0.045)  charge=  1.5056  magn= -0.0082
     atom  10 (R=0.045)  charge=  1.5201  magn=  0.0199
     atom  11 (R=0.045)  charge=  1.5266  magn= -0.0116
     atom  12 (R=0.045)  charge=  1.5276  magn=  0.0198
     atom  13 (R=0.045)  charge=  1.5358  magn= -0.0104
     atom  14 (R=0.045)  charge=  1.5401  magn=  0.0475
     atom  15 (R=0.045)  charge=  1.5335  magn= -0.0061
     atom  16 (R=0.045)  charge=  1.4147  magn=  0.0718
     atom  17 (R=0.045)  charge=  1.4826  magn= -0.0138
     atom  18 (R=0.045)  charge=  1.5167  magn=  0.0562
     atom  19 (R=0.045)  charge=  1.5170  magn= -0.0116
     atom  20 (R=0.045)  charge=  1.5208  magn=  0.0182
     atom  21 (R=0.045)  charge=  1.5254  magn= -0.0059
     atom  22 (R=0.045)  charge=  1.5195  magn=  0.0067
     atom  23 (R=0.045)  charge=  1.5335  magn= -0.0061
     atom  24 (R=0.045)  charge=  1.4147  magn=  0.0716
     atom  25 (R=0.045)  charge=  1.4887  magn=  0.3306
     atom  26 (R=0.045)  charge=  1.5401  magn= -0.0108
     atom  27 (R=0.045)  charge=  1.5286  magn=  0.0238
     atom  28 (R=0.045)  charge=  1.5285  magn= -0.0041
     atom  29 (R=0.045)  charge=  1.5255  magn=  0.0129
     atom  30 (R=0.045)  charge=  1.5228  magn= -0.0049
     atom  31 (R=0.045)  charge=  1.4942  magn=  0.0047
     atom  32 (R=0.045)  charge=  1.4826  magn= -0.0137
     atom  33 (R=0.045)  charge=  1.5168  magn=  0.0562
     atom  34 (R=0.045)  charge=  1.5401  magn= -0.0108
     atom  35 (R=0.045)  charge=  1.5287  magn=  0.0238
     atom  36 (R=0.045)  charge=  1.5289  magn= -0.0102
     atom  37 (R=0.045)  charge=  1.5282  magn=  0.0054
     atom  38 (R=0.045)  charge=  1.5279  magn= -0.0065
     atom  39 (R=0.045)  charge=  1.5218  magn=  0.0058
     atom  40 (R=0.045)  charge=  1.5056  magn= -0.0082
     atom  41 (R=0.045)  charge=  1.5201  magn=  0.0199
     atom  42 (R=0.045)  charge=  1.5170  magn= -0.0116
     atom  43 (R=0.045)  charge=  1.5208  magn=  0.0182
     atom  44 (R=0.045)  charge=  1.5285  magn= -0.0041
     atom  45 (R=0.045)  charge=  1.5256  magn=  0.0129
     atom  46 (R=0.045)  charge=  1.5279  magn= -0.0065
     atom  47 (R=0.045)  charge=  1.5218  magn=  0.0058
     atom  48 (R=0.045)  charge=  1.5247  magn= -0.0063
     atom  49 (R=0.045)  charge=  1.5064  magn=  0.0143

     total cpu time spent up to now is      252.3 secs

     End of self-consistent calculation

 ------ SPIN UP ------------


          k = 0.0000 0.0000 0.0000 (119010 PWs)   bands (ev):

   -23.7988 -22.9820 -22.9446 -22.9226 -22.8732 -22.8120 -22.4420 -21.1020
   -21.0877 -21.0507 -21.0487 -20.9590 -20.7090 -20.2338 -20.1923 -20.1287
   -20.1035 -20.0517 -19.2900 -18.0272 -18.0180 -18.0152 -17.9394 -17.9154
   -17.5199 -17.0346 -17.0119 -17.0058 -16.8357 -16.7536 -16.2121 -15.7109
   -15.7025 -15.6640 -15.3911 -15.3593 -14.3507 -13.3470 -13.2934 -13.2865
   -13.2499 -13.2488 -13.2198 -13.2039 -13.1614 -13.1582 -12.6718 -12.6559
   -12.0093 -11.8873 -11.8260 -11.7855 -11.7373 -11.4284 -11.4049 -11.1812
   -10.8823 -10.8482 -10.8473 -10.7853 -10.7522 -10.6589 -10.5832 -10.5578
   -10.5531 -10.5266 -10.4570 -10.4549 -10.4037 -10.4028 -10.3815  -9.5334
    -9.4646  -8.9516  -8.9029  -8.8764  -8.7853  -8.7193  -8.7168  -8.7108
    -8.6819  -8.6197  -8.3811  -8.2967  -7.8721  -7.8147  -7.7987  -7.7807
    -7.7161  -7.7033  -7.6972  -7.0146  -5.8580  -5.8419  -5.8019  -5.7762
    -5.7655  -4.8564  -4.8235  -3.4632  -3.0623  -3.0122  -2.9929  -2.9283
    -2.8885  -2.2097  -1.2271  -1.1676  -1.1562  -1.0176  -0.9811  -0.9732
    -0.3421  -0.1256   0.2616   0.2720   0.2773   0.3108   0.3191   0.4399
     0.5083   0.5712   0.5717   0.6865   0.7597   1.1364   1.1470   1.1636
     1.1709   1.1742

 ------ SPIN DOWN ----------


          k = 0.0000 0.0000 0.0000 (119010 PWs)   bands (ev):

   -23.7646 -22.9258 -22.9257 -22.8851 -22.8512 -22.7807 -22.3384 -21.0572
   -21.0561 -21.0243 -20.9777 -20.9357 -20.6535 -20.1685 -20.1609 -20.1015
   -20.0274 -20.0118 -19.1911 -18.0027 -17.9954 -17.9826 -17.9096 -17.8210
   -17.3839 -17.0050 -16.9895 -16.9741 -16.7581 -16.7224 -16.1516 -15.6652
   -15.6649 -15.6320 -15.3200 -15.2940 -14.2231 -13.3001 -13.2603 -13.2537
   -13.2191 -13.2133 -13.1699 -13.1578 -13.1416 -13.1317 -12.6497 -12.5747
   -11.9559 -11.8308 -11.7939 -11.7470 -11.7167 -11.4022 -11.3532 -11.0638
   -10.8166 -10.8059 -10.7764 -10.7568 -10.6944 -10.5979 -10.5643 -10.5209
   -10.5199 -10.4917 -10.4439 -10.4371 -10.3739 -10.3598 -10.2291  -9.4951
    -9.3858  -8.9195  -8.8661  -8.8492  -8.7690  -8.6600  -8.6472  -8.6392
    -8.6096  -8.5804  -8.2796  -7.9227  -7.7568  -7.7525  -7.7296  -7.7166
    -7.6698  -7.6562  -7.5381  -6.8693  -5.7999  -5.7868  -5.7746  -5.7065
    -5.6409  -4.4095  -3.1613  -3.0294  -2.9887  -2.9652  -2.8356  -2.7879
    -2.7552  -2.0990  -1.1862  -1.1257  -1.0353  -0.9567  -0.9024  -0.8668
    -0.2226  -0.1005   0.2737   0.2783   0.2857   0.3260   0.3299   0.4978
     0.5392   0.6548   0.6567   0.7880   0.9667   1.1432   1.1513   1.1753
     1.1781   1.2130

     the Fermi energy is    -4.7122 ev

!    total energy              =    -589.73432868 Ry
     estimated scf accuracy    <          5.2E-11 Ry
     smearing contrib. (-TS)   =       0.00167940 Ry
     internal energy E=F+TS    =    -589.73600808 Ry

     The total energy is F=E-TS. E is the sum of the following terms:
     one-electron contribution =   -6595.47297380 Ry
     hartree contribution      =    3315.99517755 Ry
     xc contribution           =    -209.62560758 Ry
     ewald contribution        =    2899.36739575 Ry

     total magnetization       =     2.00 Bohr mag/cell
     absolute magnetization    =     2.94 Bohr mag/cell

     convergence has been achieved in  16 iterations

     Forces acting on atoms (cartesian axes, Ry/au):

     atom    1 type  1   force =    -0.00267523    0.00000332   -0.00000000
     atom    2 type  1   force =     0.00021364   -0.00000231    0.00000000
     atom    3 type  1   force =     0.00027521    0.00111833    0.00000000
     atom    4 type  1   force =     0.00154895   -0.00083103   -0.00000001
     atom    5 type  1   force =     0.00121697    0.00164645    0.00000000
     atom    6 type  1   force =     0.00014414   -0.00220906   -0.00000001
     atom    7 type  1   force =     0.00218280   -0.00173116    0.00000000
     atom    8 type  1   force =     0.00077270   -0.00303498    0.00000001
     atom    9 type  1   force =    -0.00159692   -0.00095452   -0.00000001
     atom   10 type  1   force =    -0.00082317   -0.00160248    0.00000000
     atom   11 type  1   force =     0.00028188   -0.00111796   -0.00000000
     atom   12 type  1   force =     0.00154502    0.00083240   -0.00000000
     atom   13 type  1   force =     0.00368976   -0.00000034    0.00000000
     atom   14 type  1   force =    -0.00235576   -0.00000152    0.00000000
     atom   15 type  1   force =     0.00382319    0.00060786   -0.00000000
     atom   16 type  2   force =    -0.00354366   -0.00329079    0.00000000
     atom   17 type  1   force =     0.00077507   -0.00033198    0.00000000
     atom   18 type  1   force =     0.00130896    0.00140372   -0.00000000
     atom   19 type  1   force =    -0.00079712   -0.00082428    0.00000000
     atom   20 type  1   force =    -0.00175163   -0.00135900   -0.00000000
     atom   21 type  1   force =     0.00120665   -0.00164620    0.00000001
     atom   22 type  1   force =     0.00013179    0.00219725   -0.00000000
     atom   23 type  1   force =     0.00380477   -0.00061018   -0.00000000
     atom   24 type  2   force =    -0.00354801    0.00326424   -0.00000001
     atom   25 type  2   force =    -0.00213051    0.00000052    0.00000000
     atom   26 type  1   force =     0.00094652   -0.00298706    0.00000001
     atom   27 type  1   force =    -0.00341611    0.00059864   -0.00000000
     atom   28 type  1   force =     0.00213180   -0.00143962   -0.00000000
     atom   29 type  1   force =    -0.00188959    0.00346750   -0.00000001
     atom   30 type  1   force =     0.00217239    0.00172691    0.00000000
     atom   31 type  1   force =     0.00076774    0.00302629    0.00000001
     atom   32 type  1   force =     0.00076567    0.00032292   -0.00000001
     atom   33 type  1   force =     0.00129406   -0.00138620    0.00000000
     atom   34 type  1   force =     0.00094083    0.00300845   -0.00000000
     atom   35 type  1   force =    -0.00342472   -0.00059200   -0.00000000
     atom   36 type  1   force =     0.00018720    0.00000291    0.00000001
     atom   37 type  1   force =    -0.00794080    0.00000126    0.00000002
     atom   38 type  1   force =     0.00039025   -0.00118031   -0.00000001
     atom   39 type  1   force =     0.00255929    0.00484726    0.00000001
     atom   40 type  1   force =    -0.00159343    0.00095398    0.00000001
     atom   41 type  1   force =    -0.00082129    0.00161249   -0.00000001
     atom   42 type  1   force =    -0.00080843    0.00084293    0.00000000
     atom   43 type  1   force =    -0.00176248    0.00136374   -0.00000000
     atom   44 type  1   force =     0.00212927    0.00144206    0.00000000
     atom   45 type  1   force =    -0.00188648   -0.00347444    0.00000000
     atom   46 type  1   force =     0.00039025    0.00117636   -0.00000001
     atom   47 type  1   force =     0.00256513   -0.00485725    0.00000000
     atom   48 type  1   force =    -0.00006630   -0.00000324   -0.00000000
     atom   49 type  1   force =     0.00266972    0.00000010   -0.00000001

     Total force =     0.020636     Total SCF correction =     0.000005
     Energy error            =      5.0E-04 Ry
     Gradient error          =      7.9E-03 Ry/Bohr

     number of scf cycles    =  11
     number of bfgs steps    =  10

     energy             old  =    -589.7338279609 Ry
     energy             new  =    -589.7343286844 Ry

     CASE: energy            _new < energy            _old

     new trust radius        =       0.0215254728 bohr
     new conv_thr            =            5.0E-11 Ry


ATOMIC_POSITIONS (crystal)
C                0.0656236736        0.0656181021        0.0000000011
C                0.1322385883        0.1322341354       -0.0000000005
C                0.0648985816        0.2661281709       -0.0000000020
C                0.1313481637        0.3323970853       -0.0000000024
C                0.0670975779        0.4657279967       -0.0000000034
C                0.1339806908        0.5320172261       -0.0000000015
C                0.0686122059        0.6651093967       -0.0000000004
C                0.1382226658        0.7283041799       -0.0000000000
C                0.0687791670        0.8639708480        0.0000000015
C                0.1335916975        0.9319402360        0.0000000011
C                0.2661317831        0.0648940973       -0.0000000003
C                0.3323981337        0.1313470590       -0.0000000008
C                0.2646012447        0.2646007175       -0.0000000018
C                0.3300129382        0.3300152881       -0.0000000009
C                0.2679671178        0.4629541658       -0.0000000009
C1               0.3395888252        0.5213451394       -0.0000000009
C                0.2759087088        0.6566015495       -0.0000000005
C                0.3357978526        0.7310330419        0.0000000003
C                0.2677096127        0.8639965169        0.0000000000
C                0.3337345724        0.9320142521        0.0000000009
C                0.4657279944        0.0671004661       -0.0000000006
C                0.5320150399        0.1339876209       -0.0000000004
C                0.4629521164        0.2679751250        0.0000000004
C1               0.5213418874        0.3395994809        0.0000000006
C1               0.5401148305        0.5401067697        0.0000000019
C                0.4693041781        0.6683617337        0.0000000011
C                0.5355998157        0.7355146589        0.0000000025
C                0.4672850509        0.8678432432        0.0000000022
C                0.5337853147        0.9342881706        0.0000000025
C                0.6651067625        0.0686188409       -0.0000000001
C                0.7283027651        0.1382284944        0.0000000000
C                0.6566014974        0.2759140675        0.0000000003
C                0.7310403029        0.3357952389       -0.0000000001
C                0.6683695844        0.4693004941        0.0000000011
C                0.7355188193        0.5355980636       -0.0000000004
C                0.6686456699        0.6686445784        0.0000000005
C                0.7350051829        0.7350077779        0.0000000004
C                0.6673903369        0.8680968082        0.0000000030
C                0.7336227861        0.9346156703        0.0000000007
C                0.8639706099        0.0687813628        0.0000000016
C                0.9319456415        0.1335879485        0.0000000013
C                0.8640038862        0.2677055348       -0.0000000001
C                0.9320194980        0.3337317873       -0.0000000018
C                0.8678463156        0.4672831354       -0.0000000029
C                0.9342865597        0.5337863422       -0.0000000035
C                0.8680933077        0.6673925891       -0.0000000007
C                0.9346097636        0.7336268841       -0.0000000007
C                0.8670885770        0.8670931348        0.0000000004
C                0.9334954370        0.9334981063        0.0000000018



     Writing config-only to output data dir /home/gregb26/links/scratch/qe_tmp/vacancy_relaxed/series/5x5/nspin2/vac_5x5_relax_nspin2.save/ :
     XML data file
     NEW-OLD atomic charge density approx. for the potential

     negative rho (up, down):  8.318E-07 8.988E-07
     Generating pointlists ...

     total cpu time spent up to now is      253.0 secs

     per-process dynamical memory:   167.8 Mb

     Self-consistent Calculation

     iteration #  1     ecut=   100.00 Ry     beta= 0.30
     Davidson diagonalization with overlap
     ethr =  1.00E-06,  avg # of iterations =  6.0
     Minimization algorithm failed to find Fermi energy: reverting to bisection
     Possible cause: smearing is larger than the electronic band-gap.

     negative rho (up, down):  8.761E-07 8.738E-07

     total cpu time spent up to now is      254.7 secs

     total energy              =    -589.73446179 Ry
     estimated scf accuracy    <       0.00044357 Ry

     total magnetization       =     2.00 Bohr mag/cell
     absolute magnetization    =     2.94 Bohr mag/cell

     iteration #  2     ecut=   100.00 Ry     beta= 0.30
     Davidson diagonalization with overlap
     ethr =  2.26E-07,  avg # of iterations =  2.0
     Minimization algorithm failed to find Fermi energy: reverting to bisection
     Possible cause: smearing is larger than the electronic band-gap.

     negative rho (up, down):  7.543E-07 7.549E-07

     total cpu time spent up to now is      255.7 secs

     total energy              =    -589.73449706 Ry
     estimated scf accuracy    <       0.00079861 Ry

     total magnetization       =     2.00 Bohr mag/cell
     absolute magnetization    =     2.94 Bohr mag/cell

     iteration #  3     ecut=   100.00 Ry     beta= 0.30
     Davidson diagonalization with overlap
     ethr =  2.26E-07,  avg # of iterations =  1.5
     Minimization algorithm failed to find Fermi energy: reverting to bisection
     Possible cause: smearing is larger than the electronic band-gap.

     negative rho (up, down):  3.964E-07 4.021E-07

     total cpu time spent up to now is      256.5 secs

     total energy              =    -589.73457607 Ry
     estimated scf accuracy    <       0.00006419 Ry

     total magnetization       =     2.00 Bohr mag/cell
     absolute magnetization    =     2.94 Bohr mag/cell

     iteration #  4     ecut=   100.00 Ry     beta= 0.30
     Davidson diagonalization with overlap
     ethr =  3.27E-08,  avg # of iterations =  2.0
     Minimization algorithm failed to find Fermi energy: reverting to bisection
     Possible cause: smearing is larger than the electronic band-gap.

     negative rho (up, down):  1.277E-07 1.328E-07

     total cpu time spent up to now is      257.3 secs

     total energy              =    -589.73458172 Ry
     estimated scf accuracy    <       0.00001520 Ry

     total magnetization       =     2.00 Bohr mag/cell
     absolute magnetization    =     2.94 Bohr mag/cell

     iteration #  5     ecut=   100.00 Ry     beta= 0.30
     Davidson diagonalization with overlap
     ethr =  7.76E-09,  avg # of iterations =  2.0
     Minimization algorithm failed to find Fermi energy: reverting to bisection
     Possible cause: smearing is larger than the electronic band-gap.

     negative rho (up, down):  4.366E-08 4.663E-08

     total cpu time spent up to now is      258.3 secs

     total energy              =    -589.73458431 Ry
     estimated scf accuracy    <       0.00000330 Ry

     total magnetization       =     2.00 Bohr mag/cell
     absolute magnetization    =     2.94 Bohr mag/cell

     iteration #  6     ecut=   100.00 Ry     beta= 0.30
     Davidson diagonalization with overlap
     ethr =  1.68E-09,  avg # of iterations =  2.0
     Minimization algorithm failed to find Fermi energy: reverting to bisection
     Possible cause: smearing is larger than the electronic band-gap.

     negative rho (up, down):  9.840E-09 1.107E-08

     total cpu time spent up to now is      259.2 secs

     total energy              =    -589.73458510 Ry
     estimated scf accuracy    <       0.00000078 Ry

     total magnetization       =     2.00 Bohr mag/cell
     absolute magnetization    =     2.93 Bohr mag/cell

     iteration #  7     ecut=   100.00 Ry     beta= 0.30
     Davidson diagonalization with overlap
     ethr =  3.96E-10,  avg # of iterations =  3.5
     Minimization algorithm failed to find Fermi energy: reverting to bisection
     Possible cause: smearing is larger than the electronic band-gap.

     total cpu time spent up to now is      260.2 secs

     total energy              =    -589.73458549 Ry
     estimated scf accuracy    <       0.00000034 Ry

     total magnetization       =     2.00 Bohr mag/cell
     absolute magnetization    =     2.93 Bohr mag/cell

     iteration #  8     ecut=   100.00 Ry     beta= 0.30
     Davidson diagonalization with overlap
     ethr =  1.74E-10,  avg # of iterations =  2.0
     Minimization algorithm failed to find Fermi energy: reverting to bisection
     Possible cause: smearing is larger than the electronic band-gap.

     total cpu time spent up to now is      261.1 secs

     total energy              =    -589.73458568 Ry
     estimated scf accuracy    <       0.00000018 Ry

     total magnetization       =     2.00 Bohr mag/cell
     absolute magnetization    =     2.93 Bohr mag/cell

     iteration #  9     ecut=   100.00 Ry     beta= 0.30
     Davidson diagonalization with overlap
     ethr =  9.17E-11,  avg # of iterations =  3.0
     Minimization algorithm failed to find Fermi energy: reverting to bisection
     Possible cause: smearing is larger than the electronic band-gap.

     total cpu time spent up to now is      262.1 secs

     total energy              =    -589.73458579 Ry
     estimated scf accuracy    <       0.00000007 Ry

     total magnetization       =     2.00 Bohr mag/cell
     absolute magnetization    =     2.93 Bohr mag/cell

     iteration # 10     ecut=   100.00 Ry     beta= 0.30
     Davidson diagonalization with overlap
     ethr =  3.53E-11,  avg # of iterations =  3.0

     total cpu time spent up to now is      263.0 secs

     total energy              =    -589.73458583 Ry
     estimated scf accuracy    <       0.00000003 Ry

     total magnetization       =     2.00 Bohr mag/cell
     absolute magnetization    =     2.93 Bohr mag/cell

     iteration # 11     ecut=   100.00 Ry     beta= 0.30
     Davidson diagonalization with overlap
     ethr =  1.30E-11,  avg # of iterations =  4.0
     Minimization algorithm failed to find Fermi energy: reverting to bisection
     Possible cause: smearing is larger than the electronic band-gap.

     total cpu time spent up to now is      264.3 secs

     total energy              =    -589.73458587 Ry
     estimated scf accuracy    <          3.8E-09 Ry

     total magnetization       =     2.00 Bohr mag/cell
     absolute magnetization    =     2.93 Bohr mag/cell

     iteration # 12     ecut=   100.00 Ry     beta= 0.30
     Davidson diagonalization with overlap
     ethr =  1.93E-12,  avg # of iterations =  5.0
     Minimization algorithm failed to find Fermi energy: reverting to bisection
     Possible cause: smearing is larger than the electronic band-gap.

     total cpu time spent up to now is      265.7 secs

     total energy              =    -589.73458588 Ry
     estimated scf accuracy    <          9.7E-10 Ry

     total magnetization       =     2.00 Bohr mag/cell
     absolute magnetization    =     2.93 Bohr mag/cell

     iteration # 13     ecut=   100.00 Ry     beta= 0.30
     Davidson diagonalization with overlap
     ethr =  4.95E-13,  avg # of iterations =  4.0
     Minimization algorithm failed to find Fermi energy: reverting to bisection
     Possible cause: smearing is larger than the electronic band-gap.

     total cpu time spent up to now is      266.8 secs

     total energy              =    -589.73458588 Ry
     estimated scf accuracy    <          4.8E-10 Ry

     total magnetization       =     2.00 Bohr mag/cell
     absolute magnetization    =     2.93 Bohr mag/cell

     iteration # 14     ecut=   100.00 Ry     beta= 0.30
     Davidson diagonalization with overlap
     ethr =  2.47E-13,  avg # of iterations =  4.5
     Minimization algorithm failed to find Fermi energy: reverting to bisection
     Possible cause: smearing is larger than the electronic band-gap.

     total cpu time spent up to now is      268.0 secs

     total energy              =    -589.73458588 Ry
     estimated scf accuracy    <          2.2E-10 Ry

     total magnetization       =     2.00 Bohr mag/cell
     absolute magnetization    =     2.93 Bohr mag/cell

     iteration # 15     ecut=   100.00 Ry     beta= 0.30
     Davidson diagonalization with overlap
     ethr =  1.10E-13,  avg # of iterations =  4.0
     Minimization algorithm failed to find Fermi energy: reverting to bisection
     Possible cause: smearing is larger than the electronic band-gap.

     total cpu time spent up to now is      269.1 secs

     total energy              =    -589.73458588 Ry
     estimated scf accuracy    <          1.0E-10 Ry

     total magnetization       =     2.00 Bohr mag/cell
     absolute magnetization    =     2.92 Bohr mag/cell

     iteration # 16     ecut=   100.00 Ry     beta= 0.30
     Davidson diagonalization with overlap
     ethr =  1.00E-13,  avg # of iterations =  2.5
     Minimization algorithm failed to find Fermi energy: reverting to bisection
     Possible cause: smearing is larger than the electronic band-gap.

     Magnetic moment per site  (integrated on atomic sphere of radius R)
     atom   1 (R=0.045)  charge=  1.5203  magn= -0.0114
     atom   2 (R=0.045)  charge=  1.5190  magn=  0.0692
     atom   3 (R=0.045)  charge=  1.5259  magn= -0.0113
     atom   4 (R=0.045)  charge=  1.5268  magn=  0.0194
     atom   5 (R=0.045)  charge=  1.5256  magn= -0.0057
     atom   6 (R=0.045)  charge=  1.5199  magn=  0.0067
     atom   7 (R=0.045)  charge=  1.5231  magn= -0.0048
     atom   8 (R=0.045)  charge=  1.4939  magn=  0.0046
     atom   9 (R=0.045)  charge=  1.5050  magn= -0.0081
     atom  10 (R=0.045)  charge=  1.5199  magn=  0.0195
     atom  11 (R=0.045)  charge=  1.5259  magn= -0.0113
     atom  12 (R=0.045)  charge=  1.5268  magn=  0.0194
     atom  13 (R=0.045)  charge=  1.5366  magn= -0.0101
     atom  14 (R=0.045)  charge=  1.5410  magn=  0.0463
     atom  15 (R=0.045)  charge=  1.5340  magn= -0.0055
     atom  16 (R=0.045)  charge=  1.4121  magn=  0.0711
     atom  17 (R=0.045)  charge=  1.4805  magn= -0.0134
     atom  18 (R=0.045)  charge=  1.5163  magn=  0.0550
     atom  19 (R=0.045)  charge=  1.5170  magn= -0.0114
     atom  20 (R=0.045)  charge=  1.5204  magn=  0.0176
     atom  21 (R=0.045)  charge=  1.5256  magn= -0.0057
     atom  22 (R=0.045)  charge=  1.5199  magn=  0.0067
     atom  23 (R=0.045)  charge=  1.5340  magn= -0.0055
     atom  24 (R=0.045)  charge=  1.4121  magn=  0.0710
     atom  25 (R=0.045)  charge=  1.4900  magn=  0.3367
     atom  26 (R=0.045)  charge=  1.5407  magn= -0.0103
     atom  27 (R=0.045)  charge=  1.5291  magn=  0.0242
     atom  28 (R=0.045)  charge=  1.5286  magn= -0.0039
     atom  29 (R=0.045)  charge=  1.5256  magn=  0.0125
     atom  30 (R=0.045)  charge=  1.5231  magn= -0.0048
     atom  31 (R=0.045)  charge=  1.4938  magn=  0.0046
     atom  32 (R=0.045)  charge=  1.4805  magn= -0.0134
     atom  33 (R=0.045)  charge=  1.5163  magn=  0.0550
     atom  34 (R=0.045)  charge=  1.5407  magn= -0.0103
     atom  35 (R=0.045)  charge=  1.5291  magn=  0.0242
     atom  36 (R=0.045)  charge=  1.5298  magn= -0.0102
     atom  37 (R=0.045)  charge=  1.5285  magn=  0.0053
     atom  38 (R=0.045)  charge=  1.5265  magn= -0.0064
     atom  39 (R=0.045)  charge=  1.5216  magn=  0.0057
     atom  40 (R=0.045)  charge=  1.5050  magn= -0.0081
     atom  41 (R=0.045)  charge=  1.5199  magn=  0.0195
     atom  42 (R=0.045)  charge=  1.5170  magn= -0.0114
     atom  43 (R=0.045)  charge=  1.5204  magn=  0.0176
     atom  44 (R=0.045)  charge=  1.5286  magn= -0.0039
     atom  45 (R=0.045)  charge=  1.5256  magn=  0.0125
     atom  46 (R=0.045)  charge=  1.5265  magn= -0.0064
     atom  47 (R=0.045)  charge=  1.5216  magn=  0.0057
     atom  48 (R=0.045)  charge=  1.5238  magn= -0.0062
     atom  49 (R=0.045)  charge=  1.5057  magn=  0.0141

     total cpu time spent up to now is      270.1 secs

     End of self-consistent calculation

 ------ SPIN UP ------------


          k = 0.0000 0.0000 0.0000 (119010 PWs)   bands (ev):

   -23.7951 -22.9806 -22.9405 -22.9181 -22.8697 -22.8054 -22.4366 -21.0980
   -21.0835 -21.0482 -21.0467 -20.9483 -20.7051 -20.2309 -20.1873 -20.1259
   -20.0967 -20.0424 -19.2940 -18.0227 -18.0199 -18.0097 -17.9289 -17.9057
   -17.5131 -17.0328 -17.0042 -16.9993 -16.8381 -16.7468 -16.2110 -15.7057
   -15.6972 -15.6566 -15.3924 -15.3557 -14.3585 -13.3416 -13.2902 -13.2799
   -13.2431 -13.2391 -13.2113 -13.1950 -13.1579 -13.1549 -12.6652 -12.6538
   -12.0077 -11.8841 -11.8127 -11.7846 -11.7314 -11.4285 -11.4066 -11.1956
   -10.8810 -10.8449 -10.8443 -10.7821 -10.7464 -10.6504 -10.5727 -10.5464
   -10.5415 -10.5150 -10.4506 -10.4474 -10.3972 -10.3944 -10.3760  -9.5296
    -9.4657  -8.9499  -8.8861  -8.8764  -8.7863  -8.7178  -8.7168  -8.7057
    -8.6769  -8.6118  -8.3792  -8.3524  -7.8710  -7.8098  -7.7912  -7.7772
    -7.7101  -7.6953  -7.6905  -7.0178  -5.8538  -5.8425  -5.8014  -5.7687
    -5.7566  -4.8594  -4.8468  -3.3960  -3.0643  -3.0116  -2.9872  -2.9274
    -2.8847  -2.2129  -1.2270  -1.1703  -1.1575  -1.0223  -0.9762  -0.9731
    -0.3462  -0.1257   0.2618   0.2725   0.2770   0.3115   0.3195   0.4391
     0.5036   0.5744   0.5769   0.6864   0.7585   1.1361   1.1471   1.1639
     1.1711   1.1753

 ------ SPIN DOWN ----------


          k = 0.0000 0.0000 0.0000 (119010 PWs)   bands (ev):

   -23.7611 -22.9236 -22.9215 -22.8828 -22.8472 -22.7748 -22.3324 -21.0564
   -21.0522 -21.0205 -20.9739 -20.9254 -20.6501 -20.1667 -20.1555 -20.0972
   -20.0217 -20.0030 -19.1941 -18.0046 -17.9907 -17.9781 -17.8986 -17.8095
   -17.3802 -17.0033 -16.9817 -16.9685 -16.7583 -16.7159 -16.1500 -15.6602
   -15.6600 -15.6251 -15.3164 -15.2943 -14.2295 -13.2967 -13.2524 -13.2501
   -13.2124 -13.2043 -13.1607 -13.1492 -13.1377 -13.1274 -12.6435 -12.5717
   -11.9535 -11.8285 -11.7807 -11.7462 -11.7108 -11.4027 -11.3555 -11.0747
   -10.8141 -10.8049 -10.7754 -10.7543 -10.6907 -10.5866 -10.5556 -10.5107
   -10.5078 -10.4818 -10.4364 -10.4284 -10.3676 -10.3505 -10.2254  -9.4909
    -9.3855  -8.9181  -8.8491  -8.8491  -8.7682  -8.6581  -8.6497  -8.6377
    -8.6057  -8.5725  -8.2793  -7.9724  -7.7590  -7.7497  -7.7267  -7.7102
    -7.6570  -7.6496  -7.5456  -6.8737  -5.8037  -5.7865  -5.7741  -5.6966
    -5.6308  -4.4202  -3.0938  -3.0314  -2.9866  -2.9609  -2.8050  -2.7861
    -2.7557  -2.1026  -1.1877  -1.1279  -1.0390  -0.9567  -0.9001  -0.8707
    -0.2281  -0.1024   0.2736   0.2787   0.2854   0.3262   0.3299   0.4970
     0.5372   0.6558   0.6581   0.7848   0.9666   1.1429   1.1513   1.1754
     1.1782   1.2135

     the Fermi energy is    -4.7274 ev

!    total energy              =    -589.73458588 Ry
     estimated scf accuracy    <          4.7E-11 Ry
     smearing contrib. (-TS)   =       0.00163648 Ry
     internal energy E=F+TS    =    -589.73622236 Ry

     The total energy is F=E-TS. E is the sum of the following terms:
     one-electron contribution =   -6595.14040457 Ry
     hartree contribution      =    3315.84698733 Ry
     xc contribution           =    -209.61425148 Ry
     ewald contribution        =    2899.17144636 Ry

     total magnetization       =     2.00 Bohr mag/cell
     absolute magnetization    =     2.92 Bohr mag/cell

     convergence has been achieved in  16 iterations

     Forces acting on atoms (cartesian axes, Ry/au):

     atom    1 type  1   force =    -0.00235099    0.00000737   -0.00000000
     atom    2 type  1   force =     0.00148058    0.00000335    0.00000000
     atom    3 type  1   force =     0.00107192    0.00055993    0.00000000
     atom    4 type  1   force =     0.00204928    0.00087068   -0.00000000
     atom    5 type  1   force =    -0.00030940   -0.00105885   -0.00000000
     atom    6 type  1   force =     0.00146590    0.00051864   -0.00000001
     atom    7 type  1   force =     0.00099360   -0.00380242   -0.00000000
     atom    8 type  1   force =     0.00079521   -0.00234251    0.00000001
     atom    9 type  1   force =    -0.00026604   -0.00015724   -0.00000000
     atom   10 type  1   force =    -0.00048847   -0.00222120   -0.00000000
     atom   11 type  1   force =     0.00107691   -0.00055515    0.00000000
     atom   12 type  1   force =     0.00205107   -0.00086607   -0.00000000
     atom   13 type  1   force =     0.00043296   -0.00000055    0.00000001
     atom   14 type  1   force =     0.00020905   -0.00000205    0.00000001
     atom   15 type  1   force =     0.00231352   -0.00059614    0.00000001
     atom   16 type  2   force =    -0.00345047   -0.00079078   -0.00000000
     atom   17 type  1   force =     0.00131266   -0.00268022    0.00000000
     atom   18 type  1   force =     0.00015364    0.00060066   -0.00000000
     atom   19 type  1   force =    -0.00067175    0.00055970    0.00000001
     atom   20 type  1   force =     0.00054310   -0.00160087   -0.00000000
     atom   21 type  1   force =    -0.00031572    0.00105356    0.00000001
     atom   22 type  1   force =     0.00145397   -0.00052672    0.00000001
     atom   23 type  1   force =     0.00230080    0.00059298    0.00000000
     atom   24 type  2   force =    -0.00344986    0.00077116   -0.00000000
     atom   25 type  2   force =    -0.00006362    0.00000242    0.00000000
     atom   26 type  1   force =     0.00067525   -0.00192094    0.00000001
     atom   27 type  1   force =    -0.00202308    0.00047885   -0.00000001
     atom   28 type  1   force =    -0.00082497    0.00057041    0.00000000
     atom   29 type  1   force =     0.00042423   -0.00052701   -0.00000001
     atom   30 type  1   force =     0.00098694    0.00379238    0.00000000
     atom   31 type  1   force =     0.00078310    0.00233177    0.00000000
     atom   32 type  1   force =     0.00130132    0.00267275   -0.00000000
     atom   33 type  1   force =     0.00014463   -0.00058853    0.00000001
     atom   34 type  1   force =     0.00067306    0.00193522   -0.00000001
     atom   35 type  1   force =    -0.00202320   -0.00047127   -0.00000000
     atom   36 type  1   force =    -0.00448713   -0.00000039    0.00000001
     atom   37 type  1   force =    -0.00214265   -0.00000283    0.00000001
     atom   38 type  1   force =    -0.00114868    0.00072144   -0.00000002
     atom   39 type  1   force =     0.00063244    0.00175571    0.00000000
     atom   40 type  1   force =    -0.00026661    0.00015643   -0.00000000
     atom   41 type  1   force =    -0.00048801    0.00223325   -0.00000001
     atom   42 type  1   force =    -0.00068307   -0.00054180   -0.00000001
     atom   43 type  1   force =     0.00053726    0.00160796   -0.00000001
     atom   44 type  1   force =    -0.00082948   -0.00056778    0.00000000
     atom   45 type  1   force =     0.00042708    0.00052660    0.00000000
     atom   46 type  1   force =    -0.00114717   -0.00072889   -0.00000001
     atom   47 type  1   force =     0.00063660   -0.00176572    0.00000000
     atom   48 type  1   force =    -0.00010038   -0.00000449   -0.00000000
     atom   49 type  1   force =     0.00060468   -0.00000281   -0.00000000

     Total force =     0.014122     Total SCF correction =     0.000008
     Energy error            =      2.6E-04 Ry
     Gradient error          =      4.5E-03 Ry/Bohr

     number of scf cycles    =  12
     number of bfgs steps    =  11

     energy             old  =    -589.7343286844 Ry
     energy             new  =    -589.7345858809 Ry

     CASE: energy            _new < energy            _old

     new trust radius        =       0.0232108237 bohr
     new conv_thr            =            2.6E-11 Ry


ATOMIC_POSITIONS (crystal)
C                0.0654318238        0.0654265968        0.0000000011
C                0.1321473365        0.1321425215       -0.0000000004
C                0.0647305817        0.2660959755       -0.0000000019
C                0.1313056230        0.3323611229       -0.0000000026
C                0.0671995953        0.4656348899       -0.0000000037
C                0.1341963621        0.5318519394       -0.0000000020
C                0.0690073375        0.6648664304       -0.0000000006
C                0.1387773989        0.7278443476        0.0000000008
C                0.0689344269        0.8636995366        0.0000000012
C                0.1337133967        0.9316682345        0.0000000011
C                0.2661000328        0.0647260865       -0.0000000003
C                0.3323620268        0.1313046670       -0.0000000007
C                0.2645114680        0.2645108443       -0.0000000015
C                0.3298869411        0.3298891306       -0.0000000004
C                0.2680978877        0.4627947954       -0.0000000009
C1               0.3404599968        0.5202589794       -0.0000000011
C                0.2765503806        0.6559620389       -0.0000000005
C                0.3360628895        0.7307573571        0.0000000002
C                0.2677585614        0.8637648268        0.0000000003
C                0.3338449161        0.9317992369        0.0000000010
C                0.4656348314        0.0672017837        0.0000000001
C                0.5318496639        0.1342021107       -0.0000000004
C                0.4627925731        0.2681043704        0.0000000004
C1               0.5202567936        0.3404678608        0.0000000003
C1               0.5401827540        0.5401765783        0.0000000021
C                0.4696111861        0.6683963841        0.0000000014
C                0.5356546066        0.7355644768        0.0000000027
C                0.4673602945        0.8678481125        0.0000000020
C                0.5337924648        0.9344109825        0.0000000020
C                0.6648638699        0.0690134106        0.0000000003
C                0.7278432362        0.1387824196        0.0000000004
C                0.6559620992        0.2765546150        0.0000000000
C                0.7307630501        0.3360609061        0.0000000000
C                0.6684025053        0.4696084214        0.0000000009
C                0.7355679144        0.5356531656       -0.0000000006
C                0.6686809827        0.6686800514        0.0000000007
C                0.7350622310        0.7350648437        0.0000000013
C                0.6673868737        0.8682305336        0.0000000022
C                0.7335712104        0.9348699266        0.0000000011
C                0.8636994378        0.0689367495        0.0000000019
C                0.9316732304        0.1337103600        0.0000000010
C                0.8637706517        0.2677551554       -0.0000000002
C                0.9318040532        0.3338419393       -0.0000000023
C                0.8678509404        0.4673581994       -0.0000000026
C                0.9344095694        0.5337935026       -0.0000000037
C                0.8682271789        0.6673889939       -0.0000000014
C                0.9348644274        0.7335751367       -0.0000000005
C                0.8671689501        0.8671733303        0.0000000003
C                0.9335467702        0.9335494547        0.0000000014



     Writing config-only to output data dir /home/gregb26/links/scratch/qe_tmp/vacancy_relaxed/series/5x5/nspin2/vac_5x5_relax_nspin2.save/ :
     XML data file
     NEW-OLD atomic charge density approx. for the potential

     negative rho (up, down):  9.904E-07 1.182E-06
     Generating pointlists ...

     total cpu time spent up to now is      270.8 secs

     per-process dynamical memory:   167.8 Mb

     Self-consistent Calculation

     iteration #  1     ecut=   100.00 Ry     beta= 0.30
     Davidson diagonalization with overlap
     ethr =  1.00E-06,  avg # of iterations =  6.0
     Minimization algorithm failed to find Fermi energy: reverting to bisection
     Possible cause: smearing is larger than the electronic band-gap.

     negative rho (up, down):  3.013E-06 3.194E-06

     total cpu time spent up to now is      272.5 secs

     total energy              =    -589.73454685 Ry
     estimated scf accuracy    <       0.00077799 Ry

     total magnetization       =     2.00 Bohr mag/cell
     absolute magnetization    =     2.92 Bohr mag/cell

     iteration #  2     ecut=   100.00 Ry     beta= 0.30
     Davidson diagonalization with overlap
     ethr =  3.97E-07,  avg # of iterations =  2.0
     Minimization algorithm failed to find Fermi energy: reverting to bisection
     Possible cause: smearing is larger than the electronic band-gap.

     negative rho (up, down):  2.638E-06 2.801E-06

     total cpu time spent up to now is      273.4 secs

     total energy              =    -589.73458145 Ry
     estimated scf accuracy    <       0.00176630 Ry

     total magnetization       =     2.00 Bohr mag/cell
     absolute magnetization    =     2.92 Bohr mag/cell

     iteration #  3     ecut=   100.00 Ry     beta= 0.30
     Davidson diagonalization with overlap
     ethr =  3.97E-07,  avg # of iterations =  1.5
     Minimization algorithm failed to find Fermi energy: reverting to bisection
     Possible cause: smearing is larger than the electronic band-gap.

     negative rho (up, down):  1.500E-06 1.604E-06

     total cpu time spent up to now is      274.4 secs

     total energy              =    -589.73475123 Ry
     estimated scf accuracy    <       0.00009481 Ry

     total magnetization       =     2.00 Bohr mag/cell
     absolute magnetization    =     2.92 Bohr mag/cell

     iteration #  4     ecut=   100.00 Ry     beta= 0.30
     Davidson diagonalization with overlap
     ethr =  4.84E-08,  avg # of iterations =  2.0
     Minimization algorithm failed to find Fermi energy: reverting to bisection
     Possible cause: smearing is larger than the electronic band-gap.

     negative rho (up, down):  4.560E-07 4.964E-07

     total cpu time spent up to now is      275.4 secs

     total energy              =    -589.73475861 Ry
     estimated scf accuracy    <       0.00002595 Ry

     total magnetization       =     2.00 Bohr mag/cell
     absolute magnetization    =     2.92 Bohr mag/cell

     iteration #  5     ecut=   100.00 Ry     beta= 0.30
     Davidson diagonalization with overlap
     ethr =  1.32E-08,  avg # of iterations =  2.0
     Minimization algorithm failed to find Fermi energy: reverting to bisection
     Possible cause: smearing is larger than the electronic band-gap.

     negative rho (up, down):  1.743E-07 1.930E-07

     total cpu time spent up to now is      276.4 secs

     total energy              =    -589.73476286 Ry
     estimated scf accuracy    <       0.00000524 Ry

     total magnetization       =     2.00 Bohr mag/cell
     absolute magnetization    =     2.92 Bohr mag/cell

     iteration #  6     ecut=   100.00 Ry     beta= 0.30
     Davidson diagonalization with overlap
     ethr =  2.68E-09,  avg # of iterations =  3.0
     Minimization algorithm failed to find Fermi energy: reverting to bisection
     Possible cause: smearing is larger than the electronic band-gap.

     negative rho (up, down):  4.624E-08 5.278E-08

     total cpu time spent up to now is      277.3 secs

     total energy              =    -589.73476423 Ry
     estimated scf accuracy    <       0.00000154 Ry

     total magnetization       =     2.00 Bohr mag/cell
     absolute magnetization    =     2.91 Bohr mag/cell

     iteration #  7     ecut=   100.00 Ry     beta= 0.30
     Davidson diagonalization with overlap
     ethr =  7.84E-10,  avg # of iterations =  3.0
     Minimization algorithm failed to find Fermi energy: reverting to bisection
     Possible cause: smearing is larger than the electronic band-gap.

     total cpu time spent up to now is      278.4 secs

     total energy              =    -589.73476494 Ry
     estimated scf accuracy    <       0.00000061 Ry

     total magnetization       =     2.00 Bohr mag/cell
     absolute magnetization    =     2.91 Bohr mag/cell

     iteration #  8     ecut=   100.00 Ry     beta= 0.30
     Davidson diagonalization with overlap
     ethr =  3.10E-10,  avg # of iterations =  3.0
     Minimization algorithm failed to find Fermi energy: reverting to bisection
     Possible cause: smearing is larger than the electronic band-gap.

     negative rho (up, down):  1.746E-08 1.718E-08

     total cpu time spent up to now is      279.4 secs

     total energy              =    -589.73476530 Ry
     estimated scf accuracy    <       0.00000030 Ry

     total magnetization       =     2.00 Bohr mag/cell
     absolute magnetization    =     2.91 Bohr mag/cell

     iteration #  9     ecut=   100.00 Ry     beta= 0.30
     Davidson diagonalization with overlap
     ethr =  1.54E-10,  avg # of iterations =  2.5
     Minimization algorithm failed to find Fermi energy: reverting to bisection
     Possible cause: smearing is larger than the electronic band-gap.

     total cpu time spent up to now is      280.5 secs

     total energy              =    -589.73476549 Ry
     estimated scf accuracy    <       0.00000012 Ry

     total magnetization       =     2.00 Bohr mag/cell
     absolute magnetization    =     2.91 Bohr mag/cell

     iteration # 10     ecut=   100.00 Ry     beta= 0.30
     Davidson diagonalization with overlap
     ethr =  6.26E-11,  avg # of iterations =  3.5
     Minimization algorithm failed to find Fermi energy: reverting to bisection
     Possible cause: smearing is larger than the electronic band-gap.

     total cpu time spent up to now is      281.5 secs

     total energy              =    -589.73476557 Ry
     estimated scf accuracy    <       0.00000003 Ry

     total magnetization       =     2.00 Bohr mag/cell
     absolute magnetization    =     2.91 Bohr mag/cell

     iteration # 11     ecut=   100.00 Ry     beta= 0.30
     Davidson diagonalization with overlap
     ethr =  1.75E-11,  avg # of iterations =  4.0
     Minimization algorithm failed to find Fermi energy: reverting to bisection
     Possible cause: smearing is larger than the electronic band-gap.

     total cpu time spent up to now is      282.7 secs

     total energy              =    -589.73476561 Ry
     estimated scf accuracy    <          7.1E-09 Ry

     total magnetization       =     2.00 Bohr mag/cell
     absolute magnetization    =     2.90 Bohr mag/cell

     iteration # 12     ecut=   100.00 Ry     beta= 0.30
     Davidson diagonalization with overlap
     ethr =  3.65E-12,  avg # of iterations =  4.0
     Minimization algorithm failed to find Fermi energy: reverting to bisection
     Possible cause: smearing is larger than the electronic band-gap.

     total cpu time spent up to now is      284.0 secs

     total energy              =    -589.73476562 Ry
     estimated scf accuracy    <          2.6E-09 Ry

     total magnetization       =     2.00 Bohr mag/cell
     absolute magnetization    =     2.90 Bohr mag/cell

     iteration # 13     ecut=   100.00 Ry     beta= 0.30
     Davidson diagonalization with overlap
     ethr =  1.32E-12,  avg # of iterations =  4.5
     Minimization algorithm failed to find Fermi energy: reverting to bisection
     Possible cause: smearing is larger than the electronic band-gap.

     total cpu time spent up to now is      285.3 secs

     total energy              =    -589.73476563 Ry
     estimated scf accuracy    <          9.2E-10 Ry

     total magnetization       =     2.00 Bohr mag/cell
     absolute magnetization    =     2.90 Bohr mag/cell

     iteration # 14     ecut=   100.00 Ry     beta= 0.30
     Davidson diagonalization with overlap
     ethr =  4.67E-13,  avg # of iterations =  3.5
     Minimization algorithm failed to find Fermi energy: reverting to bisection
     Possible cause: smearing is larger than the electronic band-gap.

     total cpu time spent up to now is      286.4 secs

     total energy              =    -589.73476563 Ry
     estimated scf accuracy    <          3.4E-10 Ry

     total magnetization       =     2.00 Bohr mag/cell
     absolute magnetization    =     2.90 Bohr mag/cell

     iteration # 15     ecut=   100.00 Ry     beta= 0.30
     Davidson diagonalization with overlap
     ethr =  1.73E-13,  avg # of iterations =  5.0
     Minimization algorithm failed to find Fermi energy: reverting to bisection
     Possible cause: smearing is larger than the electronic band-gap.

     total cpu time spent up to now is      287.6 secs

     total energy              =    -589.73476563 Ry
     estimated scf accuracy    <          1.4E-10 Ry

     total magnetization       =     2.00 Bohr mag/cell
     absolute magnetization    =     2.90 Bohr mag/cell

     iteration # 16     ecut=   100.00 Ry     beta= 0.30
     Davidson diagonalization with overlap
     ethr =  1.00E-13,  avg # of iterations =  5.0
     Minimization algorithm failed to find Fermi energy: reverting to bisection
     Possible cause: smearing is larger than the electronic band-gap.

     total cpu time spent up to now is      288.9 secs

     total energy              =    -589.73476563 Ry
     estimated scf accuracy    <          1.2E-10 Ry

     total magnetization       =     2.00 Bohr mag/cell
     absolute magnetization    =     2.90 Bohr mag/cell

     iteration # 17     ecut=   100.00 Ry     beta= 0.30
     Davidson diagonalization with overlap
     ethr =  1.00E-13,  avg # of iterations =  2.0
     Minimization algorithm failed to find Fermi energy: reverting to bisection
     Possible cause: smearing is larger than the electronic band-gap.

     Magnetic moment per site  (integrated on atomic sphere of radius R)
     atom   1 (R=0.045)  charge=  1.5187  magn= -0.0111
     atom   2 (R=0.045)  charge=  1.5173  magn=  0.0667
     atom   3 (R=0.045)  charge=  1.5249  magn= -0.0110
     atom   4 (R=0.045)  charge=  1.5267  magn=  0.0188
     atom   5 (R=0.045)  charge=  1.5258  magn= -0.0054
     atom   6 (R=0.045)  charge=  1.5207  magn=  0.0067
     atom   7 (R=0.045)  charge=  1.5231  magn= -0.0046
     atom   8 (R=0.045)  charge=  1.4926  magn=  0.0045
     atom   9 (R=0.045)  charge=  1.5040  magn= -0.0079
     atom  10 (R=0.045)  charge=  1.5201  magn=  0.0187
     atom  11 (R=0.045)  charge=  1.5249  magn= -0.0110
     atom  12 (R=0.045)  charge=  1.5267  magn=  0.0188
     atom  13 (R=0.045)  charge=  1.5375  magn= -0.0099
     atom  14 (R=0.045)  charge=  1.5418  magn=  0.0450
     atom  15 (R=0.045)  charge=  1.5357  magn= -0.0048
     atom  16 (R=0.045)  charge=  1.4105  magn=  0.0701
     atom  17 (R=0.045)  charge=  1.4782  magn= -0.0130
     atom  18 (R=0.045)  charge=  1.5158  magn=  0.0537
     atom  19 (R=0.045)  charge=  1.5167  magn= -0.0111
     atom  20 (R=0.045)  charge=  1.5201  magn=  0.0170
     atom  21 (R=0.045)  charge=  1.5258  magn= -0.0054
     atom  22 (R=0.045)  charge=  1.5207  magn=  0.0067
     atom  23 (R=0.045)  charge=  1.5357  magn= -0.0048
     atom  24 (R=0.045)  charge=  1.4105  magn=  0.0700
     atom  25 (R=0.045)  charge=  1.4920  magn=  0.3443
     atom  26 (R=0.045)  charge=  1.5420  magn= -0.0097
     atom  27 (R=0.045)  charge=  1.5306  magn=  0.0247
     atom  28 (R=0.045)  charge=  1.5288  magn= -0.0036
     atom  29 (R=0.045)  charge=  1.5256  magn=  0.0122
     atom  30 (R=0.045)  charge=  1.5231  magn= -0.0046
     atom  31 (R=0.045)  charge=  1.4925  magn=  0.0045
     atom  32 (R=0.045)  charge=  1.4782  magn= -0.0130
     atom  33 (R=0.045)  charge=  1.5158  magn=  0.0537
     atom  34 (R=0.045)  charge=  1.5421  magn= -0.0097
     atom  35 (R=0.045)  charge=  1.5306  magn=  0.0247
     atom  36 (R=0.045)  charge=  1.5299  magn= -0.0102
     atom  37 (R=0.045)  charge=  1.5276  magn=  0.0052
     atom  38 (R=0.045)  charge=  1.5258  magn= -0.0063
     atom  39 (R=0.045)  charge=  1.5202  magn=  0.0056
     atom  40 (R=0.045)  charge=  1.5040  magn= -0.0079
     atom  41 (R=0.045)  charge=  1.5201  magn=  0.0187
     atom  42 (R=0.045)  charge=  1.5167  magn= -0.0111
     atom  43 (R=0.045)  charge=  1.5201  magn=  0.0170
     atom  44 (R=0.045)  charge=  1.5288  magn= -0.0035
     atom  45 (R=0.045)  charge=  1.5256  magn=  0.0122
     atom  46 (R=0.045)  charge=  1.5258  magn= -0.0063
     atom  47 (R=0.045)  charge=  1.5202  magn=  0.0056
     atom  48 (R=0.045)  charge=  1.5230  magn= -0.0061
     atom  49 (R=0.045)  charge=  1.5049  magn=  0.0138

     total cpu time spent up to now is      289.8 secs

     End of self-consistent calculation

 ------ SPIN UP ------------


          k = 0.0000 0.0000 0.0000 (119010 PWs)   bands (ev):

   -23.7911 -22.9828 -22.9378 -22.9104 -22.8636 -22.7984 -22.4331 -21.0954
   -21.0811 -21.0457 -21.0435 -20.9378 -20.6975 -20.2283 -20.1824 -20.1276
   -20.0840 -20.0353 -19.2964 -18.0233 -18.0151 -18.0039 -17.9214 -17.8941
   -17.5070 -17.0294 -16.9969 -16.9969 -16.8390 -16.7392 -16.2074 -15.6980
   -15.6916 -15.6488 -15.3937 -15.3538 -14.3650 -13.3369 -13.2859 -13.2739
   -13.2397 -13.2303 -13.2032 -13.1881 -13.1520 -13.1487 -12.6611 -12.6530
   -12.0013 -11.8805 -11.8034 -11.7800 -11.7230 -11.4285 -11.4058 -11.2014
   -10.8822 -10.8423 -10.8385 -10.7771 -10.7401 -10.6428 -10.5695 -10.5407
   -10.5353 -10.5020 -10.4424 -10.4401 -10.3883 -10.3882 -10.3720  -9.5261
    -9.4620  -8.9464  -8.8724  -8.8686  -8.7851  -8.7153  -8.7150  -8.7030
    -8.6731  -8.6043  -8.3933  -8.3735  -7.8699  -7.8097  -7.7866  -7.7722
    -7.6996  -7.6894  -7.6870  -7.0187  -5.8536  -5.8390  -5.7968  -5.7593
    -5.7512  -4.8709  -4.8602  -3.3025  -3.0640  -3.0182  -2.9828  -2.9234
    -2.8782  -2.2139  -1.2294  -1.1705  -1.1539  -1.0240  -0.9728  -0.9703
    -0.3534  -0.1256   0.2625   0.2728   0.2768   0.3120   0.3201   0.4386
     0.5007   0.5768   0.5783   0.6914   0.7612   1.1361   1.1471   1.1643
     1.1715   1.1761

 ------ SPIN DOWN ----------


          k = 0.0000 0.0000 0.0000 (119010 PWs)   bands (ev):

   -23.7572 -22.9236 -22.9189 -22.8784 -22.8407 -22.7686 -22.3286 -21.0549
   -21.0509 -21.0166 -20.9705 -20.9155 -20.6430 -20.1653 -20.1503 -20.0951
   -20.0128 -19.9964 -19.1951 -17.9996 -17.9832 -17.9800 -17.8919 -17.7966
   -17.3772 -16.9998 -16.9746 -16.9675 -16.7567 -16.7087 -16.1454 -15.6545
   -15.6528 -15.6179 -15.3146 -15.2944 -14.2340 -13.2938 -13.2456 -13.2449
   -13.2093 -13.1967 -13.1540 -13.1378 -13.1340 -13.1201 -12.6400 -12.5695
   -11.9466 -11.8262 -11.7706 -11.7423 -11.7025 -11.4031 -11.3549 -11.0773
   -10.8127 -10.8051 -10.7736 -10.7499 -10.6868 -10.5793 -10.5535 -10.5066
   -10.4985 -10.4695 -10.4297 -10.4197 -10.3572 -10.3433 -10.2239  -9.4872
    -9.3816  -8.9146  -8.8407  -8.8347  -8.7655  -8.6592  -8.6496  -8.6351
    -8.6037  -8.5655  -8.2754  -8.0131  -7.7615  -7.7480  -7.7291  -7.7053
    -7.6556  -7.6385  -7.5418  -6.8762  -5.8011  -5.7833  -5.7770  -5.6911
    -5.6211  -4.4304  -3.0318  -3.0017  -2.9921  -2.9586  -2.7814  -2.7629
    -2.7533  -2.1038  -1.1907  -1.1284  -1.0390  -0.9566  -0.8975  -0.8727
    -0.2368  -0.1039   0.2739   0.2788   0.2852   0.3262   0.3300   0.4966
     0.5367   0.6544   0.6567   0.7866   0.9704   1.1428   1.1512   1.1755
     1.1783   1.2134

     the Fermi energy is    -4.7400 ev

!    total energy              =    -589.73476563 Ry
     estimated scf accuracy    <          2.1E-11 Ry
     smearing contrib. (-TS)   =       0.00163455 Ry
     internal energy E=F+TS    =    -589.73640018 Ry

     The total energy is F=E-TS. E is the sum of the following terms:
     one-electron contribution =   -6594.83926994 Ry
     hartree contribution      =    3315.71893061 Ry
     xc contribution           =    -209.60661390 Ry
     ewald contribution        =    2898.99055306 Ry

     total magnetization       =     2.00 Bohr mag/cell
     absolute magnetization    =     2.90 Bohr mag/cell

     convergence has been achieved in  17 iterations

     Forces acting on atoms (cartesian axes, Ry/au):

     atom    1 type  1   force =     0.00175148    0.00000810   -0.00000001
     atom    2 type  1   force =    -0.00074083    0.00000554    0.00000000
     atom    3 type  1   force =     0.00248738    0.00029830   -0.00000000
     atom    4 type  1   force =    -0.00033676    0.00089370   -0.00000000
     atom    5 type  1   force =     0.00050932   -0.00039072   -0.00000000
     atom    6 type  1   force =     0.00069990    0.00079639    0.00000000
     atom    7 type  1   force =    -0.00054253   -0.00136423   -0.00000001
     atom    8 type  1   force =     0.00074577   -0.00064226   -0.00000000
     atom    9 type  1   force =     0.00053467   -0.00089101    0.00000001
     atom   10 type  1   force =    -0.00102492    0.00042082   -0.00000000
     atom   11 type  1   force =     0.00248792   -0.00028580   -0.00000000
     atom   12 type  1   force =    -0.00033289   -0.00089440   -0.00000000
     atom   13 type  1   force =     0.00052764    0.00000324    0.00000000
     atom   14 type  1   force =     0.00065741   -0.00000124   -0.00000000
     atom   15 type  1   force =    -0.00100982   -0.00071315    0.00000000
     atom   16 type  2   force =     0.00010442    0.00009446   -0.00000000
     atom   17 type  1   force =     0.00018041   -0.00265348    0.00000000
     atom   18 type  1   force =     0.00048392   -0.00007984    0.00000000
     atom   19 type  1   force =     0.00092066   -0.00089133    0.00000001
     atom   20 type  1   force =     0.00027335    0.00027863    0.00000000
     atom   21 type  1   force =     0.00050587    0.00038959    0.00000001
     atom   22 type  1   force =     0.00069454   -0.00080539    0.00000000
     atom   23 type  1   force =    -0.00101259    0.00070609   -0.00000000
     atom   24 type  2   force =     0.00009709   -0.00010381   -0.00000001
     atom   25 type  2   force =     0.00055244    0.00000155    0.00000000
     atom   26 type  1   force =    -0.00143142   -0.00002036    0.00000000
     atom   27 type  1   force =     0.00004795   -0.00007717   -0.00000001
     atom   28 type  1   force =    -0.00012980    0.00086849    0.00000000
     atom   29 type  1   force =    -0.00097899   -0.00053603    0.00000000
     atom   30 type  1   force =    -0.00055044    0.00135314    0.00000000
     atom   31 type  1   force =     0.00073435    0.00063258    0.00000001
     atom   32 type  1   force =     0.00017283    0.00264918    0.00000000
     atom   33 type  1   force =     0.00047821    0.00008911   -0.00000000
     atom   34 type  1   force =    -0.00143441    0.00003078   -0.00000000
     atom   35 type  1   force =     0.00004727    0.00007937    0.00000000
     atom   36 type  1   force =    -0.00222441    0.00000083    0.00000001
     atom   37 type  1   force =    -0.00181506   -0.00000460   -0.00000001
     atom   38 type  1   force =    -0.00008881   -0.00001369   -0.00000001
     atom   39 type  1   force =     0.00025927    0.00074117   -0.00000000
     atom   40 type  1   force =     0.00052860    0.00088708   -0.00000001
     atom   41 type  1   force =    -0.00103097   -0.00040902   -0.00000000
     atom   42 type  1   force =     0.00091912    0.00090275   -0.00000000
     atom   43 type  1   force =     0.00026901   -0.00027011    0.00000001
     atom   44 type  1   force =    -0.00012918   -0.00086305   -0.00000000
     atom   45 type  1   force =    -0.00098002    0.00053161    0.00000001
     atom   46 type  1   force =    -0.00008426    0.00000720    0.00000000
     atom   47 type  1   force =     0.00026138   -0.00075098    0.00000000
     atom   48 type  1   force =    -0.00198726   -0.00000455    0.00000000
     atom   49 type  1   force =    -0.00006682   -0.00000346    0.00000000

     Total force =     0.008705     Total SCF correction =     0.000006
     Energy error            =      1.8E-04 Ry
     Gradient error          =      2.7E-03 Ry/Bohr

     number of scf cycles    =  13
     number of bfgs steps    =  12

     energy             old  =    -589.7345858809 Ry
     energy             new  =    -589.7347656300 Ry

     CASE: energy            _new < energy            _old

     new trust radius        =       0.0088478328 bohr
     new conv_thr            =            1.8E-11 Ry


ATOMIC_POSITIONS (crystal)
C                0.0654085040        0.0654041571        0.0000000008
C                0.1320988640        0.1320944835       -0.0000000003
C                0.0647147384        0.2661673328       -0.0000000020
C                0.1312404246        0.3323601116       -0.0000000029
C                0.0672525742        0.4656311174       -0.0000000039
C                0.1342701412        0.5318054410       -0.0000000020
C                0.0691836873        0.6647260463       -0.0000000010
C                0.1390507359        0.7276513068        0.0000000010
C                0.0690532091        0.8635558762        0.0000000014
C                0.1337077200        0.9315795305        0.0000000011
C                0.2661709501        0.0647108517       -0.0000000004
C                0.3323611043        0.1312395930       -0.0000000007
C                0.2644917146        0.2644913694       -0.0000000015
C                0.3298363380        0.3298384086       -0.0000000005
C                0.2681081248        0.4626910669       -0.0000000007
C1               0.3407792199        0.5198390129       -0.0000000012
C                0.2769000085        0.6556065122       -0.0000000003
C                0.3361949298        0.7306487671        0.0000000003
C                0.2678492964        0.8636516991        0.0000000007
C                0.3338598751        0.9317631793        0.0000000012
C                0.4656309974        0.0672544234        0.0000000006
C                0.5318034114        0.1342750239       -0.0000000003
C                0.4626890689        0.2681138450        0.0000000003
C1               0.5198374203        0.3407857263       -0.0000000001
C1               0.5402455412        0.5402400134        0.0000000022
C                0.4696936174        0.6684215934        0.0000000015
C                0.5356616978        0.7356004247        0.0000000022
C                0.4673691447        0.8678779571        0.0000000020
C                0.5337706132        0.9344153051        0.0000000019
C                0.6647238065        0.0691888442        0.0000000005
C                0.7276504391        0.1390547433        0.0000000008
C                0.6556066095        0.2769035034        0.0000000000
C                0.7306534293        0.3361934140       -0.0000000001
C                0.6684267611        0.4696914954        0.0000000007
C                0.7356035695        0.5356604307       -0.0000000004
C                0.6686532759        0.6686524754        0.0000000010
C                0.7350325886        0.7350347584        0.0000000013
C                0.6674064621        0.8682732920        0.0000000017
C                0.7335184260        0.9349959915        0.0000000012
C                0.8635558394        0.0690552085        0.0000000016
C                0.9315836528        0.1337053111        0.0000000008
C                0.8636564787        0.2678465957       -0.0000000003
C                0.9317673279        0.3338571339       -0.0000000022
C                0.8678804818        0.4673672748       -0.0000000025
C                0.9344141469        0.5337714006       -0.0000000035
C                0.8682704176        0.6674083575       -0.0000000016
C                0.9349911577        0.7335218777       -0.0000000004
C                0.8671428389        0.8671467361        0.0000000003
C                0.9335619516        0.9335643132        0.0000000013



     Writing config-only to output data dir /home/gregb26/links/scratch/qe_tmp/vacancy_relaxed/series/5x5/nspin2/vac_5x5_relax_nspin2.save/ :
     XML data file
     NEW-OLD atomic charge density approx. for the potential

     negative rho (up, down):  3.783E-07 4.267E-07
     Generating pointlists ...

     total cpu time spent up to now is      290.6 secs

     per-process dynamical memory:   167.8 Mb

     Self-consistent Calculation

     iteration #  1     ecut=   100.00 Ry     beta= 0.30
     Davidson diagonalization with overlap
     ethr =  1.00E-06,  avg # of iterations =  5.0
     Minimization algorithm failed to find Fermi energy: reverting to bisection
     Possible cause: smearing is larger than the electronic band-gap.

     Threshold (ethr) on eigenvalues was too large:
     Diagonalizing with lowered threshold

     Davidson diagonalization with overlap
     ethr =  4.64E-08,  avg # of iterations =  4.0
     Minimization algorithm failed to find Fermi energy: reverting to bisection
     Possible cause: smearing is larger than the electronic band-gap.

     negative rho (up, down):  4.168E-07 4.396E-07

     total cpu time spent up to now is      293.0 secs

     total energy              =    -589.73477998 Ry
     estimated scf accuracy    <       0.00011957 Ry

     total magnetization       =     2.00 Bohr mag/cell
     absolute magnetization    =     2.90 Bohr mag/cell

     iteration #  2     ecut=   100.00 Ry     beta= 0.30
     Davidson diagonalization with overlap
     ethr =  6.10E-08,  avg # of iterations =  2.0
     Minimization algorithm failed to find Fermi energy: reverting to bisection
     Possible cause: smearing is larger than the electronic band-gap.

     negative rho (up, down):  3.606E-07 3.815E-07

     total cpu time spent up to now is      293.9 secs

     total energy              =    -589.73478107 Ry
     estimated scf accuracy    <       0.00023058 Ry

     total magnetization       =     2.00 Bohr mag/cell
     absolute magnetization    =     2.90 Bohr mag/cell

     iteration #  3     ecut=   100.00 Ry     beta= 0.30
     Davidson diagonalization with overlap
     ethr =  6.10E-08,  avg # of iterations =  1.5
     Minimization algorithm failed to find Fermi energy: reverting to bisection
     Possible cause: smearing is larger than the electronic band-gap.

     negative rho (up, down):  2.178E-07 2.331E-07

     total cpu time spent up to now is      294.8 secs

     total energy              =    -589.73480378 Ry
     estimated scf accuracy    <       0.00002094 Ry

     total magnetization       =     2.00 Bohr mag/cell
     absolute magnetization    =     2.90 Bohr mag/cell

     iteration #  4     ecut=   100.00 Ry     beta= 0.30
     Davidson diagonalization with overlap
     ethr =  1.07E-08,  avg # of iterations =  1.0
     Minimization algorithm failed to find Fermi energy: reverting to bisection
     Possible cause: smearing is larger than the electronic band-gap.

     negative rho (up, down):  7.214E-08 7.932E-08

     total cpu time spent up to now is      295.6 secs

     total energy              =    -589.73480490 Ry
     estimated scf accuracy    <       0.00000498 Ry

     total magnetization       =     2.00 Bohr mag/cell
     absolute magnetization    =     2.90 Bohr mag/cell

     iteration #  5     ecut=   100.00 Ry     beta= 0.30
     Davidson diagonalization with overlap
     ethr =  2.54E-09,  avg # of iterations =  2.0
     Minimization algorithm failed to find Fermi energy: reverting to bisection
     Possible cause: smearing is larger than the electronic band-gap.

     negative rho (up, down):  1.985E-08 2.274E-08

     total cpu time spent up to now is      296.6 secs

     total energy              =    -589.73480562 Ry
     estimated scf accuracy    <       0.00000095 Ry

     total magnetization       =     2.00 Bohr mag/cell
     absolute magnetization    =     2.90 Bohr mag/cell

     iteration #  6     ecut=   100.00 Ry     beta= 0.30
     Davidson diagonalization with overlap
     ethr =  4.85E-10,  avg # of iterations =  2.0
     Minimization algorithm failed to find Fermi energy: reverting to bisection
     Possible cause: smearing is larger than the electronic band-gap.

     total cpu time spent up to now is      297.5 secs

     total energy              =    -589.73480586 Ry
     estimated scf accuracy    <       0.00000021 Ry

     total magnetization       =     2.00 Bohr mag/cell
     absolute magnetization    =     2.90 Bohr mag/cell

     iteration #  7     ecut=   100.00 Ry     beta= 0.30
     Davidson diagonalization with overlap
     ethr =  1.09E-10,  avg # of iterations =  4.0
     Minimization algorithm failed to find Fermi energy: reverting to bisection
     Possible cause: smearing is larger than the electronic band-gap.

     total cpu time spent up to now is      298.6 secs

     total energy              =    -589.73480596 Ry
     estimated scf accuracy    <       0.00000010 Ry

     total magnetization       =     2.00 Bohr mag/cell
     absolute magnetization    =     2.90 Bohr mag/cell

     iteration #  8     ecut=   100.00 Ry     beta= 0.30
     Davidson diagonalization with overlap
     ethr =  4.99E-11,  avg # of iterations =  2.5
     Minimization algorithm failed to find Fermi energy: reverting to bisection
     Possible cause: smearing is larger than the electronic band-gap.

     total cpu time spent up to now is      299.5 secs

     total energy              =    -589.73480601 Ry
     estimated scf accuracy    <       0.00000005 Ry

     total magnetization       =     2.00 Bohr mag/cell
     absolute magnetization    =     2.90 Bohr mag/cell

     iteration #  9     ecut=   100.00 Ry     beta= 0.30
     Davidson diagonalization with overlap
     ethr =  2.35E-11,  avg # of iterations =  2.5
     Minimization algorithm failed to find Fermi energy: reverting to bisection
     Possible cause: smearing is larger than the electronic band-gap.

     total cpu time spent up to now is      300.6 secs

     total energy              =    -589.73480604 Ry
     estimated scf accuracy    <       0.00000001 Ry

     total magnetization       =     2.00 Bohr mag/cell
     absolute magnetization    =     2.90 Bohr mag/cell

     iteration # 10     ecut=   100.00 Ry     beta= 0.30
     Davidson diagonalization with overlap
     ethr =  6.68E-12,  avg # of iterations =  4.0
     Minimization algorithm failed to find Fermi energy: reverting to bisection
     Possible cause: smearing is larger than the electronic band-gap.

     total cpu time spent up to now is      301.7 secs

     total energy              =    -589.73480605 Ry
     estimated scf accuracy    <          2.9E-09 Ry

     total magnetization       =     2.00 Bohr mag/cell
     absolute magnetization    =     2.90 Bohr mag/cell

     iteration # 11     ecut=   100.00 Ry     beta= 0.30
     Davidson diagonalization with overlap
     ethr =  1.47E-12,  avg # of iterations =  4.5
     Minimization algorithm failed to find Fermi energy: reverting to bisection
     Possible cause: smearing is larger than the electronic band-gap.

     total cpu time spent up to now is      302.9 secs

     total energy              =    -589.73480606 Ry
     estimated scf accuracy    <          4.7E-10 Ry

     total magnetization       =     2.00 Bohr mag/cell
     absolute magnetization    =     2.89 Bohr mag/cell

     iteration # 12     ecut=   100.00 Ry     beta= 0.30
     Davidson diagonalization with overlap
     ethr =  2.40E-13,  avg # of iterations =  4.5
     Minimization algorithm failed to find Fermi energy: reverting to bisection
     Possible cause: smearing is larger than the electronic band-gap.

     total cpu time spent up to now is      304.1 secs

     total energy              =    -589.73480606 Ry
     estimated scf accuracy    <          1.9E-10 Ry

     total magnetization       =     2.00 Bohr mag/cell
     absolute magnetization    =     2.89 Bohr mag/cell

     iteration # 13     ecut=   100.00 Ry     beta= 0.30
     Davidson diagonalization with overlap
     ethr =  1.00E-13,  avg # of iterations =  3.5
     Minimization algorithm failed to find Fermi energy: reverting to bisection
     Possible cause: smearing is larger than the electronic band-gap.

     total cpu time spent up to now is      305.2 secs

     total energy              =    -589.73480606 Ry
     estimated scf accuracy    <          9.0E-11 Ry

     total magnetization       =     2.00 Bohr mag/cell
     absolute magnetization    =     2.89 Bohr mag/cell

     iteration # 14     ecut=   100.00 Ry     beta= 0.30
     Davidson diagonalization with overlap
     ethr =  1.00E-13,  avg # of iterations =  3.0
     Minimization algorithm failed to find Fermi energy: reverting to bisection
     Possible cause: smearing is larger than the electronic band-gap.

     total cpu time spent up to now is      306.3 secs

     total energy              =    -589.73480606 Ry
     estimated scf accuracy    <          4.5E-11 Ry

     total magnetization       =     2.00 Bohr mag/cell
     absolute magnetization    =     2.89 Bohr mag/cell

     iteration # 15     ecut=   100.00 Ry     beta= 0.30
     Davidson diagonalization with overlap
     ethr =  1.00E-13,  avg # of iterations =  4.0
     Minimization algorithm failed to find Fermi energy: reverting to bisection
     Possible cause: smearing is larger than the electronic band-gap.

     total cpu time spent up to now is      307.4 secs

     total energy              =    -589.73480606 Ry
     estimated scf accuracy    <          2.5E-11 Ry

     total magnetization       =     2.00 Bohr mag/cell
     absolute magnetization    =     2.89 Bohr mag/cell

     iteration # 16     ecut=   100.00 Ry     beta= 0.30
     Davidson diagonalization with overlap
     ethr =  1.00E-13,  avg # of iterations =  2.0
     Minimization algorithm failed to find Fermi energy: reverting to bisection
     Possible cause: smearing is larger than the electronic band-gap.

     Magnetic moment per site  (integrated on atomic sphere of radius R)
     atom   1 (R=0.045)  charge=  1.5183  magn= -0.0110
     atom   2 (R=0.045)  charge=  1.5163  magn=  0.0662
     atom   3 (R=0.045)  charge=  1.5249  magn= -0.0109
     atom   4 (R=0.045)  charge=  1.5270  magn=  0.0186
     atom   5 (R=0.045)  charge=  1.5257  magn= -0.0053
     atom   6 (R=0.045)  charge=  1.5216  magn=  0.0067
     atom   7 (R=0.045)  charge=  1.5231  magn= -0.0045
     atom   8 (R=0.045)  charge=  1.4916  magn=  0.0044
     atom   9 (R=0.045)  charge=  1.5037  magn= -0.0079
     atom  10 (R=0.045)  charge=  1.5198  magn=  0.0187
     atom  11 (R=0.045)  charge=  1.5249  magn= -0.0109
     atom  12 (R=0.045)  charge=  1.5270  magn=  0.0186
     atom  13 (R=0.045)  charge=  1.5375  magn= -0.0097
     atom  14 (R=0.045)  charge=  1.5427  magn=  0.0441
     atom  15 (R=0.045)  charge=  1.5363  magn= -0.0046
     atom  16 (R=0.045)  charge=  1.4102  magn=  0.0694
     atom  17 (R=0.045)  charge=  1.4771  magn= -0.0128
     atom  18 (R=0.045)  charge=  1.5158  magn=  0.0533
     atom  19 (R=0.045)  charge=  1.5163  magn= -0.0110
     atom  20 (R=0.045)  charge=  1.5200  magn=  0.0168
     atom  21 (R=0.045)  charge=  1.5257  magn= -0.0053
     atom  22 (R=0.045)  charge=  1.5216  magn=  0.0067
     atom  23 (R=0.045)  charge=  1.5363  magn= -0.0046
     atom  24 (R=0.045)  charge=  1.4102  magn=  0.0694
     atom  25 (R=0.045)  charge=  1.4930  magn=  0.3467
     atom  26 (R=0.045)  charge=  1.5428  magn= -0.0095
     atom  27 (R=0.045)  charge=  1.5311  magn=  0.0249
     atom  28 (R=0.045)  charge=  1.5291  magn= -0.0034
     atom  29 (R=0.045)  charge=  1.5255  magn=  0.0121
     atom  30 (R=0.045)  charge=  1.5231  magn= -0.0045
     atom  31 (R=0.045)  charge=  1.4916  magn=  0.0044
     atom  32 (R=0.045)  charge=  1.4771  magn= -0.0128
     atom  33 (R=0.045)  charge=  1.5158  magn=  0.0533
     atom  34 (R=0.045)  charge=  1.5428  magn= -0.0095
     atom  35 (R=0.045)  charge=  1.5311  magn=  0.0249
     atom  36 (R=0.045)  charge=  1.5303  magn= -0.0102
     atom  37 (R=0.045)  charge=  1.5269  magn=  0.0052
     atom  38 (R=0.045)  charge=  1.5253  magn= -0.0063
     atom  39 (R=0.045)  charge=  1.5198  magn=  0.0056
     atom  40 (R=0.045)  charge=  1.5037  magn= -0.0079
     atom  41 (R=0.045)  charge=  1.5198  magn=  0.0187
     atom  42 (R=0.045)  charge=  1.5163  magn= -0.0110
     atom  43 (R=0.045)  charge=  1.5200  magn=  0.0168
     atom  44 (R=0.045)  charge=  1.5291  magn= -0.0034
     atom  45 (R=0.045)  charge=  1.5255  magn=  0.0121
     atom  46 (R=0.045)  charge=  1.5253  magn= -0.0063
     atom  47 (R=0.045)  charge=  1.5198  magn=  0.0056
     atom  48 (R=0.045)  charge=  1.5223  magn= -0.0060
     atom  49 (R=0.045)  charge=  1.5036  magn=  0.0138

     total cpu time spent up to now is      308.3 secs

     End of self-consistent calculation

 ------ SPIN UP ------------


          k = 0.0000 0.0000 0.0000 (119010 PWs)   bands (ev):

   -23.7898 -22.9852 -22.9382 -22.9064 -22.8594 -22.7957 -22.4330 -21.0941
   -21.0809 -21.0444 -21.0432 -20.9341 -20.6938 -20.2286 -20.1802 -20.1259
   -20.0804 -20.0343 -19.2971 -18.0238 -18.0135 -18.0028 -17.9197 -17.8903
   -17.5047 -17.0299 -16.9952 -16.9934 -16.8397 -16.7359 -16.2044 -15.6972
   -15.6887 -15.6464 -15.3952 -15.3531 -14.3685 -13.3357 -13.2853 -13.2726
   -13.2387 -13.2264 -13.2007 -13.1844 -13.1514 -13.1445 -12.6590 -12.6520
   -11.9989 -11.8794 -11.8002 -11.7800 -11.7207 -11.4296 -11.4064 -11.2044
   -10.8838 -10.8426 -10.8354 -10.7741 -10.7379 -10.6428 -10.5672 -10.5369
   -10.5352 -10.4976 -10.4387 -10.4373 -10.3842 -10.3829 -10.3715  -9.5258
    -9.4587  -8.9443  -8.8716  -8.8699  -8.7819  -8.7154  -8.7153  -8.7002
    -8.6730  -8.6008  -8.4066  -8.3709  -7.8707  -7.8068  -7.7873  -7.7701
    -7.6964  -7.6881  -7.6834  -7.0184  -5.8525  -5.8382  -5.7966  -5.7557
    -5.7504  -4.8788  -4.8604  -3.2634  -3.0658  -3.0199  -2.9791  -2.9219
    -2.8748  -2.2156  -1.2308  -1.1691  -1.1543  -1.0262  -0.9727  -0.9677
    -0.3554  -0.1257   0.2629   0.2728   0.2770   0.3119   0.3204   0.4382
     0.5001   0.5787   0.5799   0.6932   0.7608   1.1361   1.1471   1.1642
     1.1717   1.1763

 ------ SPIN DOWN ----------


          k = 0.0000 0.0000 0.0000 (119010 PWs)   bands (ev):

   -23.7559 -22.9251 -22.9192 -22.8755 -22.8366 -22.7662 -22.3284 -21.0548
   -21.0508 -21.0160 -20.9675 -20.9122 -20.6395 -20.1657 -20.1482 -20.0930
   -20.0103 -19.9956 -19.1951 -17.9979 -17.9840 -17.9779 -17.8909 -17.7922
   -17.3761 -17.0003 -16.9712 -16.9664 -16.7563 -16.7056 -16.1421 -15.6524
   -15.6515 -15.6153 -15.3141 -15.2956 -14.2369 -13.2936 -13.2442 -13.2434
   -13.2075 -13.1927 -13.1495 -13.1356 -13.1300 -13.1201 -12.6382 -12.5681
   -11.9441 -11.8252 -11.7669 -11.7425 -11.7002 -11.4043 -11.3553 -11.0799
   -10.8133 -10.8065 -10.7718 -10.7468 -10.6852 -10.5803 -10.5517 -10.5066
   -10.4936 -10.4645 -10.4268 -10.4178 -10.3520 -10.3371 -10.2243  -9.4866
    -9.3777  -8.9113  -8.8419  -8.8351  -8.7616  -8.6600  -8.6502  -8.6353
    -8.6011  -8.5628  -8.2735  -8.0302  -7.7633  -7.7471  -7.7269  -7.7058
    -7.6497  -7.6355  -7.5419  -6.8765  -5.8005  -5.7819  -5.7777  -5.6911
    -5.6178  -4.4340  -3.0341  -2.9932  -2.9643  -2.9553  -2.7788  -2.7528
    -2.7486  -2.1053  -1.1925  -1.1277  -1.0406  -0.9565  -0.8956  -0.8749
    -0.2394  -0.1044   0.2742   0.2787   0.2855   0.3259   0.3301   0.4963
     0.5366   0.6558   0.6573   0.7868   0.9704   1.1428   1.1512   1.1754
     1.1783   1.2127

     the Fermi energy is    -4.7436 ev

!    total energy              =    -589.73480606 Ry
     estimated scf accuracy    <          6.9E-12 Ry
     smearing contrib. (-TS)   =       0.00164556 Ry
     internal energy E=F+TS    =    -589.73645162 Ry

     The total energy is F=E-TS. E is the sum of the following terms:
     one-electron contribution =   -6594.73379840 Ry
     hartree contribution      =    3315.67362719 Ry
     xc contribution           =    -209.60415565 Ry
     ewald contribution        =    2898.92787525 Ry

     total magnetization       =     2.00 Bohr mag/cell
     absolute magnetization    =     2.89 Bohr mag/cell

     convergence has been achieved in  16 iterations

     Forces acting on atoms (cartesian axes, Ry/au):

     atom    1 type  1   force =     0.00054172    0.00000641   -0.00000000
     atom    2 type  1   force =     0.00178237    0.00000696   -0.00000000
     atom    3 type  1   force =    -0.00079022   -0.00060641    0.00000000
     atom    4 type  1   force =     0.00186207    0.00011334   -0.00000000
     atom    5 type  1   force =    -0.00089919    0.00043529    0.00000000
     atom    6 type  1   force =    -0.00007033    0.00021290   -0.00000000
     atom    7 type  1   force =     0.00054556    0.00040504    0.00000000
     atom    8 type  1   force =    -0.00049823   -0.00055421   -0.00000000
     atom    9 type  1   force =     0.00012878    0.00019987    0.00000000
     atom   10 type  1   force =     0.00092231   -0.00029833    0.00000000
     atom   11 type  1   force =    -0.00078846    0.00061583    0.00000000
     atom   12 type  1   force =     0.00186158   -0.00010833    0.00000000
     atom   13 type  1   force =    -0.00091772   -0.00000039    0.00000000
     atom   14 type  1   force =     0.00014430   -0.00000219   -0.00000000
     atom   15 type  1   force =    -0.00035448   -0.00063275   -0.00000001
     atom   16 type  2   force =     0.00049307   -0.00044966    0.00000000
     atom   17 type  1   force =     0.00022726   -0.00077371    0.00000000
     atom   18 type  1   force =    -0.00003424   -0.00043666    0.00000001
     atom   19 type  1   force =     0.00030075    0.00064265    0.00000000
     atom   20 type  1   force =     0.00067930    0.00020682    0.00000000
     atom   21 type  1   force =    -0.00089901   -0.00043872   -0.00000001
     atom   22 type  1   force =    -0.00007249   -0.00021834    0.00000000
     atom   23 type  1   force =    -0.00036047    0.00062374   -0.00000001
     atom   24 type  2   force =     0.00048413    0.00044519   -0.00000000
     atom   25 type  2   force =    -0.00001342    0.00000701    0.00000000
     atom   26 type  1   force =    -0.00114983    0.00009364    0.00000000
     atom   27 type  1   force =     0.00015971   -0.00002487   -0.00000000
     atom   28 type  1   force =    -0.00070632    0.00056468    0.00000000
     atom   29 type  1   force =     0.00082165   -0.00026256   -0.00000000
     atom   30 type  1   force =     0.00053847   -0.00041324    0.00000000
     atom   31 type  1   force =    -0.00050414    0.00054911   -0.00000000
     atom   32 type  1   force =     0.00022225    0.00076871    0.00000000
     atom   33 type  1   force =    -0.00003873    0.00044260    0.00000000
     atom   34 type  1   force =    -0.00115293   -0.00009079    0.00000000
     atom   35 type  1   force =     0.00015818    0.00002938    0.00000000
     atom   36 type  1   force =    -0.00057208   -0.00000052    0.00000000
     atom   37 type  1   force =     0.00046973   -0.00000254   -0.00000001
     atom   38 type  1   force =    -0.00134182    0.00009709   -0.00000000
     atom   39 type  1   force =    -0.00044814   -0.00006532   -0.00000000
     atom   40 type  1   force =     0.00012217   -0.00020287   -0.00000000
     atom   41 type  1   force =     0.00091748    0.00030769    0.00000000
     atom   42 type  1   force =     0.00029720   -0.00063479    0.00000000
     atom   43 type  1   force =     0.00067916   -0.00019745    0.00000000
     atom   44 type  1   force =    -0.00070664   -0.00056141    0.00000000
     atom   45 type  1   force =     0.00082388    0.00026015    0.00000000
     atom   46 type  1   force =    -0.00134050   -0.00010479    0.00000001
     atom   47 type  1   force =    -0.00044329    0.00005508   -0.00000001
     atom   48 type  1   force =     0.00030066   -0.00000453    0.00000000
     atom   49 type  1   force =    -0.00138106   -0.00000382   -0.00000000

     Total force =     0.006117     Total SCF correction =     0.000003
     Energy error            =      4.0E-05 Ry
     Gradient error          =      1.9E-03 Ry/Bohr

     number of scf cycles    =  14
     number of bfgs steps    =  13

     energy             old  =    -589.7347656300 Ry
     energy             new  =    -589.7348060596 Ry

     CASE: energy            _new < energy            _old

     new trust radius        =       0.0016541904 bohr
     new conv_thr            =            4.0E-12 Ry


ATOMIC_POSITIONS (crystal)
C                0.0654283905        0.0654247943        0.0000000006
C                0.1321356090        0.1321319202       -0.0000000003
C                0.0647330988        0.2661546054       -0.0000000019
C                0.1312702252        0.3324113532       -0.0000000030
C                0.0672220337        0.4656435240       -0.0000000038
C                0.1342715763        0.5318098540       -0.0000000021
C                0.0692040860        0.6647352430       -0.0000000010
C                0.1390927127        0.7276039591        0.0000000008
C                0.0690684062        0.8635464434        0.0000000016
C                0.1337285077        0.9315856423        0.0000000012
C                0.2661577336        0.0647298123       -0.0000000003
C                0.3324121669        0.1312695972       -0.0000000007
C                0.2644858261        0.2644855432       -0.0000000014
C                0.3298372726        0.3298391501       -0.0000000006
C                0.2681220131        0.4626655402       -0.0000000008
C1               0.3408101436        0.5198124476       -0.0000000012
C                0.2769617765        0.6555586463       -0.0000000002
C                0.3362139003        0.7306417370        0.0000000005
C                0.2678525644        0.8636710795        0.0000000009
C                0.3338618664        0.9317917734        0.0000000013
C                0.4656435074        0.0672236796        0.0000000006
C                0.5318080980        0.1342759475       -0.0000000002
C                0.4626638050        0.2681270923        0.0000000001
C1               0.5198110135        0.3408159924       -0.0000000004
C1               0.5402395029        0.5402345528        0.0000000024
C                0.4696681977        0.6683904720        0.0000000015
C                0.5356475739        0.7355977557        0.0000000020
C                0.4673351410        0.8678841385        0.0000000021
C                0.5337778639        0.9344174281        0.0000000019
C                0.6647332621        0.0692084950        0.0000000006
C                0.7276032210        0.1390961126        0.0000000008
C                0.6555588177        0.2769647979        0.0000000001
C                0.7306457927        0.3362126400       -0.0000000001
C                0.6683952147        0.4696663021        0.0000000007
C                0.7356006129        0.5356464747       -0.0000000003
C                0.6686230829        0.6686222785        0.0000000012
C                0.7350113485        0.7350131946        0.0000000010
C                0.6673814995        0.8682418778        0.0000000016
C                0.7334901016        0.9350133256        0.0000000011
C                0.8635463881        0.0690700347        0.0000000014
C                0.9315890397        0.1337265100        0.0000000009
C                0.8636752050        0.2678502871       -0.0000000003
C                0.9317953544        0.3338595751       -0.0000000020
C                0.8678864292        0.4673334817       -0.0000000025
C                0.9344164989        0.5337785161       -0.0000000034
C                0.8682394752        0.6673830572       -0.0000000014
C                0.9350092058        0.7334931147       -0.0000000006
C                0.8671330650        0.8671364636        0.0000000004
C                0.9335351056        0.9335370695        0.0000000013



     Writing config-only to output data dir /home/gregb26/links/scratch/qe_tmp/vacancy_relaxed/series/5x5/nspin2/vac_5x5_relax_nspin2.save/ :
     XML data file
     NEW-OLD atomic charge density approx. for the potential

     negative rho (up, down):  6.959E-08 7.593E-08
     Generating pointlists ...

     total cpu time spent up to now is      309.0 secs

     per-process dynamical memory:   167.8 Mb

     Self-consistent Calculation

     iteration #  1     ecut=   100.00 Ry     beta= 0.30
     Davidson diagonalization with overlap
     ethr =  1.00E-06,  avg # of iterations =  2.0
     Minimization algorithm failed to find Fermi energy: reverting to bisection
     Possible cause: smearing is larger than the electronic band-gap.

     Threshold (ethr) on eigenvalues was too large:
     Diagonalizing with lowered threshold

     Davidson diagonalization with overlap
     ethr =  1.85E-09,  avg # of iterations =  5.0
     Minimization algorithm failed to find Fermi energy: reverting to bisection
     Possible cause: smearing is larger than the electronic band-gap.

     negative rho (up, down):  5.405E-08 5.927E-08

     total cpu time spent up to now is      311.4 secs

     total energy              =    -589.73482065 Ry
     estimated scf accuracy    <       0.00000647 Ry

     total magnetization       =     2.00 Bohr mag/cell
     absolute magnetization    =     2.89 Bohr mag/cell

     iteration #  2     ecut=   100.00 Ry     beta= 0.30
     Davidson diagonalization with overlap
     ethr =  3.30E-09,  avg # of iterations =  2.0
     Minimization algorithm failed to find Fermi energy: reverting to bisection
     Possible cause: smearing is larger than the electronic band-gap.

     negative rho (up, down):  3.995E-08 4.425E-08

     total cpu time spent up to now is      312.4 secs

     total energy              =    -589.73482061 Ry
     estimated scf accuracy    <       0.00000316 Ry

     total magnetization       =     2.00 Bohr mag/cell
     absolute magnetization    =     2.89 Bohr mag/cell

     iteration #  3     ecut=   100.00 Ry     beta= 0.30
     Davidson diagonalization with overlap
     ethr =  1.61E-09,  avg # of iterations =  2.0
     Minimization algorithm failed to find Fermi energy: reverting to bisection
     Possible cause: smearing is larger than the electronic band-gap.

     negative rho (up, down):  2.275E-08 2.570E-08

     total cpu time spent up to now is      313.3 secs

     total energy              =    -589.73482079 Ry
     estimated scf accuracy    <       0.00000332 Ry

     total magnetization       =     2.00 Bohr mag/cell
     absolute magnetization    =     2.89 Bohr mag/cell

     iteration #  4     ecut=   100.00 Ry     beta= 0.30
     Davidson diagonalization with overlap
     ethr =  1.61E-09,  avg # of iterations =  1.0
     Minimization algorithm failed to find Fermi energy: reverting to bisection
     Possible cause: smearing is larger than the electronic band-gap.

     negative rho (up, down):  1.035E-08 1.205E-08

     total cpu time spent up to now is      314.0 secs

     total energy              =    -589.73482102 Ry
     estimated scf accuracy    <       0.00000026 Ry

     total magnetization       =     2.00 Bohr mag/cell
     absolute magnetization    =     2.89 Bohr mag/cell

     iteration #  5     ecut=   100.00 Ry     beta= 0.30
     Davidson diagonalization with overlap
     ethr =  1.30E-10,  avg # of iterations =  2.0
     Minimization algorithm failed to find Fermi energy: reverting to bisection
     Possible cause: smearing is larger than the electronic band-gap.

     total cpu time spent up to now is      314.9 secs

     total energy              =    -589.73482105 Ry
     estimated scf accuracy    <       0.00000006 Ry

     total magnetization       =     2.00 Bohr mag/cell
     absolute magnetization    =     2.89 Bohr mag/cell

     iteration #  6     ecut=   100.00 Ry     beta= 0.30
     Davidson diagonalization with overlap
     ethr =  3.15E-11,  avg # of iterations =  2.0
     Minimization algorithm failed to find Fermi energy: reverting to bisection
     Possible cause: smearing is larger than the electronic band-gap.

     total cpu time spent up to now is      315.9 secs

     total energy              =    -589.73482106 Ry
     estimated scf accuracy    <          6.5E-09 Ry

     total magnetization       =     2.00 Bohr mag/cell
     absolute magnetization    =     2.89 Bohr mag/cell

     iteration #  7     ecut=   100.00 Ry     beta= 0.30
     Davidson diagonalization with overlap
     ethr =  3.31E-12,  avg # of iterations =  4.0
     Minimization algorithm failed to find Fermi energy: reverting to bisection
     Possible cause: smearing is larger than the electronic band-gap.

     total cpu time spent up to now is      316.9 secs

     total energy              =    -589.73482107 Ry
     estimated scf accuracy    <          3.3E-09 Ry

     total magnetization       =     2.00 Bohr mag/cell
     absolute magnetization    =     2.89 Bohr mag/cell

     iteration #  8     ecut=   100.00 Ry     beta= 0.30
     Davidson diagonalization with overlap
     ethr =  1.69E-12,  avg # of iterations =  3.0
     Minimization algorithm failed to find Fermi energy: reverting to bisection
     Possible cause: smearing is larger than the electronic band-gap.

     total cpu time spent up to now is      317.8 secs

     total energy              =    -589.73482107 Ry
     estimated scf accuracy    <          1.1E-09 Ry

     total magnetization       =     2.00 Bohr mag/cell
     absolute magnetization    =     2.89 Bohr mag/cell

     iteration #  9     ecut=   100.00 Ry     beta= 0.30
     Davidson diagonalization with overlap
     ethr =  5.81E-13,  avg # of iterations =  3.5
     Minimization algorithm failed to find Fermi energy: reverting to bisection
     Possible cause: smearing is larger than the electronic band-gap.

     total cpu time spent up to now is      318.9 secs

     total energy              =    -589.73482107 Ry
     estimated scf accuracy    <          3.2E-10 Ry

     total magnetization       =     2.00 Bohr mag/cell
     absolute magnetization    =     2.89 Bohr mag/cell

     iteration # 10     ecut=   100.00 Ry     beta= 0.30
     Davidson diagonalization with overlap
     ethr =  1.64E-13,  avg # of iterations =  2.5
     Minimization algorithm failed to find Fermi energy: reverting to bisection
     Possible cause: smearing is larger than the electronic band-gap.

     total cpu time spent up to now is      319.9 secs

     total energy              =    -589.73482107 Ry
     estimated scf accuracy    <          1.3E-10 Ry

     total magnetization       =     2.00 Bohr mag/cell
     absolute magnetization    =     2.89 Bohr mag/cell

     iteration # 11     ecut=   100.00 Ry     beta= 0.30
     Davidson diagonalization with overlap
     ethr =  1.00E-13,  avg # of iterations =  3.0
     Minimization algorithm failed to find Fermi energy: reverting to bisection
     Possible cause: smearing is larger than the electronic band-gap.

     total cpu time spent up to now is      320.8 secs

     total energy              =    -589.73482107 Ry
     estimated scf accuracy    <          3.9E-11 Ry

     total magnetization       =     2.00 Bohr mag/cell
     absolute magnetization    =     2.89 Bohr mag/cell

     iteration # 12     ecut=   100.00 Ry     beta= 0.30
     Davidson diagonalization with overlap
     ethr =  1.00E-13,  avg # of iterations =  2.0
     Minimization algorithm failed to find Fermi energy: reverting to bisection
     Possible cause: smearing is larger than the electronic band-gap.

     total cpu time spent up to now is      321.8 secs

     total energy              =    -589.73482107 Ry
     estimated scf accuracy    <          7.2E-12 Ry

     total magnetization       =     2.00 Bohr mag/cell
     absolute magnetization    =     2.89 Bohr mag/cell

     iteration # 13     ecut=   100.00 Ry     beta= 0.30
     Davidson diagonalization with overlap
     ethr =  1.00E-13,  avg # of iterations =  1.5
     Minimization algorithm failed to find Fermi energy: reverting to bisection
     Possible cause: smearing is larger than the electronic band-gap.

     Magnetic moment per site  (integrated on atomic sphere of radius R)
     atom   1 (R=0.045)  charge=  1.5181  magn= -0.0110
     atom   2 (R=0.045)  charge=  1.5166  magn=  0.0661
     atom   3 (R=0.045)  charge=  1.5248  magn= -0.0109
     atom   4 (R=0.045)  charge=  1.5270  magn=  0.0186
     atom   5 (R=0.045)  charge=  1.5259  magn= -0.0053
     atom   6 (R=0.045)  charge=  1.5214  magn=  0.0067
     atom   7 (R=0.045)  charge=  1.5232  magn= -0.0045
     atom   8 (R=0.045)  charge=  1.4915  magn=  0.0044
     atom   9 (R=0.045)  charge=  1.5032  magn= -0.0079
     atom  10 (R=0.045)  charge=  1.5197  magn=  0.0186
     atom  11 (R=0.045)  charge=  1.5248  magn= -0.0109
     atom  12 (R=0.045)  charge=  1.5270  magn=  0.0186
     atom  13 (R=0.045)  charge=  1.5378  magn= -0.0097
     atom  14 (R=0.045)  charge=  1.5429  magn=  0.0442
     atom  15 (R=0.045)  charge=  1.5363  magn= -0.0046
     atom  16 (R=0.045)  charge=  1.4102  magn=  0.0694
     atom  17 (R=0.045)  charge=  1.4770  magn= -0.0128
     atom  18 (R=0.045)  charge=  1.5159  magn=  0.0534
     atom  19 (R=0.045)  charge=  1.5162  magn= -0.0110
     atom  20 (R=0.045)  charge=  1.5201  magn=  0.0168
     atom  21 (R=0.045)  charge=  1.5259  magn= -0.0053
     atom  22 (R=0.045)  charge=  1.5214  magn=  0.0067
     atom  23 (R=0.045)  charge=  1.5363  magn= -0.0046
     atom  24 (R=0.045)  charge=  1.4102  magn=  0.0694
     atom  25 (R=0.045)  charge=  1.4932  magn=  0.3464
     atom  26 (R=0.045)  charge=  1.5430  magn= -0.0095
     atom  27 (R=0.045)  charge=  1.5310  magn=  0.0249
     atom  28 (R=0.045)  charge=  1.5291  magn= -0.0034
     atom  29 (R=0.045)  charge=  1.5256  magn=  0.0121
     atom  30 (R=0.045)  charge=  1.5232  magn= -0.0045
     atom  31 (R=0.045)  charge=  1.4915  magn=  0.0044
     atom  32 (R=0.045)  charge=  1.4770  magn= -0.0128
     atom  33 (R=0.045)  charge=  1.5159  magn=  0.0534
     atom  34 (R=0.045)  charge=  1.5430  magn= -0.0095
     atom  35 (R=0.045)  charge=  1.5310  magn=  0.0249
     atom  36 (R=0.045)  charge=  1.5303  magn= -0.0102
     atom  37 (R=0.045)  charge=  1.5269  magn=  0.0052
     atom  38 (R=0.045)  charge=  1.5253  magn= -0.0063
     atom  39 (R=0.045)  charge=  1.5195  magn=  0.0056
     atom  40 (R=0.045)  charge=  1.5032  magn= -0.0079
     atom  41 (R=0.045)  charge=  1.5197  magn=  0.0186
     atom  42 (R=0.045)  charge=  1.5162  magn= -0.0110
     atom  43 (R=0.045)  charge=  1.5201  magn=  0.0168
     atom  44 (R=0.045)  charge=  1.5291  magn= -0.0034
     atom  45 (R=0.045)  charge=  1.5256  magn=  0.0121
     atom  46 (R=0.045)  charge=  1.5253  magn= -0.0063
     atom  47 (R=0.045)  charge=  1.5195  magn=  0.0056
     atom  48 (R=0.045)  charge=  1.5222  magn= -0.0060
     atom  49 (R=0.045)  charge=  1.5034  magn=  0.0138

     total cpu time spent up to now is      322.8 secs

     End of self-consistent calculation

 ------ SPIN UP ------------


          k = 0.0000 0.0000 0.0000 (119010 PWs)   bands (ev):

   -23.7898 -22.9862 -22.9387 -22.9058 -22.8578 -22.7953 -22.4339 -21.0944
   -21.0807 -21.0448 -21.0431 -20.9343 -20.6931 -20.2287 -20.1802 -20.1271
   -20.0798 -20.0340 -19.2985 -18.0226 -18.0126 -18.0016 -17.9206 -17.8908
   -17.5055 -17.0289 -16.9957 -16.9940 -16.8397 -16.7374 -16.2037 -15.6982
   -15.6889 -15.6460 -15.3946 -15.3537 -14.3692 -13.3366 -13.2854 -13.2728
   -13.2399 -13.2265 -13.2011 -13.1836 -13.1495 -13.1444 -12.6596 -12.6520
   -11.9995 -11.8793 -11.8010 -11.7783 -11.7209 -11.4300 -11.4054 -11.2041
   -10.8845 -10.8430 -10.8349 -10.7729 -10.7376 -10.6440 -10.5686 -10.5394
   -10.5363 -10.4976 -10.4387 -10.4358 -10.3830 -10.3825 -10.3725  -9.5270
    -9.4595  -8.9460  -8.8712  -8.8672  -8.7816  -8.7155  -8.7154  -8.7009
    -8.6723  -8.6012  -8.4075  -8.3706  -7.8707  -7.8087  -7.7870  -7.7692
    -7.6961  -7.6879  -7.6860  -7.0195  -5.8519  -5.8377  -5.7947  -5.7564
    -5.7517  -4.8785  -4.8614  -3.2601  -3.0646  -3.0211  -2.9809  -2.9215
    -2.8761  -2.2149  -1.2309  -1.1701  -1.1536  -1.0248  -0.9728  -0.9692
    -0.3561  -0.1257   0.2630   0.2727   0.2773   0.3118   0.3204   0.4379
     0.4999   0.5790   0.5794   0.6919   0.7613   1.1362   1.1471   1.1639
     1.1717   1.1760

 ------ SPIN DOWN ----------


          k = 0.0000 0.0000 0.0000 (119010 PWs)   bands (ev):

   -23.7558 -22.9258 -22.9197 -22.8748 -22.8351 -22.7657 -22.3292 -21.0550
   -21.0503 -21.0161 -20.9679 -20.9123 -20.6389 -20.1660 -20.1480 -20.0936
   -20.0100 -19.9954 -19.1967 -17.9968 -17.9821 -17.9775 -17.8919 -17.7929
   -17.3766 -16.9992 -16.9719 -16.9669 -16.7563 -16.7070 -16.1415 -15.6532
   -15.6516 -15.6150 -15.3147 -15.2952 -14.2376 -13.2941 -13.2441 -13.2436
   -13.2083 -13.1930 -13.1487 -13.1369 -13.1291 -13.1186 -12.6389 -12.5681
   -11.9446 -11.8251 -11.7669 -11.7418 -11.7004 -11.4046 -11.3546 -11.0792
   -10.8136 -10.8070 -10.7714 -10.7457 -10.6848 -10.5812 -10.5536 -10.5078
   -10.4955 -10.4642 -10.4255 -10.4177 -10.3511 -10.3370 -10.2251  -9.4881
    -9.3785  -8.9131  -8.8392  -8.8344  -8.7618  -8.6592  -8.6502  -8.6354
    -8.6017  -8.5630  -8.2729  -8.0312  -7.7635  -7.7470  -7.7286  -7.7046
    -7.6543  -7.6352  -7.5403  -6.8776  -5.7993  -5.7805  -5.7769  -5.6921
    -5.6192  -4.4345  -3.0330  -2.9946  -2.9613  -2.9572  -2.7796  -2.7523
    -2.7515  -2.1048  -1.1924  -1.1286  -1.0396  -0.9565  -0.8970  -0.8739
    -0.2398  -0.1045   0.2743   0.2787   0.2857   0.3258   0.3302   0.4960
     0.5362   0.6561   0.6571   0.7861   0.9708   1.1429   1.1512   1.1751
     1.1783   1.2119

     the Fermi energy is    -4.7440 ev

!    total energy              =    -589.73482107 Ry
     estimated scf accuracy    <          1.3E-12 Ry
     smearing contrib. (-TS)   =       0.00164333 Ry
     internal energy E=F+TS    =    -589.73646440 Ry

     The total energy is F=E-TS. E is the sum of the following terms:
     one-electron contribution =   -6594.70738764 Ry
     hartree contribution      =    3315.65909947 Ry
     xc contribution           =    -209.60317153 Ry
     ewald contribution        =    2898.91499531 Ry

     total magnetization       =     2.00 Bohr mag/cell
     absolute magnetization    =     2.89 Bohr mag/cell

     convergence has been achieved in  13 iterations

     Forces acting on atoms (cartesian axes, Ry/au):

     atom    1 type  1   force =     0.00048354    0.00000501    0.00000000
     atom    2 type  1   force =     0.00052100    0.00000539   -0.00000000
     atom    3 type  1   force =     0.00073599   -0.00014677    0.00000001
     atom    4 type  1   force =    -0.00032345   -0.00008609    0.00000000
     atom    5 type  1   force =     0.00033709    0.00017186    0.00000000
     atom    6 type  1   force =    -0.00018002    0.00007419   -0.00000000
     atom    7 type  1   force =    -0.00021459    0.00019690    0.00000000
     atom    8 type  1   force =     0.00028324    0.00000989   -0.00000001
     atom    9 type  1   force =    -0.00010530    0.00017019   -0.00000001
     atom   10 type  1   force =     0.00061174    0.00010080   -0.00000000
     atom   11 type  1   force =     0.00073546    0.00015507   -0.00000000
     atom   12 type  1   force =    -0.00032332    0.00008796    0.00000000
     atom   13 type  1   force =     0.00027292    0.00000046   -0.00000000
     atom   14 type  1   force =    -0.00014847   -0.00000288   -0.00000000
     atom   15 type  1   force =    -0.00015639   -0.00008695    0.00000000
     atom   16 type  2   force =     0.00042531   -0.00064309    0.00000002
     atom   17 type  1   force =     0.00001389   -0.00019956    0.00000001
     atom   18 type  1   force =    -0.00034499    0.00006566    0.00000001
     atom   19 type  1   force =     0.00021375    0.00021155    0.00000001
     atom   20 type  1   force =    -0.00000373    0.00040847   -0.00000001
     atom   21 type  1   force =     0.00033485   -0.00017405   -0.00000000
     atom   22 type  1   force =    -0.00018367   -0.00007974    0.00000000
     atom   23 type  1   force =    -0.00016154    0.00008030   -0.00000001
     atom   24 type  2   force =     0.00041718    0.00063796   -0.00000000
     atom   25 type  2   force =    -0.00041268    0.00000509    0.00000001
     atom   26 type  1   force =     0.00002350    0.00012601   -0.00000000
     atom   27 type  1   force =    -0.00048401    0.00014718   -0.00000000
     atom   28 type  1   force =     0.00008974   -0.00003169   -0.00000001
     atom   29 type  1   force =    -0.00035294   -0.00034922   -0.00000001
     atom   30 type  1   force =    -0.00021888   -0.00020386   -0.00000000
     atom   31 type  1   force =     0.00027800   -0.00001378    0.00000000
     atom   32 type  1   force =     0.00000845    0.00019648   -0.00000001
     atom   33 type  1   force =    -0.00034889   -0.00006218    0.00000001
     atom   34 type  1   force =     0.00001872   -0.00012038    0.00000000
     atom   35 type  1   force =    -0.00048609   -0.00014434    0.00000000
     atom   36 type  1   force =     0.00016837    0.00000092    0.00000001
     atom   37 type  1   force =     0.00023138   -0.00000297   -0.00000001
     atom   38 type  1   force =    -0.00017441    0.00016114    0.00000000
     atom   39 type  1   force =    -0.00079151   -0.00062112   -0.00000000
     atom   40 type  1   force =    -0.00010928   -0.00017213    0.00000000
     atom   41 type  1   force =     0.00060815   -0.00009399   -0.00000000
     atom   42 type  1   force =     0.00021012   -0.00020464   -0.00000001
     atom   43 type  1   force =    -0.00000569   -0.00040136   -0.00000001
     atom   44 type  1   force =     0.00009015    0.00003582    0.00000000
     atom   45 type  1   force =    -0.00035235    0.00034792    0.00000000
     atom   46 type  1   force =    -0.00017193   -0.00016653    0.00000001
     atom   47 type  1   force =    -0.00078885    0.00061255   -0.00000000
     atom   48 type  1   force =    -0.00022287   -0.00000451    0.00000000
     atom   49 type  1   force =    -0.00004671   -0.00000291   -0.00000000

     Total force =     0.003008     Total SCF correction =     0.000001
     Energy error            =      1.5E-05 Ry
     Gradient error          =      7.9E-04 Ry/Bohr

     number of scf cycles    =  15
     number of bfgs steps    =  14

     energy             old  =    -589.7348060596 Ry
     energy             new  =    -589.7348210688 Ry

     CASE: energy            _new < energy            _old

     new trust radius        =       0.0014249455 bohr
     new conv_thr            =            1.5E-12 Ry


ATOMIC_POSITIONS (crystal)
C                0.0654542752        0.0654514242        0.0000000006
C                0.1321694563        0.1321665286       -0.0000000005
C                0.0647761165        0.2661675060       -0.0000000016
C                0.1312841545        0.3324260867       -0.0000000029
C                0.0672118073        0.4656654678       -0.0000000035
C                0.1342558553        0.5318275379       -0.0000000021
C                0.0691885917        0.6647464018       -0.0000000010
C                0.1390838526        0.7276207462        0.0000000006
C                0.0690523876        0.8635655522        0.0000000013
C                0.1337456357        0.9316163019        0.0000000012
C                0.2661700478        0.0647734275       -0.0000000003
C                0.3324267462        0.1312836900       -0.0000000007
C                0.2645031426        0.2645029241       -0.0000000015
C                0.3298474685        0.3298489972       -0.0000000007
C                0.2681381307        0.4626668285       -0.0000000008
C1               0.3408102152        0.5198501764       -0.0000000006
C                0.2769571186        0.6555780798        0.0000000001
C                0.3361836957        0.7306605755        0.0000000008
C                0.2678423577        0.8637100263        0.0000000013
C                0.3338443781        0.9318257464        0.0000000009
C                0.4656655275        0.0672132004        0.0000000004
C                0.5318260632        0.1342596312        0.0000000000
C                0.4626653410        0.2681424881       -0.0000000004
C1               0.5198488498        0.3408153170       -0.0000000006
C1               0.5402038545        0.5401995816        0.0000000026
C                0.4696407066        0.6683610885        0.0000000015
C                0.5356138880        0.7355746993        0.0000000018
C                0.4673195521        0.8678826634        0.0000000018
C                0.5337859233        0.9343859018        0.0000000017
C                0.6647447381        0.0691922698        0.0000000006
C                0.7276200976        0.1390866948        0.0000000008
C                0.6555782608        0.2769596714       -0.0000000002
C                0.7306641065        0.3361825984        0.0000000001
C                0.6683652190        0.4696390624        0.0000000008
C                0.7355772323        0.5356129258       -0.0000000001
C                0.6686031830        0.6686024598        0.0000000015
C                0.7349982038        0.7349996567        0.0000000007
C                0.6673552641        0.8682245425        0.0000000017
C                0.7334849194        0.9349667858        0.0000000010
C                0.8635654731        0.0690536806        0.0000000014
C                0.9316190183        0.1337440084        0.0000000008
C                0.8637134687        0.2678404709       -0.0000000007
C                0.9318287268        0.3338425375       -0.0000000023
C                0.8678846664        0.4673181803       -0.0000000023
C                0.9343851366        0.5337864805       -0.0000000032
C                0.8682226339        0.6673565092       -0.0000000012
C                0.9349634100        0.7334874372       -0.0000000008
C                0.8671203868        0.8671231756        0.0000000006
C                0.9335240481        0.9335255893        0.0000000012



     Writing config-only to output data dir /home/gregb26/links/scratch/qe_tmp/vacancy_relaxed/series/5x5/nspin2/vac_5x5_relax_nspin2.save/ :
     XML data file
     NEW-OLD atomic charge density approx. for the potential

     negative rho (up, down):  6.843E-08 7.812E-08
     Generating pointlists ...

     total cpu time spent up to now is      323.4 secs

     per-process dynamical memory:   167.8 Mb

     Self-consistent Calculation

     iteration #  1     ecut=   100.00 Ry     beta= 0.30
     Davidson diagonalization with overlap
     ethr =  1.00E-06,  avg # of iterations =  2.5
     Minimization algorithm failed to find Fermi energy: reverting to bisection
     Possible cause: smearing is larger than the electronic band-gap.

     Threshold (ethr) on eigenvalues was too large:
     Diagonalizing with lowered threshold

     Davidson diagonalization with overlap
     ethr =  1.54E-09,  avg # of iterations =  5.5
     Minimization algorithm failed to find Fermi energy: reverting to bisection
     Possible cause: smearing is larger than the electronic band-gap.

     negative rho (up, down):  7.925E-08 8.167E-08

     total cpu time spent up to now is      326.1 secs

     total energy              =    -589.73482659 Ry
     estimated scf accuracy    <       0.00000510 Ry

     total magnetization       =     2.00 Bohr mag/cell
     absolute magnetization    =     2.89 Bohr mag/cell

     iteration #  2     ecut=   100.00 Ry     beta= 0.30
     Davidson diagonalization with overlap
     ethr =  2.60E-09,  avg # of iterations =  2.0
     Minimization algorithm failed to find Fermi energy: reverting to bisection
     Possible cause: smearing is larger than the electronic band-gap.

     negative rho (up, down):  6.469E-08 6.709E-08

     total cpu time spent up to now is      327.0 secs

     total energy              =    -589.73482650 Ry
     estimated scf accuracy    <       0.00000468 Ry

     total magnetization       =     2.00 Bohr mag/cell
     absolute magnetization    =     2.89 Bohr mag/cell

     iteration #  3     ecut=   100.00 Ry     beta= 0.30
     Davidson diagonalization with overlap
     ethr =  2.39E-09,  avg # of iterations =  1.5
     Minimization algorithm failed to find Fermi energy: reverting to bisection
     Possible cause: smearing is larger than the electronic band-gap.

     negative rho (up, down):  3.037E-08 3.228E-08

     total cpu time spent up to now is      328.0 secs

     total energy              =    -589.73482700 Ry
     estimated scf accuracy    <       0.00000204 Ry

     total magnetization       =     2.00 Bohr mag/cell
     absolute magnetization    =     2.89 Bohr mag/cell

     iteration #  4     ecut=   100.00 Ry     beta= 0.30
     Davidson diagonalization with overlap
     ethr =  1.04E-09,  avg # of iterations =  1.0
     Minimization algorithm failed to find Fermi energy: reverting to bisection
     Possible cause: smearing is larger than the electronic band-gap.

     total cpu time spent up to now is      328.8 secs

     total energy              =    -589.73482714 Ry
     estimated scf accuracy    <       0.00000020 Ry

     total magnetization       =     2.00 Bohr mag/cell
     absolute magnetization    =     2.89 Bohr mag/cell

     iteration #  5     ecut=   100.00 Ry     beta= 0.30
     Davidson diagonalization with overlap
     ethr =  1.02E-10,  avg # of iterations =  2.0
     Minimization algorithm failed to find Fermi energy: reverting to bisection
     Possible cause: smearing is larger than the electronic band-gap.

     total cpu time spent up to now is      329.8 secs

     total energy              =    -589.73482718 Ry
     estimated scf accuracy    <       0.00000004 Ry

     total magnetization       =     2.00 Bohr mag/cell
     absolute magnetization    =     2.90 Bohr mag/cell

     iteration #  6     ecut=   100.00 Ry     beta= 0.30
     Davidson diagonalization with overlap
     ethr =  2.03E-11,  avg # of iterations =  4.0
     Minimization algorithm failed to find Fermi energy: reverting to bisection
     Possible cause: smearing is larger than the electronic band-gap.

     total cpu time spent up to now is      331.0 secs

     total energy              =    -589.73482719 Ry
     estimated scf accuracy    <       0.00000002 Ry

     total magnetization       =     2.00 Bohr mag/cell
     absolute magnetization    =     2.90 Bohr mag/cell

     iteration #  7     ecut=   100.00 Ry     beta= 0.30
     Davidson diagonalization with overlap
     ethr =  7.73E-12,  avg # of iterations =  3.0
     Minimization algorithm failed to find Fermi energy: reverting to bisection
     Possible cause: smearing is larger than the electronic band-gap.

     total cpu time spent up to now is      332.2 secs

     total energy              =    -589.73482720 Ry
     estimated scf accuracy    <          6.0E-09 Ry

     total magnetization       =     2.00 Bohr mag/cell
     absolute magnetization    =     2.90 Bohr mag/cell

     iteration #  8     ecut=   100.00 Ry     beta= 0.30
     Davidson diagonalization with overlap
     ethr =  3.09E-12,  avg # of iterations =  2.5
     Minimization algorithm failed to find Fermi energy: reverting to bisection
     Possible cause: smearing is larger than the electronic band-gap.

     total cpu time spent up to now is      333.2 secs

     total energy              =    -589.73482720 Ry
     estimated scf accuracy    <          1.1E-09 Ry

     total magnetization       =     2.00 Bohr mag/cell
     absolute magnetization    =     2.90 Bohr mag/cell

     iteration #  9     ecut=   100.00 Ry     beta= 0.30
     Davidson diagonalization with overlap
     ethr =  5.66E-13,  avg # of iterations =  4.0
     Minimization algorithm failed to find Fermi energy: reverting to bisection
     Possible cause: smearing is larger than the electronic band-gap.

     total cpu time spent up to now is      334.5 secs

     total energy              =    -589.73482720 Ry
     estimated scf accuracy    <          6.2E-10 Ry

     total magnetization       =     2.00 Bohr mag/cell
     absolute magnetization    =     2.90 Bohr mag/cell

     iteration # 10     ecut=   100.00 Ry     beta= 0.30
     Davidson diagonalization with overlap
     ethr =  3.14E-13,  avg # of iterations =  2.5
     Minimization algorithm failed to find Fermi energy: reverting to bisection
     Possible cause: smearing is larger than the electronic band-gap.

     total cpu time spent up to now is      335.4 secs

     total energy              =    -589.73482720 Ry
     estimated scf accuracy    <          2.6E-10 Ry

     total magnetization       =     2.00 Bohr mag/cell
     absolute magnetization    =     2.90 Bohr mag/cell

     iteration # 11     ecut=   100.00 Ry     beta= 0.30
     Davidson diagonalization with overlap
     ethr =  1.33E-13,  avg # of iterations =  3.5
     Minimization algorithm failed to find Fermi energy: reverting to bisection
     Possible cause: smearing is larger than the electronic band-gap.

     total cpu time spent up to now is      336.5 secs

     total energy              =    -589.73482720 Ry
     estimated scf accuracy    <          4.7E-11 Ry

     total magnetization       =     2.00 Bohr mag/cell
     absolute magnetization    =     2.90 Bohr mag/cell

     iteration # 12     ecut=   100.00 Ry     beta= 0.30
     Davidson diagonalization with overlap
     ethr =  1.00E-13,  avg # of iterations =  2.0
     Minimization algorithm failed to find Fermi energy: reverting to bisection
     Possible cause: smearing is larger than the electronic band-gap.

     total cpu time spent up to now is      337.4 secs

     total energy              =    -589.73482720 Ry
     estimated scf accuracy    <          1.0E-11 Ry

     total magnetization       =     2.00 Bohr mag/cell
     absolute magnetization    =     2.90 Bohr mag/cell

     iteration # 13     ecut=   100.00 Ry     beta= 0.30
     Davidson diagonalization with overlap
     ethr =  1.00E-13,  avg # of iterations =  1.0
     Minimization algorithm failed to find Fermi energy: reverting to bisection
     Possible cause: smearing is larger than the electronic band-gap.

     total cpu time spent up to now is      338.1 secs

     total energy              =    -589.73482720 Ry
     estimated scf accuracy    <          5.0E-12 Ry

     total magnetization       =     2.00 Bohr mag/cell
     absolute magnetization    =     2.90 Bohr mag/cell

     iteration # 14     ecut=   100.00 Ry     beta= 0.30
     Davidson diagonalization with overlap
     ethr =  1.00E-13,  avg # of iterations =  1.0
     Minimization algorithm failed to find Fermi energy: reverting to bisection
     Possible cause: smearing is larger than the electronic band-gap.

     total cpu time spent up to now is      339.0 secs

     total energy              =    -589.73482720 Ry
     estimated scf accuracy    <          1.6E-12 Ry

     total magnetization       =     2.00 Bohr mag/cell
     absolute magnetization    =     2.90 Bohr mag/cell

     iteration # 15     ecut=   100.00 Ry     beta= 0.30
     Davidson diagonalization with overlap
     ethr =  1.00E-13,  avg # of iterations =  1.0
     Minimization algorithm failed to find Fermi energy: reverting to bisection
     Possible cause: smearing is larger than the electronic band-gap.

     Magnetic moment per site  (integrated on atomic sphere of radius R)
     atom   1 (R=0.045)  charge=  1.5180  magn= -0.0110
     atom   2 (R=0.045)  charge=  1.5167  magn=  0.0662
     atom   3 (R=0.045)  charge=  1.5250  magn= -0.0109
     atom   4 (R=0.045)  charge=  1.5271  magn=  0.0186
     atom   5 (R=0.045)  charge=  1.5258  magn= -0.0054
     atom   6 (R=0.045)  charge=  1.5213  magn=  0.0067
     atom   7 (R=0.045)  charge=  1.5230  magn= -0.0045
     atom   8 (R=0.045)  charge=  1.4914  magn=  0.0044
     atom   9 (R=0.045)  charge=  1.5030  magn= -0.0079
     atom  10 (R=0.045)  charge=  1.5196  magn=  0.0187
     atom  11 (R=0.045)  charge=  1.5250  magn= -0.0109
     atom  12 (R=0.045)  charge=  1.5271  magn=  0.0186
     atom  13 (R=0.045)  charge=  1.5378  magn= -0.0097
     atom  14 (R=0.045)  charge=  1.5430  magn=  0.0443
     atom  15 (R=0.045)  charge=  1.5361  magn= -0.0046
     atom  16 (R=0.045)  charge=  1.4102  magn=  0.0695
     atom  17 (R=0.045)  charge=  1.4772  magn= -0.0128
     atom  18 (R=0.045)  charge=  1.5159  magn=  0.0535
     atom  19 (R=0.045)  charge=  1.5163  magn= -0.0110
     atom  20 (R=0.045)  charge=  1.5201  magn=  0.0168
     atom  21 (R=0.045)  charge=  1.5258  magn= -0.0054
     atom  22 (R=0.045)  charge=  1.5213  magn=  0.0067
     atom  23 (R=0.045)  charge=  1.5361  magn= -0.0046
     atom  24 (R=0.045)  charge=  1.4101  magn=  0.0695
     atom  25 (R=0.045)  charge=  1.4931  magn=  0.3460
     atom  26 (R=0.045)  charge=  1.5430  magn= -0.0096
     atom  27 (R=0.045)  charge=  1.5308  magn=  0.0249
     atom  28 (R=0.045)  charge=  1.5290  magn= -0.0035
     atom  29 (R=0.045)  charge=  1.5256  magn=  0.0122
     atom  30 (R=0.045)  charge=  1.5230  magn= -0.0045
     atom  31 (R=0.045)  charge=  1.4914  magn=  0.0044
     atom  32 (R=0.045)  charge=  1.4772  magn= -0.0128
     atom  33 (R=0.045)  charge=  1.5159  magn=  0.0535
     atom  34 (R=0.045)  charge=  1.5430  magn= -0.0096
     atom  35 (R=0.045)  charge=  1.5308  magn=  0.0249
     atom  36 (R=0.045)  charge=  1.5302  magn= -0.0102
     atom  37 (R=0.045)  charge=  1.5269  magn=  0.0052
     atom  38 (R=0.045)  charge=  1.5255  magn= -0.0063
     atom  39 (R=0.045)  charge=  1.5194  magn=  0.0056
     atom  40 (R=0.045)  charge=  1.5030  magn= -0.0079
     atom  41 (R=0.045)  charge=  1.5196  magn=  0.0187
     atom  42 (R=0.045)  charge=  1.5163  magn= -0.0110
     atom  43 (R=0.045)  charge=  1.5201  magn=  0.0168
     atom  44 (R=0.045)  charge=  1.5290  magn= -0.0035
     atom  45 (R=0.045)  charge=  1.5257  magn=  0.0122
     atom  46 (R=0.045)  charge=  1.5255  magn= -0.0063
     atom  47 (R=0.045)  charge=  1.5194  magn=  0.0056
     atom  48 (R=0.045)  charge=  1.5223  magn= -0.0060
     atom  49 (R=0.045)  charge=  1.5034  magn=  0.0138

     total cpu time spent up to now is      339.8 secs

     End of self-consistent calculation

 ------ SPIN UP ------------


          k = 0.0000 0.0000 0.0000 (119010 PWs)   bands (ev):

   -23.7898 -22.9861 -22.9387 -22.9063 -22.8570 -22.7951 -22.4348 -21.0943
   -21.0803 -21.0450 -21.0424 -20.9353 -20.6933 -20.2287 -20.1798 -20.1271
   -20.0803 -20.0343 -19.2990 -18.0216 -18.0122 -18.0023 -17.9205 -17.8913
   -17.5063 -17.0294 -16.9952 -16.9939 -16.8401 -16.7379 -16.2041 -15.6984
   -15.6887 -15.6462 -15.3947 -15.3538 -14.3696 -13.3366 -13.2856 -13.2734
   -13.2401 -13.2266 -13.2017 -13.1832 -13.1498 -13.1443 -12.6599 -12.6522
   -11.9998 -11.8794 -11.8010 -11.7782 -11.7206 -11.4296 -11.4056 -11.2051
   -10.8845 -10.8431 -10.8353 -10.7722 -10.7374 -10.6444 -10.5690 -10.5401
   -10.5369 -10.4982 -10.4387 -10.4348 -10.3835 -10.3830 -10.3734  -9.5274
    -9.4595  -8.9455  -8.8714  -8.8679  -8.7819  -8.7152  -8.7150  -8.7017
    -8.6722  -8.6016  -8.4089  -8.3707  -7.8708  -7.8087  -7.7876  -7.7688
    -7.6966  -7.6877  -7.6869  -7.0200  -5.8516  -5.8378  -5.7950  -5.7569
    -5.7517  -4.8778  -4.8623  -3.2636  -3.0654  -3.0213  -2.9812  -2.9217
    -2.8763  -2.2152  -1.2307  -1.1699  -1.1536  -1.0251  -0.9728  -0.9698
    -0.3567  -0.1257   0.2630   0.2727   0.2774   0.3117   0.3205   0.4376
     0.4997   0.5783   0.5792   0.6916   0.7612   1.1362   1.1471   1.1635
     1.1717   1.1758

 ------ SPIN DOWN ----------


          k = 0.0000 0.0000 0.0000 (119010 PWs)   bands (ev):

   -23.7558 -22.9259 -22.9196 -22.8751 -22.8343 -22.7654 -22.3300 -21.0545
   -21.0498 -21.0154 -20.9684 -20.9134 -20.6390 -20.1659 -20.1477 -20.0938
   -20.0105 -19.9957 -19.1972 -17.9964 -17.9821 -17.9769 -17.8920 -17.7936
   -17.3770 -16.9997 -16.9717 -16.9665 -16.7568 -16.7074 -16.1418 -15.6535
   -15.6515 -15.6151 -15.3147 -15.2954 -14.2381 -13.2941 -13.2442 -13.2441
   -13.2083 -13.1932 -13.1484 -13.1376 -13.1290 -13.1192 -12.6391 -12.5685
   -11.9451 -11.8251 -11.7671 -11.7415 -11.7001 -11.4042 -11.3548 -11.0801
   -10.8135 -10.8071 -10.7715 -10.7450 -10.6845 -10.5814 -10.5536 -10.5082
   -10.4966 -10.4649 -10.4244 -10.4179 -10.3514 -10.3376 -10.2258  -9.4884
    -9.3787  -8.9126  -8.8398  -8.8347  -8.7620  -8.6587  -8.6497  -8.6349
    -8.6023  -8.5637  -8.2729  -8.0320  -7.7636  -7.7471  -7.7283  -7.7044
    -7.6540  -7.6357  -7.5414  -6.8779  -5.7991  -5.7806  -5.7761  -5.6923
    -5.6199  -4.4347  -3.0338  -2.9947  -2.9645  -2.9572  -2.7797  -2.7554
    -2.7524  -2.1050  -1.1923  -1.1284  -1.0394  -0.9565  -0.8973  -0.8741
    -0.2403  -0.1045   0.2743   0.2787   0.2859   0.3257   0.3303   0.4958
     0.5357   0.6557   0.6570   0.7859   0.9706   1.1430   1.1512   1.1748
     1.1783   1.2109

     the Fermi energy is    -4.7442 ev

!    total energy              =    -589.73482720 Ry
     estimated scf accuracy    <          6.3E-13 Ry
     smearing contrib. (-TS)   =       0.00164079 Ry
     internal energy E=F+TS    =    -589.73646799 Ry

     The total energy is F=E-TS. E is the sum of the following terms:
     one-electron contribution =   -6594.68854307 Ry
     hartree contribution      =    3315.64800702 Ry
     xc contribution           =    -209.60211262 Ry
     ewald contribution        =    2898.90618068 Ry

     total magnetization       =     2.00 Bohr mag/cell
     absolute magnetization    =     2.90 Bohr mag/cell

     convergence has been achieved in  15 iterations

     Forces acting on atoms (cartesian axes, Ry/au):

     atom    1 type  1   force =     0.00055816    0.00000346    0.00000000
     atom    2 type  1   force =     0.00006993    0.00000343   -0.00000001
     atom    3 type  1   force =     0.00027564    0.00016725   -0.00000001
     atom    4 type  1   force =     0.00004345   -0.00000449   -0.00000000
     atom    5 type  1   force =     0.00007508    0.00015184    0.00000001
     atom    6 type  1   force =     0.00008461   -0.00025465   -0.00000000
     atom    7 type  1   force =    -0.00028711    0.00044421    0.00000000
     atom    8 type  1   force =     0.00010582    0.00016906   -0.00000000
     atom    9 type  1   force =     0.00030859   -0.00005735    0.00000000
     atom   10 type  1   force =    -0.00014213    0.00041071    0.00000000
     atom   11 type  1   force =     0.00027533   -0.00016020   -0.00000000
     atom   12 type  1   force =     0.00004276    0.00000474    0.00000000
     atom   13 type  1   force =     0.00002905    0.00000046   -0.00000000
     atom   14 type  1   force =     0.00010514   -0.00000115    0.00000000
     atom   15 type  1   force =     0.00002800    0.00033117    0.00000000
     atom   16 type  2   force =    -0.00004574   -0.00064587    0.00000000
     atom   17 type  1   force =    -0.00017389    0.00010256   -0.00000000
     atom   18 type  1   force =     0.00001446    0.00003606    0.00000001
     atom   19 type  1   force =    -0.00000337   -0.00012235   -0.00000000
     atom   20 type  1   force =     0.00021112    0.00021586    0.00000000
     atom   21 type  1   force =     0.00007203   -0.00015234    0.00000000
     atom   22 type  1   force =     0.00008036    0.00024880   -0.00000000
     atom   23 type  1   force =     0.00002413   -0.00033730   -0.00000001
     atom   24 type  2   force =    -0.00005136    0.00063987    0.00000000
     atom   25 type  2   force =    -0.00017417    0.00000371    0.00000000
     atom   26 type  1   force =     0.00008830    0.00028690   -0.00000001
     atom   27 type  1   force =    -0.00007813    0.00006700    0.00000000
     atom   28 type  1   force =    -0.00019056   -0.00018795   -0.00000000
     atom   29 type  1   force =    -0.00028746    0.00025284    0.00000000
     atom   30 type  1   force =    -0.00029087   -0.00045001    0.00000000
     atom   31 type  1   force =     0.00010172   -0.00017254   -0.00000000
     atom   32 type  1   force =    -0.00017919   -0.00010422    0.00000000
     atom   33 type  1   force =     0.00000966   -0.00003138   -0.00000000
     atom   34 type  1   force =     0.00008401   -0.00028141    0.00000000
     atom   35 type  1   force =    -0.00008085   -0.00006356   -0.00000000
     atom   36 type  1   force =     0.00006136    0.00000059   -0.00000000
     atom   37 type  1   force =    -0.00023309   -0.00000221    0.00000000
     atom   38 type  1   force =     0.00003972   -0.00032660   -0.00000000
     atom   39 type  1   force =    -0.00014136   -0.00004064    0.00000000
     atom   40 type  1   force =     0.00030633    0.00005588   -0.00000000
     atom   41 type  1   force =    -0.00014490   -0.00040576   -0.00000000
     atom   42 type  1   force =    -0.00000548    0.00012740    0.00000000
     atom   43 type  1   force =     0.00020856   -0.00021061    0.00000000
     atom   44 type  1   force =    -0.00019120    0.00019187    0.00000000
     atom   45 type  1   force =    -0.00028662   -0.00025480    0.00000000
     atom   46 type  1   force =     0.00004186    0.00032316    0.00000000
     atom   47 type  1   force =    -0.00014034    0.00003364    0.00000000
     atom   48 type  1   force =    -0.00045498   -0.00000349    0.00000000
     atom   49 type  1   force =     0.00023761   -0.00000158   -0.00000000

     Total force =     0.002133     Total SCF correction =     0.000000
     Energy error            =      6.1E-06 Ry
     Gradient error          =      6.5E-04 Ry/Bohr

     number of scf cycles    =  16
     number of bfgs steps    =  15

     energy             old  =    -589.7348210688 Ry
     energy             new  =    -589.7348272019 Ry

     CASE: energy            _new < energy            _old

     new trust radius        =       0.0011472021 bohr
     new conv_thr            =            1.0E-12 Ry


ATOMIC_POSITIONS (crystal)
C                0.0654822943        0.0654802587        0.0000000005
C                0.1321921823        0.1321900597       -0.0000000009
C                0.0647974675        0.2661874793       -0.0000000016
C                0.1312958427        0.3324437494       -0.0000000029
C                0.0672011880        0.4656797398       -0.0000000032
C                0.1342638063        0.5318323724       -0.0000000023
C                0.0691596145        0.6647598894       -0.0000000010
C                0.1390809060        0.7276323252        0.0000000003
C                0.0690575547        0.8635816190        0.0000000012
C                0.1337358269        0.9316423929        0.0000000012
C                0.2661893137        0.0647954929       -0.0000000004
C                0.3324442708        0.1312954812       -0.0000000005
C                0.2645097565        0.2645096161       -0.0000000015
C                0.3298577275        0.3298589277       -0.0000000006
C                0.2681420624        0.4626798936       -0.0000000007
C1               0.3408537921        0.5198239883       -0.0000000001
C                0.2769604428        0.6555764403        0.0000000003
C                0.3361678951        0.7306714522        0.0000000012
C                0.2678405554        0.8637263266        0.0000000014
C                0.3338365972        0.9318576939        0.0000000008
C                0.4656797905        0.0672022913        0.0000000003
C                0.5318312435        0.1342667571        0.0000000002
C                0.4626787485        0.2681454917       -0.0000000010
C1               0.5198228947        0.3408578805       -0.0000000007
C1               0.5401769883        0.5401735682        0.0000000030
C                0.4696154003        0.6683518106        0.0000000013
C                0.5355926982        0.7355608488        0.0000000018
C                0.4673072700        0.8678683941        0.0000000015
C                0.5337745422        0.9343747507        0.0000000016
C                0.6647586071        0.0691624240        0.0000000007
C                0.7276317963        0.1390830848        0.0000000007
C                0.6555765569        0.2769624402       -0.0000000003
C                0.7306742309        0.3361670194        0.0000000002
C                0.6683551073        0.4696140921        0.0000000010
C                0.7355628985        0.5355919300        0.0000000000
C                0.6685882937        0.6685876664        0.0000000015
C                0.7349850117        0.7349860071        0.0000000005
C                0.6673530479        0.8681990709        0.0000000018
C                0.7334773422        0.9349426644        0.0000000009
C                0.8635815357        0.0690585006        0.0000000013
C                0.9316443514        0.1337346123        0.0000000006
C                0.8637289989        0.2678391188       -0.0000000008
C                0.9318599623        0.3338352234       -0.0000000023
C                0.8678699955        0.4673062401       -0.0000000021
C                0.9343742162        0.5337749714       -0.0000000029
C                0.8681977035        0.6673539817       -0.0000000009
C                0.9349401337        0.7334792343       -0.0000000009
C                0.8671015310        0.8671035989        0.0000000007
C                0.9335233398        0.9335244604        0.0000000011



     Writing config-only to output data dir /home/gregb26/links/scratch/qe_tmp/vacancy_relaxed/series/5x5/nspin2/vac_5x5_relax_nspin2.save/ :
     XML data file
     NEW-OLD atomic charge density approx. for the potential

     negative rho (up, down):  4.780E-08 5.242E-08
     Generating pointlists ...

     total cpu time spent up to now is      340.6 secs

     per-process dynamical memory:   167.8 Mb

     Self-consistent Calculation

     iteration #  1     ecut=   100.00 Ry     beta= 0.30
     Davidson diagonalization with overlap
     ethr =  1.00E-06,  avg # of iterations =  2.0
     Minimization algorithm failed to find Fermi energy: reverting to bisection
     Possible cause: smearing is larger than the electronic band-gap.

     Threshold (ethr) on eigenvalues was too large:
     Diagonalizing with lowered threshold

     Davidson diagonalization with overlap
     ethr =  4.08E-10,  avg # of iterations =  6.0
     Minimization algorithm failed to find Fermi energy: reverting to bisection
     Possible cause: smearing is larger than the electronic band-gap.

     negative rho (up, down):  4.129E-08 4.000E-08

     total cpu time spent up to now is      343.4 secs

     total energy              =    -589.73483017 Ry
     estimated scf accuracy    <       0.00000172 Ry

     total magnetization       =     2.00 Bohr mag/cell
     absolute magnetization    =     2.90 Bohr mag/cell

     iteration #  2     ecut=   100.00 Ry     beta= 0.30
     Davidson diagonalization with overlap
     ethr =  8.78E-10,  avg # of iterations =  1.5
     Minimization algorithm failed to find Fermi energy: reverting to bisection
     Possible cause: smearing is larger than the electronic band-gap.

     negative rho (up, down):  2.502E-08 2.461E-08

     total cpu time spent up to now is      344.2 secs

     total energy              =    -589.73483018 Ry
     estimated scf accuracy    <       0.00000063 Ry

     total magnetization       =     2.00 Bohr mag/cell
     absolute magnetization    =     2.90 Bohr mag/cell

     iteration #  3     ecut=   100.00 Ry     beta= 0.30
     Davidson diagonalization with overlap
     ethr =  3.22E-10,  avg # of iterations =  1.5
     Minimization algorithm failed to find Fermi energy: reverting to bisection
     Possible cause: smearing is larger than the electronic band-gap.

     negative rho (up, down):  1.422E-08 1.423E-08

     total cpu time spent up to now is      345.1 secs

     total energy              =    -589.73483017 Ry
     estimated scf accuracy    <       0.00000088 Ry

     total magnetization       =     2.00 Bohr mag/cell
     absolute magnetization    =     2.90 Bohr mag/cell

     iteration #  4     ecut=   100.00 Ry     beta= 0.30
     Davidson diagonalization with overlap
     ethr =  3.22E-10,  avg # of iterations =  1.5
     Minimization algorithm failed to find Fermi energy: reverting to bisection
     Possible cause: smearing is larger than the electronic band-gap.

     total cpu time spent up to now is      345.9 secs

     total energy              =    -589.73483025 Ry
     estimated scf accuracy    <       0.00000010 Ry

     total magnetization       =     2.00 Bohr mag/cell
     absolute magnetization    =     2.90 Bohr mag/cell

     iteration #  5     ecut=   100.00 Ry     beta= 0.30
     Davidson diagonalization with overlap
     ethr =  4.89E-11,  avg # of iterations =  2.0
     Minimization algorithm failed to find Fermi energy: reverting to bisection
     Possible cause: smearing is larger than the electronic band-gap.

     total cpu time spent up to now is      346.8 secs

     total energy              =    -589.73483026 Ry
     estimated scf accuracy    <       0.00000002 Ry

     total magnetization       =     2.00 Bohr mag/cell
     absolute magnetization    =     2.90 Bohr mag/cell

     iteration #  6     ecut=   100.00 Ry     beta= 0.30
     Davidson diagonalization with overlap
     ethr =  7.75E-12,  avg # of iterations =  3.0
     Minimization algorithm failed to find Fermi energy: reverting to bisection
     Possible cause: smearing is larger than the electronic band-gap.

     total cpu time spent up to now is      347.8 secs

     total energy              =    -589.73483027 Ry
     estimated scf accuracy    <          2.8E-09 Ry

     total magnetization       =     2.00 Bohr mag/cell
     absolute magnetization    =     2.90 Bohr mag/cell

     iteration #  7     ecut=   100.00 Ry     beta= 0.30
     Davidson diagonalization with overlap
     ethr =  1.45E-12,  avg # of iterations =  3.0
     Minimization algorithm failed to find Fermi energy: reverting to bisection
     Possible cause: smearing is larger than the electronic band-gap.

     total cpu time spent up to now is      348.8 secs

     total energy              =    -589.73483027 Ry
     estimated scf accuracy    <          9.4E-10 Ry

     total magnetization       =     2.00 Bohr mag/cell
     absolute magnetization    =     2.90 Bohr mag/cell

     iteration #  8     ecut=   100.00 Ry     beta= 0.30
     Davidson diagonalization with overlap
     ethr =  4.80E-13,  avg # of iterations =  3.5
     Minimization algorithm failed to find Fermi energy: reverting to bisection
     Possible cause: smearing is larger than the electronic band-gap.

     total cpu time spent up to now is      349.8 secs

     total energy              =    -589.73483027 Ry
     estimated scf accuracy    <          2.1E-10 Ry

     total magnetization       =     2.00 Bohr mag/cell
     absolute magnetization    =     2.90 Bohr mag/cell

     iteration #  9     ecut=   100.00 Ry     beta= 0.30
     Davidson diagonalization with overlap
     ethr =  1.07E-13,  avg # of iterations =  4.0
     Minimization algorithm failed to find Fermi energy: reverting to bisection
     Possible cause: smearing is larger than the electronic band-gap.

     total cpu time spent up to now is      350.8 secs

     total energy              =    -589.73483027 Ry
     estimated scf accuracy    <          7.7E-11 Ry

     total magnetization       =     2.00 Bohr mag/cell
     absolute magnetization    =     2.90 Bohr mag/cell

     iteration # 10     ecut=   100.00 Ry     beta= 0.30
     Davidson diagonalization with overlap
     ethr =  1.00E-13,  avg # of iterations =  2.0
     Minimization algorithm failed to find Fermi energy: reverting to bisection
     Possible cause: smearing is larger than the electronic band-gap.

     total cpu time spent up to now is      351.7 secs

     total energy              =    -589.73483027 Ry
     estimated scf accuracy    <          3.6E-11 Ry

     total magnetization       =     2.00 Bohr mag/cell
     absolute magnetization    =     2.90 Bohr mag/cell

     iteration # 11     ecut=   100.00 Ry     beta= 0.30
     Davidson diagonalization with overlap
     ethr =  1.00E-13,  avg # of iterations =  2.0
     Minimization algorithm failed to find Fermi energy: reverting to bisection
     Possible cause: smearing is larger than the electronic band-gap.

     total cpu time spent up to now is      352.5 secs

     total energy              =    -589.73483027 Ry
     estimated scf accuracy    <          9.2E-12 Ry

     total magnetization       =     2.00 Bohr mag/cell
     absolute magnetization    =     2.90 Bohr mag/cell

     iteration # 12     ecut=   100.00 Ry     beta= 0.30
     Davidson diagonalization with overlap
     ethr =  1.00E-13,  avg # of iterations =  1.5
     Minimization algorithm failed to find Fermi energy: reverting to bisection
     Possible cause: smearing is larger than the electronic band-gap.

     total cpu time spent up to now is      353.3 secs

     total energy              =    -589.73483027 Ry
     estimated scf accuracy    <          3.3E-12 Ry

     total magnetization       =     2.00 Bohr mag/cell
     absolute magnetization    =     2.90 Bohr mag/cell

     iteration # 13     ecut=   100.00 Ry     beta= 0.30
     Davidson diagonalization with overlap
     ethr =  1.00E-13,  avg # of iterations =  1.0
     Minimization algorithm failed to find Fermi energy: reverting to bisection
     Possible cause: smearing is larger than the electronic band-gap.

     Magnetic moment per site  (integrated on atomic sphere of radius R)
     atom   1 (R=0.045)  charge=  1.5180  magn= -0.0110
     atom   2 (R=0.045)  charge=  1.5168  magn=  0.0662
     atom   3 (R=0.045)  charge=  1.5251  magn= -0.0109
     atom   4 (R=0.045)  charge=  1.5272  magn=  0.0186
     atom   5 (R=0.045)  charge=  1.5258  magn= -0.0054
     atom   6 (R=0.045)  charge=  1.5212  magn=  0.0067
     atom   7 (R=0.045)  charge=  1.5229  magn= -0.0045
     atom   8 (R=0.045)  charge=  1.4912  magn=  0.0044
     atom   9 (R=0.045)  charge=  1.5030  magn= -0.0079
     atom  10 (R=0.045)  charge=  1.5195  magn=  0.0187
     atom  11 (R=0.045)  charge=  1.5251  magn= -0.0109
     atom  12 (R=0.045)  charge=  1.5272  magn=  0.0186
     atom  13 (R=0.045)  charge=  1.5378  magn= -0.0097
     atom  14 (R=0.045)  charge=  1.5430  magn=  0.0443
     atom  15 (R=0.045)  charge=  1.5361  magn= -0.0046
     atom  16 (R=0.045)  charge=  1.4100  magn=  0.0695
     atom  17 (R=0.045)  charge=  1.4771  magn= -0.0128
     atom  18 (R=0.045)  charge=  1.5160  magn=  0.0535
     atom  19 (R=0.045)  charge=  1.5162  magn= -0.0110
     atom  20 (R=0.045)  charge=  1.5201  magn=  0.0168
     atom  21 (R=0.045)  charge=  1.5258  magn= -0.0054
     atom  22 (R=0.045)  charge=  1.5212  magn=  0.0067
     atom  23 (R=0.045)  charge=  1.5361  magn= -0.0046
     atom  24 (R=0.045)  charge=  1.4100  magn=  0.0695
     atom  25 (R=0.045)  charge=  1.4929  magn=  0.3460
     atom  26 (R=0.045)  charge=  1.5429  magn= -0.0096
     atom  27 (R=0.045)  charge=  1.5308  magn=  0.0249
     atom  28 (R=0.045)  charge=  1.5290  magn= -0.0035
     atom  29 (R=0.045)  charge=  1.5256  magn=  0.0122
     atom  30 (R=0.045)  charge=  1.5229  magn= -0.0045
     atom  31 (R=0.045)  charge=  1.4912  magn=  0.0044
     atom  32 (R=0.045)  charge=  1.4771  magn= -0.0128
     atom  33 (R=0.045)  charge=  1.5160  magn=  0.0535
     atom  34 (R=0.045)  charge=  1.5430  magn= -0.0096
     atom  35 (R=0.045)  charge=  1.5308  magn=  0.0249
     atom  36 (R=0.045)  charge=  1.5301  magn= -0.0102
     atom  37 (R=0.045)  charge=  1.5270  magn=  0.0052
     atom  38 (R=0.045)  charge=  1.5255  magn= -0.0063
     atom  39 (R=0.045)  charge=  1.5194  magn=  0.0056
     atom  40 (R=0.045)  charge=  1.5030  magn= -0.0079
     atom  41 (R=0.045)  charge=  1.5195  magn=  0.0187
     atom  42 (R=0.045)  charge=  1.5162  magn= -0.0110
     atom  43 (R=0.045)  charge=  1.5201  magn=  0.0168
     atom  44 (R=0.045)  charge=  1.5290  magn= -0.0035
     atom  45 (R=0.045)  charge=  1.5256  magn=  0.0122
     atom  46 (R=0.045)  charge=  1.5255  magn= -0.0063
     atom  47 (R=0.045)  charge=  1.5194  magn=  0.0056
     atom  48 (R=0.045)  charge=  1.5222  magn= -0.0060
     atom  49 (R=0.045)  charge=  1.5032  magn=  0.0138

     total cpu time spent up to now is      354.0 secs

     End of self-consistent calculation

 ------ SPIN UP ------------


          k = 0.0000 0.0000 0.0000 (119010 PWs)   bands (ev):

   -23.7898 -22.9861 -22.9386 -22.9065 -22.8563 -22.7943 -22.4351 -21.0935
   -21.0798 -21.0451 -21.0423 -20.9352 -20.6938 -20.2282 -20.1798 -20.1272
   -20.0798 -20.0343 -19.2988 -18.0214 -18.0115 -18.0026 -17.9201 -17.8911
   -17.5065 -17.0288 -16.9950 -16.9933 -16.8405 -16.7381 -16.2043 -15.6982
   -15.6883 -15.6458 -15.3950 -15.3538 -14.3702 -13.3364 -13.2855 -13.2731
   -13.2397 -13.2261 -13.2018 -13.1827 -13.1499 -13.1444 -12.6595 -12.6520
   -12.0004 -11.8794 -11.8004 -11.7780 -11.7207 -11.4293 -11.4058 -11.2060
   -10.8845 -10.8431 -10.8355 -10.7717 -10.7368 -10.6444 -10.5691 -10.5396
   -10.5364 -10.4981 -10.4372 -10.4348 -10.3831 -10.3827 -10.3737  -9.5272
    -9.4605  -8.9459  -8.8706  -8.8678  -8.7812  -8.7150  -8.7150  -8.7011
    -8.6723  -8.6013  -8.4131  -8.3712  -7.8703  -7.8087  -7.7877  -7.7687
    -7.6963  -7.6877  -7.6866  -7.0198  -5.8514  -5.8372  -5.7951  -5.7571
    -5.7517  -4.8784  -4.8629  -3.2626  -3.0650  -3.0214  -2.9809  -2.9222
    -2.8764  -2.2161  -1.2310  -1.1699  -1.1537  -1.0256  -0.9728  -0.9699
    -0.3567  -0.1257   0.2629   0.2727   0.2775   0.3118   0.3206   0.4375
     0.4996   0.5784   0.5789   0.6913   0.7605   1.1361   1.1471   1.1632
     1.1717   1.1757

 ------ SPIN DOWN ----------


          k = 0.0000 0.0000 0.0000 (119010 PWs)   bands (ev):

   -23.7557 -22.9260 -22.9195 -22.8752 -22.8336 -22.7647 -22.3304 -21.0540
   -21.0493 -21.0152 -20.9683 -20.9133 -20.6396 -20.1654 -20.1477 -20.0939
   -20.0101 -19.9957 -19.1970 -17.9958 -17.9823 -17.9768 -17.8916 -17.7933
   -17.3771 -16.9992 -16.9712 -16.9663 -16.7572 -16.7077 -16.1419 -15.6532
   -15.6511 -15.6149 -15.3147 -15.2957 -14.2386 -13.2939 -13.2440 -13.2438
   -13.2079 -13.1926 -13.1479 -13.1379 -13.1290 -13.1194 -12.6387 -12.5684
   -11.9456 -11.8250 -11.7664 -11.7414 -11.7002 -11.4039 -11.3551 -11.0810
   -10.8134 -10.8072 -10.7716 -10.7444 -10.6840 -10.5817 -10.5537 -10.5078
   -10.4960 -10.4644 -10.4243 -10.4167 -10.3512 -10.3373 -10.2260  -9.4883
    -9.3796  -8.9128  -8.8397  -8.8342  -8.7613  -8.6584  -8.6494  -8.6349
    -8.6020  -8.5635  -8.2733  -8.0358  -7.7631  -7.7473  -7.7285  -7.7044
    -7.6541  -7.6353  -7.5419  -6.8777  -5.7988  -5.7807  -5.7761  -5.6922
    -5.6197  -4.4353  -3.0334  -2.9948  -2.9634  -2.9570  -2.7797  -2.7559
    -2.7528  -2.1059  -1.1924  -1.1283  -1.0396  -0.9565  -0.8974  -0.8746
    -0.2403  -0.1045   0.2743   0.2786   0.2860   0.3257   0.3304   0.4956
     0.5357   0.6560   0.6567   0.7855   0.9699   1.1429   1.1512   1.1746
     1.1783   1.2099

     the Fermi energy is    -4.7448 ev

!    total energy              =    -589.73483027 Ry
     estimated scf accuracy    <          3.8E-13 Ry
     smearing contrib. (-TS)   =       0.00164062 Ry
     internal energy E=F+TS    =    -589.73647089 Ry

     The total energy is F=E-TS. E is the sum of the following terms:
     one-electron contribution =   -6594.66420849 Ry
     hartree contribution      =    3315.63560887 Ry
     xc contribution           =    -209.60092188 Ry
     ewald contribution        =    2898.89305062 Ry

     total magnetization       =     2.00 Bohr mag/cell
     absolute magnetization    =     2.90 Bohr mag/cell

     convergence has been achieved in  13 iterations

     Forces acting on atoms (cartesian axes, Ry/au):

     atom    1 type  1   force =     0.00003288    0.00000181   -0.00000000
     atom    2 type  1   force =     0.00006373    0.00000243    0.00000000
     atom    3 type  1   force =     0.00009576    0.00008756   -0.00000001
     atom    4 type  1   force =    -0.00002032    0.00001566    0.00000000
     atom    5 type  1   force =     0.00021585   -0.00002225   -0.00000000
     atom    6 type  1   force =    -0.00003917    0.00010968    0.00000001
     atom    7 type  1   force =     0.00010137    0.00008503   -0.00000000
     atom    8 type  1   force =    -0.00017760    0.00013309    0.00000000
     atom    9 type  1   force =     0.00002282    0.00004021   -0.00000000
     atom   10 type  1   force =     0.00014317    0.00013081   -0.00000000
     atom   11 type  1   force =     0.00009571   -0.00008366    0.00000000
     atom   12 type  1   force =    -0.00002125   -0.00001444   -0.00000000
     atom   13 type  1   force =     0.00039164   -0.00000012    0.00000000
     atom   14 type  1   force =    -0.00009918   -0.00000105   -0.00000001
     atom   15 type  1   force =    -0.00000832    0.00011344   -0.00000000
     atom   16 type  2   force =    -0.00006561   -0.00035690   -0.00000000
     atom   17 type  1   force =    -0.00026711    0.00014045   -0.00000000
     atom   18 type  1   force =     0.00005268    0.00006383    0.00000000
     atom   19 type  1   force =    -0.00005103    0.00006043    0.00000000
     atom   20 type  1   force =    -0.00017535   -0.00010450   -0.00000000
     atom   21 type  1   force =     0.00021267    0.00002098    0.00000000
     atom   22 type  1   force =    -0.00004284   -0.00011410   -0.00000000
     atom   23 type  1   force =    -0.00001179   -0.00011792    0.00000001
     atom   24 type  2   force =    -0.00006996    0.00035156   -0.00000001
     atom   25 type  2   force =     0.00018055    0.00000306    0.00000000
     atom   26 type  1   force =     0.00015688   -0.00001864    0.00000001
     atom   27 type  1   force =     0.00000062   -0.00006049   -0.00000000
     atom   28 type  1   force =     0.00008818   -0.00007094    0.00000000
     atom   29 type  1   force =    -0.00017429    0.00003182   -0.00000000
     atom   30 type  1   force =     0.00009839   -0.00008982    0.00000000
     atom   31 type  1   force =    -0.00018056   -0.00013575   -0.00000000
     atom   32 type  1   force =    -0.00027099   -0.00014197    0.00000000
     atom   33 type  1   force =     0.00004877   -0.00005970   -0.00000000
     atom   34 type  1   force =     0.00015338    0.00002300    0.00000000
     atom   35 type  1   force =    -0.00000213    0.00006342    0.00000000
     atom   36 type  1   force =    -0.00003841    0.00000071   -0.00000001
     atom   37 type  1   force =    -0.00038284   -0.00000094    0.00000000
     atom   38 type  1   force =    -0.00001250   -0.00000193   -0.00000001
     atom   39 type  1   force =    -0.00004314   -0.00000645    0.00000000
     atom   40 type  1   force =     0.00002126   -0.00004091   -0.00000000
     atom   41 type  1   force =     0.00014214   -0.00012778   -0.00000000
     atom   42 type  1   force =    -0.00005359   -0.00005612   -0.00000000
     atom   43 type  1   force =    -0.00017696    0.00010874    0.00000000
     atom   44 type  1   force =     0.00008697    0.00007404   -0.00000000
     atom   45 type  1   force =    -0.00017410   -0.00003306    0.00000000
     atom   46 type  1   force =    -0.00001189   -0.00000062   -0.00000000
     atom   47 type  1   force =    -0.00004201    0.00000139    0.00000000
     atom   48 type  1   force =     0.00024352   -0.00000220   -0.00000000
     atom   49 type  1   force =    -0.00003600   -0.00000086    0.00000000

     Total force =     0.001229     Total SCF correction =     0.000001
     Energy error            =      3.1E-06 Ry
     Gradient error          =      3.9E-04 Ry/Bohr

     number of scf cycles    =  17
     number of bfgs steps    =  16

     energy             old  =    -589.7348272019 Ry
     energy             new  =    -589.7348302690 Ry

     CASE: energy            _new < energy            _old

     new trust radius        =       0.0015343434 bohr
     new conv_thr            =            1.0E-12 Ry


ATOMIC_POSITIONS (crystal)
C                0.0654887942        0.0654872304        0.0000000004
C                0.1321984762        0.1321968706       -0.0000000010
C                0.0647987052        0.2661967782       -0.0000000019
C                0.1312943797        0.3324496450       -0.0000000028
C                0.0672059354        0.4656836810       -0.0000000033
C                0.1342633899        0.5318345042       -0.0000000022
C                0.0691587928        0.6647634269       -0.0000000010
C                0.1390882582        0.7276203421        0.0000000003
C                0.0690640092        0.8635806962        0.0000000012
C                0.1337351165        0.9316525277        0.0000000011
C                0.2661981820        0.0647971694       -0.0000000005
C                0.3324500309        0.1312940955       -0.0000000005
C                0.2645143778        0.2645142521       -0.0000000013
C                0.3298522966        0.3298532735       -0.0000000007
C                0.2681393243        0.4626755502       -0.0000000007
C1               0.3409178857        0.5197565036       -0.0000000002
C                0.2769747147        0.6555455691        0.0000000003
C                0.3361728716        0.7306658277        0.0000000014
C                0.2678383765        0.8637262356        0.0000000015
C                0.3338372677        0.9318520907        0.0000000008
C                0.4656837100        0.0672067826        0.0000000004
C                0.5318336023        0.1342657348        0.0000000002
C                0.4626746470        0.2681420895       -0.0000000009
C1               0.5197556207        0.3409212056       -0.0000000009
C1               0.5401831107        0.5401803289        0.0000000032
C                0.4696204234        0.6683574322        0.0000000016
C                0.5355953857        0.7355595131        0.0000000017
C                0.4673080724        0.8678678609        0.0000000015
C                0.5337686627        0.9343705814        0.0000000016
C                0.6647624232        0.0691609808        0.0000000008
C                0.7276199032        0.1390899846        0.0000000005
C                0.6555456368        0.2769763205       -0.0000000003
C                0.7306680248        0.3361721692        0.0000000001
C                0.6683601158        0.4696193499        0.0000000010
C                0.7355611732        0.5355947561        0.0000000000
C                0.6685866981        0.6685861694        0.0000000013
C                0.7349762634        0.7349770074        0.0000000006
C                0.6673508193        0.8681951634        0.0000000016
C                0.7334742361        0.9349392073        0.0000000010
C                0.8635806020        0.0690647533        0.0000000013
C                0.9316540371        0.1337341738        0.0000000004
C                0.8637283481        0.2678372396       -0.0000000009
C                0.9318538606        0.3338362171       -0.0000000021
C                0.8678691454        0.4673072709       -0.0000000021
C                0.9343701932        0.5337689962       -0.0000000027
C                0.8681941306        0.6673515327       -0.0000000009
C                0.9349372496        0.7334757009       -0.0000000008
C                0.8671039484        0.8671055519        0.0000000006
C                0.9335221046        0.9335229897        0.0000000011



     Writing config-only to output data dir /home/gregb26/links/scratch/qe_tmp/vacancy_relaxed/series/5x5/nspin2/vac_5x5_relax_nspin2.save/ :
     XML data file
     NEW-OLD atomic charge density approx. for the potential

     negative rho (up, down):  2.663E-08 3.061E-08
     Generating pointlists ...

     total cpu time spent up to now is      354.7 secs

     per-process dynamical memory:   167.8 Mb

     Self-consistent Calculation

     iteration #  1     ecut=   100.00 Ry     beta= 0.30
     Davidson diagonalization with overlap
     ethr =  1.00E-06,  avg # of iterations =  2.0
     Minimization algorithm failed to find Fermi energy: reverting to bisection
     Possible cause: smearing is larger than the electronic band-gap.

     Threshold (ethr) on eigenvalues was too large:
     Diagonalizing with lowered threshold

     Davidson diagonalization with overlap
     ethr =  3.62E-10,  avg # of iterations =  5.5
     Minimization algorithm failed to find Fermi energy: reverting to bisection
     Possible cause: smearing is larger than the electronic band-gap.

     negative rho (up, down):  3.148E-08 3.132E-08

     total cpu time spent up to now is      357.1 secs

     total energy              =    -589.73483108 Ry
     estimated scf accuracy    <       0.00000144 Ry

     total magnetization       =     2.00 Bohr mag/cell
     absolute magnetization    =     2.90 Bohr mag/cell

     iteration #  2     ecut=   100.00 Ry     beta= 0.30
     Davidson diagonalization with overlap
     ethr =  7.33E-10,  avg # of iterations =  2.0
     Minimization algorithm failed to find Fermi energy: reverting to bisection
     Possible cause: smearing is larger than the electronic band-gap.

     negative rho (up, down):  2.591E-08 2.596E-08

     total cpu time spent up to now is      358.0 secs

     total energy              =    -589.73483111 Ry
     estimated scf accuracy    <       0.00000160 Ry

     total magnetization       =     2.00 Bohr mag/cell
     absolute magnetization    =     2.90 Bohr mag/cell

     iteration #  3     ecut=   100.00 Ry     beta= 0.30
     Davidson diagonalization with overlap
     ethr =  7.33E-10,  avg # of iterations =  1.5
     Minimization algorithm failed to find Fermi energy: reverting to bisection
     Possible cause: smearing is larger than the electronic band-gap.

     negative rho (up, down):  1.591E-08 1.622E-08

     total cpu time spent up to now is      358.9 secs

     total energy              =    -589.73483131 Ry
     estimated scf accuracy    <       0.00000045 Ry

     total magnetization       =     2.00 Bohr mag/cell
     absolute magnetization    =     2.90 Bohr mag/cell

     iteration #  4     ecut=   100.00 Ry     beta= 0.30
     Davidson diagonalization with overlap
     ethr =  2.28E-10,  avg # of iterations =  1.0
     Minimization algorithm failed to find Fermi energy: reverting to bisection
     Possible cause: smearing is larger than the electronic band-gap.

     total cpu time spent up to now is      359.7 secs

     total energy              =    -589.73483134 Ry
     estimated scf accuracy    <       0.00000006 Ry

     total magnetization       =     2.00 Bohr mag/cell
     absolute magnetization    =     2.90 Bohr mag/cell

     iteration #  5     ecut=   100.00 Ry     beta= 0.30
     Davidson diagonalization with overlap
     ethr =  3.16E-11,  avg # of iterations =  2.0
     Minimization algorithm failed to find Fermi energy: reverting to bisection
     Possible cause: smearing is larger than the electronic band-gap.

     total cpu time spent up to now is      360.6 secs

     total energy              =    -589.73483135 Ry
     estimated scf accuracy    <       0.00000002 Ry

     total magnetization       =     2.00 Bohr mag/cell
     absolute magnetization    =     2.90 Bohr mag/cell

     iteration #  6     ecut=   100.00 Ry     beta= 0.30
     Davidson diagonalization with overlap
     ethr =  8.03E-12,  avg # of iterations =  2.5
     Minimization algorithm failed to find Fermi energy: reverting to bisection
     Possible cause: smearing is larger than the electronic band-gap.

     total cpu time spent up to now is      361.5 secs

     total energy              =    -589.73483136 Ry
     estimated scf accuracy    <          4.5E-09 Ry

     total magnetization       =     2.00 Bohr mag/cell
     absolute magnetization    =     2.90 Bohr mag/cell

     iteration #  7     ecut=   100.00 Ry     beta= 0.30
     Davidson diagonalization with overlap
     ethr =  2.32E-12,  avg # of iterations =  2.0
     Minimization algorithm failed to find Fermi energy: reverting to bisection
     Possible cause: smearing is larger than the electronic band-gap.

     total cpu time spent up to now is      362.6 secs

     total energy              =    -589.73483136 Ry
     estimated scf accuracy    <          2.3E-09 Ry

     total magnetization       =     2.00 Bohr mag/cell
     absolute magnetization    =     2.90 Bohr mag/cell

     iteration #  8     ecut=   100.00 Ry     beta= 0.30
     Davidson diagonalization with overlap
     ethr =  1.17E-12,  avg # of iterations =  3.0
     Minimization algorithm failed to find Fermi energy: reverting to bisection
     Possible cause: smearing is larger than the electronic band-gap.

     total cpu time spent up to now is      363.5 secs

     total energy              =    -589.73483136 Ry
     estimated scf accuracy    <          1.0E-09 Ry

     total magnetization       =     2.00 Bohr mag/cell
     absolute magnetization    =     2.90 Bohr mag/cell

     iteration #  9     ecut=   100.00 Ry     beta= 0.30
     Davidson diagonalization with overlap
     ethr =  5.34E-13,  avg # of iterations =  3.0
     Minimization algorithm failed to find Fermi energy: reverting to bisection
     Possible cause: smearing is larger than the electronic band-gap.

     total cpu time spent up to now is      364.7 secs

     total energy              =    -589.73483136 Ry
     estimated scf accuracy    <          2.5E-10 Ry

     total magnetization       =     2.00 Bohr mag/cell
     absolute magnetization    =     2.89 Bohr mag/cell

     iteration # 10     ecut=   100.00 Ry     beta= 0.30
     Davidson diagonalization with overlap
     ethr =  1.26E-13,  avg # of iterations =  4.0
     Minimization algorithm failed to find Fermi energy: reverting to bisection
     Possible cause: smearing is larger than the electronic band-gap.

     total cpu time spent up to now is      365.9 secs

     total energy              =    -589.73483136 Ry
     estimated scf accuracy    <          7.2E-11 Ry

     total magnetization       =     2.00 Bohr mag/cell
     absolute magnetization    =     2.89 Bohr mag/cell

     iteration # 11     ecut=   100.00 Ry     beta= 0.30
     Davidson diagonalization with overlap
     ethr =  1.00E-13,  avg # of iterations =  2.0
     Minimization algorithm failed to find Fermi energy: reverting to bisection
     Possible cause: smearing is larger than the electronic band-gap.

     total cpu time spent up to now is      367.1 secs

     total energy              =    -589.73483136 Ry
     estimated scf accuracy    <          2.4E-11 Ry

     total magnetization       =     2.00 Bohr mag/cell
     absolute magnetization    =     2.89 Bohr mag/cell

     iteration # 12     ecut=   100.00 Ry     beta= 0.30
     Davidson diagonalization with overlap
     ethr =  1.00E-13,  avg # of iterations =  2.0
     Minimization algorithm failed to find Fermi energy: reverting to bisection
     Possible cause: smearing is larger than the electronic band-gap.

     total cpu time spent up to now is      368.0 secs

     total energy              =    -589.73483136 Ry
     estimated scf accuracy    <          6.8E-12 Ry

     total magnetization       =     2.00 Bohr mag/cell
     absolute magnetization    =     2.89 Bohr mag/cell

     iteration # 13     ecut=   100.00 Ry     beta= 0.30
     Davidson diagonalization with overlap
     ethr =  1.00E-13,  avg # of iterations =  1.5
     Minimization algorithm failed to find Fermi energy: reverting to bisection
     Possible cause: smearing is larger than the electronic band-gap.

     total cpu time spent up to now is      368.8 secs

     total energy              =    -589.73483136 Ry
     estimated scf accuracy    <          3.6E-12 Ry

     total magnetization       =     2.00 Bohr mag/cell
     absolute magnetization    =     2.89 Bohr mag/cell

     iteration # 14     ecut=   100.00 Ry     beta= 0.30
     Davidson diagonalization with overlap
     ethr =  1.00E-13,  avg # of iterations =  1.0
     Minimization algorithm failed to find Fermi energy: reverting to bisection
     Possible cause: smearing is larger than the electronic band-gap.

     total cpu time spent up to now is      369.6 secs

     total energy              =    -589.73483136 Ry
     estimated scf accuracy    <          2.1E-12 Ry

     total magnetization       =     2.00 Bohr mag/cell
     absolute magnetization    =     2.89 Bohr mag/cell

     iteration # 15     ecut=   100.00 Ry     beta= 0.30
     Davidson diagonalization with overlap
     ethr =  1.00E-13,  avg # of iterations =  1.0
     Minimization algorithm failed to find Fermi energy: reverting to bisection
     Possible cause: smearing is larger than the electronic band-gap.

     Magnetic moment per site  (integrated on atomic sphere of radius R)
     atom   1 (R=0.045)  charge=  1.5181  magn= -0.0110
     atom   2 (R=0.045)  charge=  1.5168  magn=  0.0661
     atom   3 (R=0.045)  charge=  1.5251  magn= -0.0109
     atom   4 (R=0.045)  charge=  1.5272  magn=  0.0186
     atom   5 (R=0.045)  charge=  1.5258  magn= -0.0053
     atom   6 (R=0.045)  charge=  1.5213  magn=  0.0067
     atom   7 (R=0.045)  charge=  1.5229  magn= -0.0045
     atom   8 (R=0.045)  charge=  1.4912  magn=  0.0044
     atom   9 (R=0.045)  charge=  1.5029  magn= -0.0079
     atom  10 (R=0.045)  charge=  1.5195  magn=  0.0186
     atom  11 (R=0.045)  charge=  1.5251  magn= -0.0109
     atom  12 (R=0.045)  charge=  1.5272  magn=  0.0186
     atom  13 (R=0.045)  charge=  1.5379  magn= -0.0097
     atom  14 (R=0.045)  charge=  1.5431  magn=  0.0441
     atom  15 (R=0.045)  charge=  1.5361  magn= -0.0045
     atom  16 (R=0.045)  charge=  1.4099  magn=  0.0695
     atom  17 (R=0.045)  charge=  1.4769  magn= -0.0128
     atom  18 (R=0.045)  charge=  1.5159  magn=  0.0534
     atom  19 (R=0.045)  charge=  1.5162  magn= -0.0110
     atom  20 (R=0.045)  charge=  1.5201  magn=  0.0168
     atom  21 (R=0.045)  charge=  1.5258  magn= -0.0053
     atom  22 (R=0.045)  charge=  1.5213  magn=  0.0067
     atom  23 (R=0.045)  charge=  1.5361  magn= -0.0045
     atom  24 (R=0.045)  charge=  1.4099  magn=  0.0694
     atom  25 (R=0.045)  charge=  1.4930  magn=  0.3464
     atom  26 (R=0.045)  charge=  1.5430  magn= -0.0096
     atom  27 (R=0.045)  charge=  1.5309  magn=  0.0249
     atom  28 (R=0.045)  charge=  1.5290  magn= -0.0034
     atom  29 (R=0.045)  charge=  1.5255  magn=  0.0121
     atom  30 (R=0.045)  charge=  1.5229  magn= -0.0045
     atom  31 (R=0.045)  charge=  1.4912  magn=  0.0044
     atom  32 (R=0.045)  charge=  1.4769  magn= -0.0128
     atom  33 (R=0.045)  charge=  1.5159  magn=  0.0534
     atom  34 (R=0.045)  charge=  1.5430  magn= -0.0096
     atom  35 (R=0.045)  charge=  1.5309  magn=  0.0249
     atom  36 (R=0.045)  charge=  1.5302  magn= -0.0102
     atom  37 (R=0.045)  charge=  1.5270  magn=  0.0052
     atom  38 (R=0.045)  charge=  1.5255  magn= -0.0063
     atom  39 (R=0.045)  charge=  1.5194  magn=  0.0056
     atom  40 (R=0.045)  charge=  1.5029  magn= -0.0079
     atom  41 (R=0.045)  charge=  1.5195  magn=  0.0186
     atom  42 (R=0.045)  charge=  1.5162  magn= -0.0110
     atom  43 (R=0.045)  charge=  1.5201  magn=  0.0168
     atom  44 (R=0.045)  charge=  1.5290  magn= -0.0034
     atom  45 (R=0.045)  charge=  1.5256  magn=  0.0121
     atom  46 (R=0.045)  charge=  1.5255  magn= -0.0063
     atom  47 (R=0.045)  charge=  1.5194  magn=  0.0056
     atom  48 (R=0.045)  charge=  1.5222  magn= -0.0060
     atom  49 (R=0.045)  charge=  1.5032  magn=  0.0138

     total cpu time spent up to now is      370.3 secs

     End of self-consistent calculation

 ------ SPIN UP ------------


          k = 0.0000 0.0000 0.0000 (119010 PWs)   bands (ev):

   -23.7897 -22.9863 -22.9386 -22.9065 -22.8560 -22.7935 -22.4347 -21.0933
   -21.0794 -21.0452 -21.0422 -20.9343 -20.6935 -20.2282 -20.1796 -20.1269
   -20.0794 -20.0336 -19.2989 -18.0211 -18.0119 -18.0024 -17.9194 -17.8905
   -17.5062 -17.0287 -16.9944 -16.9928 -16.8408 -16.7377 -16.2043 -15.6980
   -15.6880 -15.6453 -15.3952 -15.3534 -14.3707 -13.3364 -13.2853 -13.2726
   -13.2392 -13.2254 -13.2014 -13.1820 -13.1499 -13.1443 -12.6590 -12.6519
   -12.0002 -11.8793 -11.7997 -11.7778 -11.7203 -11.4288 -11.4061 -11.2067
   -10.8846 -10.8430 -10.8355 -10.7715 -10.7361 -10.6440 -10.5688 -10.5388
   -10.5362 -10.4972 -10.4367 -10.4344 -10.3829 -10.3818 -10.3733  -9.5270
    -9.4605  -8.9455  -8.8700  -8.8680  -8.7807  -8.7151  -8.7148  -8.7010
    -8.6721  -8.6006  -8.4169  -8.3710  -7.8704  -7.8085  -7.7874  -7.7683
    -7.6959  -7.6870  -7.6868  -7.0200  -5.8511  -5.8375  -5.7950  -5.7566
    -5.7511  -4.8797  -4.8631  -3.2576  -3.0653  -3.0215  -2.9805  -2.9219
    -2.8760  -2.2164  -1.2309  -1.1698  -1.1538  -1.0259  -0.9728  -0.9696
    -0.3573  -0.1257   0.2629   0.2727   0.2775   0.3118   0.3207   0.4374
     0.4992   0.5786   0.5793   0.6913   0.7605   1.1361   1.1471   1.1629
     1.1718   1.1756

 ------ SPIN DOWN ----------


          k = 0.0000 0.0000 0.0000 (119010 PWs)   bands (ev):

   -23.7557 -22.9263 -22.9195 -22.8752 -22.8333 -22.7639 -22.3299 -21.0540
   -21.0490 -21.0151 -20.9683 -20.9125 -20.6393 -20.1655 -20.1475 -20.0934
   -20.0098 -19.9950 -19.1970 -17.9961 -17.9821 -17.9763 -17.8909 -17.7926
   -17.3771 -16.9990 -16.9707 -16.9658 -16.7574 -16.7073 -16.1418 -15.6531
   -15.6508 -15.6143 -15.3143 -15.2959 -14.2390 -13.2940 -13.2439 -13.2433
   -13.2075 -13.1920 -13.1471 -13.1374 -13.1288 -13.1192 -12.6383 -12.5682
   -11.9454 -11.8250 -11.7655 -11.7414 -11.6998 -11.4033 -11.3554 -11.0814
   -10.8134 -10.8074 -10.7716 -10.7443 -10.6834 -10.5812 -10.5534 -10.5076
   -10.4952 -10.4639 -10.4239 -10.4159 -10.3509 -10.3364 -10.2257  -9.4881
    -9.3795  -8.9124  -8.8398  -8.8336  -8.7606  -8.6582  -8.6496  -8.6349
    -8.6020  -8.5629  -8.2732  -8.0400  -7.7634  -7.7472  -7.7281  -7.7039
    -7.6532  -7.6349  -7.5425  -6.8779  -5.7992  -5.7806  -5.7760  -5.6917
    -5.6191  -4.4360  -3.0337  -2.9946  -2.9587  -2.9567  -2.7795  -2.7537
    -2.7528  -2.1063  -1.1925  -1.1282  -1.0398  -0.9565  -0.8973  -0.8749
    -0.2409  -0.1046   0.2742   0.2786   0.2860   0.3257   0.3305   0.4956
     0.5354   0.6559   0.6569   0.7854   0.9699   1.1429   1.1512   1.1742
     1.1783   1.2086

     the Fermi energy is    -4.7455 ev

!    total energy              =    -589.73483136 Ry
     estimated scf accuracy    <          5.4E-13 Ry
     smearing contrib. (-TS)   =       0.00164235 Ry
     internal energy E=F+TS    =    -589.73647372 Ry

     The total energy is F=E-TS. E is the sum of the following terms:
     one-electron contribution =   -6594.65012640 Ry
     hartree contribution      =    3315.62963746 Ry
     xc contribution           =    -209.60030997 Ry
     ewald contribution        =    2898.88432519 Ry

     total magnetization       =     2.00 Bohr mag/cell
     absolute magnetization    =     2.89 Bohr mag/cell

     convergence has been achieved in  15 iterations

     Forces acting on atoms (cartesian axes, Ry/au):

     atom    1 type  1   force =    -0.00000598    0.00000130    0.00000001
     atom    2 type  1   force =     0.00007563    0.00000152   -0.00000000
     atom    3 type  1   force =    -0.00006998    0.00010481   -0.00000000
     atom    4 type  1   force =     0.00009311   -0.00004728    0.00000001
     atom    5 type  1   force =     0.00000547    0.00008060    0.00000000
     atom    6 type  1   force =     0.00006416    0.00009415   -0.00000000
     atom    7 type  1   force =    -0.00005594    0.00005057   -0.00000000
     atom    8 type  1   force =    -0.00001697    0.00010062    0.00000000
     atom    9 type  1   force =    -0.00002723    0.00006122   -0.00000000
     atom   10 type  1   force =     0.00000501    0.00001061   -0.00000000
     atom   11 type  1   force =    -0.00007005   -0.00010161    0.00000001
     atom   12 type  1   force =     0.00009243    0.00004785    0.00000000
     atom   13 type  1   force =     0.00000146    0.00000023   -0.00000001
     atom   14 type  1   force =     0.00007119   -0.00000122    0.00000000
     atom   15 type  1   force =     0.00006125   -0.00001211    0.00000001
     atom   16 type  2   force =    -0.00013614   -0.00009747   -0.00000000
     atom   17 type  1   force =    -0.00003609    0.00001532   -0.00000000
     atom   18 type  1   force =    -0.00013031    0.00006495   -0.00000001
     atom   19 type  1   force =    -0.00005939   -0.00000989   -0.00000001
     atom   20 type  1   force =    -0.00004640   -0.00003609   -0.00000000
     atom   21 type  1   force =     0.00000345   -0.00008145   -0.00000000
     atom   22 type  1   force =     0.00006106   -0.00009764   -0.00000000
     atom   23 type  1   force =     0.00005790    0.00000852    0.00000000
     atom   24 type  2   force =    -0.00014024    0.00009327    0.00000000
     atom   25 type  2   force =     0.00012947    0.00000260    0.00000000
     atom   26 type  1   force =     0.00011844   -0.00002086    0.00000001
     atom   27 type  1   force =     0.00004451    0.00004880   -0.00000000
     atom   28 type  1   force =    -0.00002590   -0.00008121   -0.00000001
     atom   29 type  1   force =     0.00011033    0.00006561   -0.00000000
     atom   30 type  1   force =    -0.00005825   -0.00005394   -0.00000000
     atom   31 type  1   force =    -0.00001940   -0.00010270   -0.00000000
     atom   32 type  1   force =    -0.00003910   -0.00001682    0.00000001
     atom   33 type  1   force =    -0.00013315   -0.00006207   -0.00000000
     atom   34 type  1   force =     0.00011535    0.00002477   -0.00000001
     atom   35 type  1   force =     0.00004244   -0.00004632    0.00000000
     atom   36 type  1   force =    -0.00012516    0.00000069    0.00000000
     atom   37 type  1   force =    -0.00001268   -0.00000065    0.00000000
     atom   38 type  1   force =    -0.00009672    0.00000130   -0.00000000
     atom   39 type  1   force =     0.00006984   -0.00005419   -0.00000000
     atom   40 type  1   force =    -0.00002812   -0.00006173   -0.00000000
     atom   41 type  1   force =     0.00000419   -0.00000855    0.00000000
     atom   42 type  1   force =    -0.00006136    0.00001357    0.00000000
     atom   43 type  1   force =    -0.00004778    0.00003906    0.00000000
     atom   44 type  1   force =    -0.00002687    0.00008356    0.00000000
     atom   45 type  1   force =     0.00011040   -0.00006657    0.00000000
     atom   46 type  1   force =    -0.00009640   -0.00000310   -0.00000000
     atom   47 type  1   force =     0.00007088    0.00005040    0.00000000
     atom   48 type  1   force =    -0.00001295   -0.00000171   -0.00000000
     atom   49 type  1   force =     0.00017060   -0.00000071    0.00000000

     Total force =     0.000672     Total SCF correction =     0.000000
     Energy error            =      1.1E-06 Ry
     Gradient error          =      1.7E-04 Ry/Bohr

     number of scf cycles    =  18
     number of bfgs steps    =  17

     energy             old  =    -589.7348302690 Ry
     energy             new  =    -589.7348313633 Ry

     CASE: energy            _new < energy            _old

     new trust radius        =       0.0009621557 bohr
     new conv_thr            =            1.0E-12 Ry


ATOMIC_POSITIONS (crystal)
C                0.0654902781        0.0654890035        0.0000000008
C                0.1322005539        0.1321992764       -0.0000000011
C                0.0647903857        0.2662028755       -0.0000000020
C                0.1312958801        0.3324491728       -0.0000000025
C                0.0672039369        0.4656888100       -0.0000000032
C                0.1342604271        0.5318393158       -0.0000000022
C                0.0691556661        0.6647636344       -0.0000000011
C                0.1390912154        0.7276163501        0.0000000004
C                0.0690646808        0.8635789345        0.0000000010
C                0.1337344482        0.9316549677        0.0000000010
C                0.2662039662        0.0647891580       -0.0000000000
C                0.3324494685        0.1312956282       -0.0000000005
C                0.2645130797        0.2645129850       -0.0000000017
C                0.3298489247        0.3298496967       -0.0000000008
C                0.2681385398        0.4626694834       -0.0000000004
C1               0.3409520678        0.5197106191       -0.0000000002
C                0.2769857922        0.6555246683        0.0000000002
C                0.3361714938        0.7306582175        0.0000000012
C                0.2678389591        0.8637199271        0.0000000012
C                0.3338371578        0.9318453419        0.0000000008
C                0.4656888146        0.0672046023        0.0000000004
C                0.5318385733        0.1342623127        0.0000000001
C                0.4626687498        0.2681408080       -0.0000000009
C1               0.5197098843        0.3409548079       -0.0000000008
C1               0.5401953203        0.5401930168        0.0000000035
C                0.4696293808        0.6683670987        0.0000000021
C                0.5355983212        0.7355669431        0.0000000016
C                0.4673132755        0.8678651949        0.0000000012
C                0.5337671018        0.9343763093        0.0000000015
C                0.6647628240        0.0691574129        0.0000000007
C                0.7276159735        0.1390926194        0.0000000004
C                0.6555247107        0.2769871060       -0.0000000001
C                0.7306600037        0.3361709050        0.0000000000
C                0.6683692947        0.4696284871        0.0000000008
C                0.7355682936        0.5355978008        0.0000000001
C                0.6685862981        0.6685858772        0.0000000012
C                0.7349757440        0.7349763354        0.0000000007
C                0.6673481254        0.8681935210        0.0000000015
C                0.7334790886        0.9349377278        0.0000000009
C                0.8635788366        0.0690653054        0.0000000013
C                0.9316561995        0.1337336740        0.0000000004
C                0.8637216171        0.2678380477       -0.0000000008
C                0.9318467557        0.3338363241       -0.0000000021
C                0.8678662307        0.4673126429       -0.0000000021
C                0.9343760191        0.5337673559       -0.0000000026
C                0.8681927013        0.6673486849       -0.0000000009
C                0.9349361828        0.7334802488       -0.0000000007
C                0.8671047193        0.8671059917        0.0000000004
C                0.9335273714        0.9335281059        0.0000000011



     Writing config-only to output data dir /home/gregb26/links/scratch/qe_tmp/vacancy_relaxed/series/5x5/nspin2/vac_5x5_relax_nspin2.save/ :
     XML data file
     NEW-OLD atomic charge density approx. for the potential

     negative rho (up, down):  1.691E-08 1.953E-08
     Generating pointlists ...

     total cpu time spent up to now is      371.0 secs

     per-process dynamical memory:   167.8 Mb

     Self-consistent Calculation

     iteration #  1     ecut=   100.00 Ry     beta= 0.30
     Davidson diagonalization with overlap
     ethr =  1.00E-06,  avg # of iterations =  2.0
     Minimization algorithm failed to find Fermi energy: reverting to bisection
     Possible cause: smearing is larger than the electronic band-gap.

     Threshold (ethr) on eigenvalues was too large:
     Diagonalizing with lowered threshold

     Davidson diagonalization with overlap
     ethr =  2.50E-10,  avg # of iterations =  5.0
     Minimization algorithm failed to find Fermi energy: reverting to bisection
     Possible cause: smearing is larger than the electronic band-gap.

     negative rho (up, down):  2.047E-08 1.918E-08

     total cpu time spent up to now is      373.3 secs

     total energy              =    -589.73483146 Ry
     estimated scf accuracy    <       0.00000084 Ry

     total magnetization       =     2.00 Bohr mag/cell
     absolute magnetization    =     2.89 Bohr mag/cell

     iteration #  2     ecut=   100.00 Ry     beta= 0.30
     Davidson diagonalization with overlap
     ethr =  4.29E-10,  avg # of iterations =  2.0
     Minimization algorithm failed to find Fermi energy: reverting to bisection
     Possible cause: smearing is larger than the electronic band-gap.

     negative rho (up, down):  1.703E-08 1.604E-08

     total cpu time spent up to now is      374.2 secs

     total energy              =    -589.73483147 Ry
     estimated scf accuracy    <       0.00000118 Ry

     total magnetization       =     2.00 Bohr mag/cell
     absolute magnetization    =     2.89 Bohr mag/cell

     iteration #  3     ecut=   100.00 Ry     beta= 0.30
     Davidson diagonalization with overlap
     ethr =  4.29E-10,  avg # of iterations =  1.5
     Minimization algorithm failed to find Fermi energy: reverting to bisection
     Possible cause: smearing is larger than the electronic band-gap.

     total cpu time spent up to now is      375.1 secs

     total energy              =    -589.73483161 Ry
     estimated scf accuracy    <       0.00000022 Ry

     total magnetization       =     2.00 Bohr mag/cell
     absolute magnetization    =     2.89 Bohr mag/cell

     iteration #  4     ecut=   100.00 Ry     beta= 0.30
     Davidson diagonalization with overlap
     ethr =  1.10E-10,  avg # of iterations =  1.0
     Minimization algorithm failed to find Fermi energy: reverting to bisection
     Possible cause: smearing is larger than the electronic band-gap.

     total cpu time spent up to now is      377.1 secs

     total energy              =    -589.73483163 Ry
     estimated scf accuracy    <       0.00000004 Ry

     total magnetization       =     2.00 Bohr mag/cell
     absolute magnetization    =     2.89 Bohr mag/cell

     iteration #  5     ecut=   100.00 Ry     beta= 0.30
     Davidson diagonalization with overlap
     ethr =  2.02E-11,  avg # of iterations =  2.5
     Minimization algorithm failed to find Fermi energy: reverting to bisection
     Possible cause: smearing is larger than the electronic band-gap.

     total cpu time spent up to now is      378.0 secs

     total energy              =    -589.73483164 Ry
     estimated scf accuracy    <       0.00000001 Ry

     total magnetization       =     2.00 Bohr mag/cell
     absolute magnetization    =     2.89 Bohr mag/cell

     iteration #  6     ecut=   100.00 Ry     beta= 0.30
     Davidson diagonalization with overlap
     ethr =  5.15E-12,  avg # of iterations =  2.5
     Minimization algorithm failed to find Fermi energy: reverting to bisection
     Possible cause: smearing is larger than the electronic band-gap.

     total cpu time spent up to now is      379.0 secs

     total energy              =    -589.73483165 Ry
     estimated scf accuracy    <          3.6E-09 Ry

     total magnetization       =     2.00 Bohr mag/cell
     absolute magnetization    =     2.89 Bohr mag/cell

     iteration #  7     ecut=   100.00 Ry     beta= 0.30
     Davidson diagonalization with overlap
     ethr =  1.82E-12,  avg # of iterations =  2.5
     Minimization algorithm failed to find Fermi energy: reverting to bisection
     Possible cause: smearing is larger than the electronic band-gap.

     total cpu time spent up to now is      380.1 secs

     total energy              =    -589.73483165 Ry
     estimated scf accuracy    <          1.4E-09 Ry

     total magnetization       =     2.00 Bohr mag/cell
     absolute magnetization    =     2.89 Bohr mag/cell

     iteration #  8     ecut=   100.00 Ry     beta= 0.30
     Davidson diagonalization with overlap
     ethr =  7.23E-13,  avg # of iterations =  2.5
     Minimization algorithm failed to find Fermi energy: reverting to bisection
     Possible cause: smearing is larger than the electronic band-gap.

     total cpu time spent up to now is      381.1 secs

     total energy              =    -589.73483165 Ry
     estimated scf accuracy    <          5.7E-10 Ry

     total magnetization       =     2.00 Bohr mag/cell
     absolute magnetization    =     2.89 Bohr mag/cell

     iteration #  9     ecut=   100.00 Ry     beta= 0.30
     Davidson diagonalization with overlap
     ethr =  2.91E-13,  avg # of iterations =  3.5
     Minimization algorithm failed to find Fermi energy: reverting to bisection
     Possible cause: smearing is larger than the electronic band-gap.

     total cpu time spent up to now is      382.3 secs

     total energy              =    -589.73483165 Ry
     estimated scf accuracy    <          1.5E-10 Ry

     total magnetization       =     2.00 Bohr mag/cell
     absolute magnetization    =     2.89 Bohr mag/cell

     iteration # 10     ecut=   100.00 Ry     beta= 0.30
     Davidson diagonalization with overlap
     ethr =  1.00E-13,  avg # of iterations =  3.5
     Minimization algorithm failed to find Fermi energy: reverting to bisection
     Possible cause: smearing is larger than the electronic band-gap.

     total cpu time spent up to now is      383.4 secs

     total energy              =    -589.73483165 Ry
     estimated scf accuracy    <          4.1E-11 Ry

     total magnetization       =     2.00 Bohr mag/cell
     absolute magnetization    =     2.89 Bohr mag/cell

     iteration # 11     ecut=   100.00 Ry     beta= 0.30
     Davidson diagonalization with overlap
     ethr =  1.00E-13,  avg # of iterations =  2.0
     Minimization algorithm failed to find Fermi energy: reverting to bisection
     Possible cause: smearing is larger than the electronic band-gap.

     total cpu time spent up to now is      384.3 secs

     total energy              =    -589.73483165 Ry
     estimated scf accuracy    <          7.7E-12 Ry

     total magnetization       =     2.00 Bohr mag/cell
     absolute magnetization    =     2.89 Bohr mag/cell

     iteration # 12     ecut=   100.00 Ry     beta= 0.30
     Davidson diagonalization with overlap
     ethr =  1.00E-13,  avg # of iterations =  1.5
     Minimization algorithm failed to find Fermi energy: reverting to bisection
     Possible cause: smearing is larger than the electronic band-gap.

     total cpu time spent up to now is      385.2 secs

     total energy              =    -589.73483165 Ry
     estimated scf accuracy    <          2.8E-12 Ry

     total magnetization       =     2.00 Bohr mag/cell
     absolute magnetization    =     2.89 Bohr mag/cell

     iteration # 13     ecut=   100.00 Ry     beta= 0.30
     Davidson diagonalization with overlap
     ethr =  1.00E-13,  avg # of iterations =  1.0
     Minimization algorithm failed to find Fermi energy: reverting to bisection
     Possible cause: smearing is larger than the electronic band-gap.

     total cpu time spent up to now is      386.0 secs

     total energy              =    -589.73483165 Ry
     estimated scf accuracy    <          1.1E-12 Ry

     total magnetization       =     2.00 Bohr mag/cell
     absolute magnetization    =     2.89 Bohr mag/cell

     iteration # 14     ecut=   100.00 Ry     beta= 0.30
     Davidson diagonalization with overlap
     ethr =  1.00E-13,  avg # of iterations =  1.0
     Minimization algorithm failed to find Fermi energy: reverting to bisection
     Possible cause: smearing is larger than the electronic band-gap.

     Magnetic moment per site  (integrated on atomic sphere of radius R)
     atom   1 (R=0.045)  charge=  1.5181  magn= -0.0110
     atom   2 (R=0.045)  charge=  1.5167  magn=  0.0660
     atom   3 (R=0.045)  charge=  1.5250  magn= -0.0109
     atom   4 (R=0.045)  charge=  1.5272  magn=  0.0186
     atom   5 (R=0.045)  charge=  1.5258  magn= -0.0053
     atom   6 (R=0.045)  charge=  1.5213  magn=  0.0067
     atom   7 (R=0.045)  charge=  1.5229  magn= -0.0045
     atom   8 (R=0.045)  charge=  1.4911  magn=  0.0044
     atom   9 (R=0.045)  charge=  1.5029  magn= -0.0079
     atom  10 (R=0.045)  charge=  1.5195  magn=  0.0186
     atom  11 (R=0.045)  charge=  1.5250  magn= -0.0109
     atom  12 (R=0.045)  charge=  1.5272  magn=  0.0186
     atom  13 (R=0.045)  charge=  1.5379  magn= -0.0097
     atom  14 (R=0.045)  charge=  1.5431  magn=  0.0441
     atom  15 (R=0.045)  charge=  1.5361  magn= -0.0045
     atom  16 (R=0.045)  charge=  1.4098  magn=  0.0694
     atom  17 (R=0.045)  charge=  1.4767  magn= -0.0128
     atom  18 (R=0.045)  charge=  1.5158  magn=  0.0534
     atom  19 (R=0.045)  charge=  1.5162  magn= -0.0110
     atom  20 (R=0.045)  charge=  1.5201  magn=  0.0168
     atom  21 (R=0.045)  charge=  1.5258  magn= -0.0053
     atom  22 (R=0.045)  charge=  1.5213  magn=  0.0067
     atom  23 (R=0.045)  charge=  1.5361  magn= -0.0045
     atom  24 (R=0.045)  charge=  1.4098  magn=  0.0694
     atom  25 (R=0.045)  charge=  1.4930  magn=  0.3466
     atom  26 (R=0.045)  charge=  1.5430  magn= -0.0095
     atom  27 (R=0.045)  charge=  1.5310  magn=  0.0249
     atom  28 (R=0.045)  charge=  1.5290  magn= -0.0034
     atom  29 (R=0.045)  charge=  1.5256  magn=  0.0121
     atom  30 (R=0.045)  charge=  1.5229  magn= -0.0045
     atom  31 (R=0.045)  charge=  1.4911  magn=  0.0044
     atom  32 (R=0.045)  charge=  1.4767  magn= -0.0128
     atom  33 (R=0.045)  charge=  1.5158  magn=  0.0534
     atom  34 (R=0.045)  charge=  1.5430  magn= -0.0095
     atom  35 (R=0.045)  charge=  1.5310  magn=  0.0249
     atom  36 (R=0.045)  charge=  1.5302  magn= -0.0102
     atom  37 (R=0.045)  charge=  1.5270  magn=  0.0052
     atom  38 (R=0.045)  charge=  1.5255  magn= -0.0063
     atom  39 (R=0.045)  charge=  1.5194  magn=  0.0056
     atom  40 (R=0.045)  charge=  1.5029  magn= -0.0079
     atom  41 (R=0.045)  charge=  1.5195  magn=  0.0186
     atom  42 (R=0.045)  charge=  1.5162  magn= -0.0110
     atom  43 (R=0.045)  charge=  1.5201  magn=  0.0168
     atom  44 (R=0.045)  charge=  1.5290  magn= -0.0034
     atom  45 (R=0.045)  charge=  1.5256  magn=  0.0121
     atom  46 (R=0.045)  charge=  1.5255  magn= -0.0063
     atom  47 (R=0.045)  charge=  1.5194  magn=  0.0056
     atom  48 (R=0.045)  charge=  1.5222  magn= -0.0060
     atom  49 (R=0.045)  charge=  1.5032  magn=  0.0138

     total cpu time spent up to now is      386.7 secs

     End of self-consistent calculation

 ------ SPIN UP ------------


          k = 0.0000 0.0000 0.0000 (119010 PWs)   bands (ev):

   -23.7896 -22.9864 -22.9386 -22.9064 -22.8560 -22.7930 -22.4343 -21.0934
   -21.0792 -21.0452 -21.0421 -20.9338 -20.6935 -20.2282 -20.1794 -20.1269
   -20.0790 -20.0332 -19.2990 -18.0211 -18.0119 -18.0022 -17.9189 -17.8902
   -17.5060 -17.0284 -16.9945 -16.9928 -16.8407 -16.7374 -16.2042 -15.6977
   -15.6880 -15.6450 -15.3950 -15.3532 -14.3707 -13.3363 -13.2851 -13.2725
   -13.2390 -13.2251 -13.2010 -13.1819 -13.1497 -13.1442 -12.6586 -12.6518
   -12.0000 -11.8792 -11.7994 -11.7774 -11.7200 -11.4288 -11.4060 -11.2070
   -10.8847 -10.8430 -10.8354 -10.7715 -10.7357 -10.6438 -10.5689 -10.5385
   -10.5355 -10.4968 -10.4366 -10.4342 -10.3824 -10.3817 -10.3729  -9.5266
    -9.4604  -8.9456  -8.8697  -8.8675  -8.7807  -8.7151  -8.7146  -8.7009
    -8.6719  -8.6002  -8.4185  -8.3709  -7.8705  -7.8084  -7.7870  -7.7682
    -7.6955  -7.6869  -7.6865  -7.0200  -5.8510  -5.8373  -5.7950  -5.7565
    -5.7506  -4.8805  -4.8631  -3.2541  -3.0652  -3.0214  -2.9805  -2.9219
    -2.8758  -2.2164  -1.2311  -1.1701  -1.1536  -1.0258  -0.9728  -0.9693
    -0.3573  -0.1257   0.2629   0.2726   0.2774   0.3118   0.3207   0.4375
     0.4991   0.5785   0.5794   0.6914   0.7606   1.1360   1.1471   1.1625
     1.1718   1.1755

 ------ SPIN DOWN ----------


          k = 0.0000 0.0000 0.0000 (119010 PWs)   bands (ev):

   -23.7556 -22.9264 -22.9195 -22.8752 -22.8333 -22.7635 -22.3295 -21.0541
   -21.0488 -21.0149 -20.9682 -20.9121 -20.6392 -20.1655 -20.1473 -20.0933
   -20.0095 -19.9946 -19.1970 -17.9962 -17.9821 -17.9762 -17.8905 -17.7922
   -17.3769 -16.9988 -16.9707 -16.9658 -16.7573 -16.7070 -16.1418 -15.6528
   -15.6508 -15.6140 -15.3141 -15.2956 -14.2389 -13.2940 -13.2438 -13.2431
   -13.2074 -13.1918 -13.1470 -13.1369 -13.1286 -13.1190 -12.6379 -12.5681
   -11.9452 -11.8250 -11.7650 -11.7412 -11.6995 -11.4033 -11.3553 -11.0816
   -10.8134 -10.8075 -10.7716 -10.7443 -10.6831 -10.5810 -10.5537 -10.5070
   -10.4947 -10.4635 -10.4237 -10.4156 -10.3504 -10.3362 -10.2254  -9.4877
    -9.3794  -8.9124  -8.8393  -8.8334  -8.7605  -8.6582  -8.6498  -8.6347
    -8.6019  -8.5626  -8.2733  -8.0420  -7.7636  -7.7469  -7.7282  -7.7036
    -7.6533  -7.6346  -7.5421  -6.8780  -5.7992  -5.7806  -5.7760  -5.6913
    -5.6189  -4.4363  -3.0337  -2.9946  -2.9567  -2.9553  -2.7794  -2.7528
    -2.7519  -2.1062  -1.1926  -1.1285  -1.0397  -0.9565  -0.8970  -0.8748
    -0.2410  -0.1047   0.2742   0.2786   0.2859   0.3257   0.3305   0.4956
     0.5354   0.6557   0.6570   0.7853   0.9701   1.1429   1.1512   1.1738
     1.1784   1.2072

     the Fermi energy is    -4.7458 ev

!    total energy              =    -589.73483165 Ry
     estimated scf accuracy    <          4.4E-13 Ry
     smearing contrib. (-TS)   =       0.00164385 Ry
     internal energy E=F+TS    =    -589.73647550 Ry

     The total energy is F=E-TS. E is the sum of the following terms:
     one-electron contribution =   -6594.64730634 Ry
     hartree contribution      =    3315.62913663 Ry
     xc contribution           =    -209.60021982 Ry
     ewald contribution        =    2898.88191404 Ry

     total magnetization       =     2.00 Bohr mag/cell
     absolute magnetization    =     2.89 Bohr mag/cell

     convergence has been achieved in  14 iterations

     Forces acting on atoms (cartesian axes, Ry/au):

     atom    1 type  1   force =    -0.00001038    0.00000121   -0.00000000
     atom    2 type  1   force =     0.00002795    0.00000133    0.00000001
     atom    3 type  1   force =    -0.00001496   -0.00002797   -0.00000001
     atom    4 type  1   force =     0.00004307    0.00009484    0.00000000
     atom    5 type  1   force =     0.00000468   -0.00007492    0.00000000
     atom    6 type  1   force =     0.00003361   -0.00000427    0.00000001
     atom    7 type  1   force =     0.00004450    0.00005875    0.00000000
     atom    8 type  1   force =    -0.00003752   -0.00000216   -0.00000000
     atom    9 type  1   force =     0.00007708    0.00003145   -0.00000000
     atom   10 type  1   force =    -0.00004023   -0.00006075    0.00000000
     atom   11 type  1   force =    -0.00001464    0.00003022   -0.00000000
     atom   12 type  1   force =     0.00004295   -0.00009397   -0.00000000
     atom   13 type  1   force =    -0.00004924   -0.00000023    0.00000001
     atom   14 type  1   force =     0.00000759   -0.00000073   -0.00000001
     atom   15 type  1   force =     0.00004152    0.00002094   -0.00000000
     atom   16 type  2   force =    -0.00003414    0.00003127   -0.00000001
     atom   17 type  1   force =    -0.00002789   -0.00002081   -0.00000000
     atom   18 type  1   force =    -0.00001524   -0.00008408    0.00000000
     atom   19 type  1   force =    -0.00008500    0.00003875   -0.00000000
     atom   20 type  1   force =     0.00003992   -0.00011948    0.00000000
     atom   21 type  1   force =     0.00000345    0.00007421    0.00000000
     atom   22 type  1   force =     0.00003144    0.00000157    0.00000000
     atom   23 type  1   force =     0.00003850   -0.00002443    0.00000001
     atom   24 type  2   force =    -0.00003759   -0.00003483   -0.00000001
     atom   25 type  2   force =     0.00004129    0.00000254    0.00000001
     atom   26 type  1   force =    -0.00004911    0.00007488   -0.00000000
     atom   27 type  1   force =    -0.00001239   -0.00000711   -0.00000000
     atom   28 type  1   force =     0.00002958    0.00011080    0.00000000
     atom   29 type  1   force =     0.00001018   -0.00005021   -0.00000000
     atom   30 type  1   force =     0.00004268   -0.00006131    0.00000000
     atom   31 type  1   force =    -0.00003948    0.00000048    0.00000000
     atom   32 type  1   force =    -0.00003053    0.00001954   -0.00000000
     atom   33 type  1   force =    -0.00001747    0.00008658   -0.00000000
     atom   34 type  1   force =    -0.00005145   -0.00007189    0.00000000
     atom   35 type  1   force =    -0.00001383    0.00000943   -0.00000000
     atom   36 type  1   force =     0.00001955    0.00000031   -0.00000000
     atom   37 type  1   force =    -0.00004401   -0.00000058    0.00000000
     atom   38 type  1   force =     0.00007194   -0.00002359   -0.00000000
     atom   39 type  1   force =    -0.00008251   -0.00001484   -0.00000000
     atom   40 type  1   force =     0.00007626   -0.00003205   -0.00000000
     atom   41 type  1   force =    -0.00004086    0.00006284   -0.00000000
     atom   42 type  1   force =    -0.00008643   -0.00003643    0.00000000
     atom   43 type  1   force =     0.00003897    0.00012179    0.00000000
     atom   44 type  1   force =     0.00002864   -0.00010918    0.00000000
     atom   45 type  1   force =     0.00001031    0.00004974    0.00000000
     atom   46 type  1   force =     0.00007238    0.00002214   -0.00000000
     atom   47 type  1   force =    -0.00008195    0.00001213    0.00000000
     atom   48 type  1   force =     0.00011248   -0.00000128    0.00000000
     atom   49 type  1   force =    -0.00007367   -0.00000062    0.00000000

     Total force =     0.000500     Total SCF correction =     0.000000
     Energy error            =      2.8E-07 Ry
     Gradient error          =      1.2E-04 Ry/Bohr

     number of scf cycles    =  19
     number of bfgs steps    =  18

     energy             old  =    -589.7348313633 Ry
     energy             new  =    -589.7348316480 Ry

     CASE: energy            _new < energy            _old

     new trust radius        =       0.0001682776 bohr
     new conv_thr            =            1.0E-12 Ry


ATOMIC_POSITIONS (crystal)
C                0.0654903421        0.0654891846        0.0000000009
C                0.1322009510        0.1321998090       -0.0000000009
C                0.0647892176        0.2662029746       -0.0000000022
C                0.1312933998        0.3324522713       -0.0000000024
C                0.0672058871        0.4656879184       -0.0000000031
C                0.1342597865        0.5318408989       -0.0000000021
C                0.0691523371        0.6647674329       -0.0000000011
C                0.1390886145        0.7276172766        0.0000000003
C                0.0690644434        0.8635819041        0.0000000010
C                0.1337347798        0.9316527446        0.0000000010
C                0.2662039461        0.0647881181        0.0000000000
C                0.3324525227        0.1312931763       -0.0000000005
C                0.2645120116        0.2645119063       -0.0000000016
C                0.3298485038        0.3298491899       -0.0000000009
C                0.2681374186        0.4626709161       -0.0000000003
C1               0.3409500814        0.5197081030       -0.0000000004
C                0.2769846439        0.6555230760        0.0000000001
C                0.3361724947        0.7306544844        0.0000000012
C                0.2678362574        0.8637179290        0.0000000010
C                0.3338416620        0.9318409191        0.0000000008
C                0.4656879167        0.0672064795        0.0000000005
C                0.5318402304        0.1342614674        0.0000000001
C                0.4626702694        0.2681394342       -0.0000000005
C1               0.5197074428        0.3409525493       -0.0000000010
C1               0.5401993688        0.5401973070        0.0000000038
C                0.4696268987        0.6683717571        0.0000000021
C                0.5355986840        0.7355686903        0.0000000015
C                0.4673117407        0.8678692406        0.0000000012
C                0.5337686202        0.9343760817        0.0000000014
C                0.6647667022        0.0691538961        0.0000000008
C                0.7276169264        0.1390898775        0.0000000005
C                0.6555231064        0.2769858197       -0.0000000001
C                0.7306560841        0.3361719607        0.0000000000
C                0.6683737288        0.4696260873        0.0000000008
C                0.7355698823        0.5355982326        0.0000000000
C                0.6685871590        0.6685867816        0.0000000011
C                0.7349749824        0.7349755148        0.0000000008
C                0.6673506339        0.8681939442        0.0000000014
C                0.7334796052        0.9349344862        0.0000000009
C                0.8635818104        0.0690650174        0.0000000012
C                0.9316538588        0.1337340848        0.0000000003
C                0.8637194513        0.2678354283       -0.0000000008
C                0.9318421820        0.3338409189       -0.0000000020
C                0.8678701612        0.4673111721       -0.0000000021
C                0.9343758225        0.5337688471       -0.0000000025
C                0.8681932105        0.6673511312       -0.0000000011
C                0.9349331056        0.7334806374       -0.0000000007
C                0.8671070144        0.8671081490        0.0000000005
C                0.9335274331        0.9335281062        0.0000000012



     Writing config-only to output data dir /home/gregb26/links/scratch/qe_tmp/vacancy_relaxed/series/5x5/nspin2/vac_5x5_relax_nspin2.save/ :
     XML data file
     NEW-OLD atomic charge density approx. for the potential
     Generating pointlists ...

     total cpu time spent up to now is      387.5 secs

     per-process dynamical memory:   167.8 Mb

     Self-consistent Calculation

     iteration #  1     ecut=   100.00 Ry     beta= 0.30
     Davidson diagonalization with overlap
     ethr =  1.00E-06,  avg # of iterations =  1.0
     Minimization algorithm failed to find Fermi energy: reverting to bisection
     Possible cause: smearing is larger than the electronic band-gap.

     Threshold (ethr) on eigenvalues was too large:
     Diagonalizing with lowered threshold

     Davidson diagonalization with overlap
     ethr =  7.25E-12,  avg # of iterations =  6.0
     Minimization algorithm failed to find Fermi energy: reverting to bisection
     Possible cause: smearing is larger than the electronic band-gap.

     total cpu time spent up to now is      390.2 secs

     total energy              =    -589.73483172 Ry
     estimated scf accuracy    <       0.00000005 Ry

     total magnetization       =     2.00 Bohr mag/cell
     absolute magnetization    =     2.89 Bohr mag/cell

     iteration #  2     ecut=   100.00 Ry     beta= 0.30
     Davidson diagonalization with overlap
     ethr =  2.49E-11,  avg # of iterations =  2.0
     Minimization algorithm failed to find Fermi energy: reverting to bisection
     Possible cause: smearing is larger than the electronic band-gap.

     total cpu time spent up to now is      391.2 secs

     total energy              =    -589.73483172 Ry
     estimated scf accuracy    <       0.00000004 Ry

     total magnetization       =     2.00 Bohr mag/cell
     absolute magnetization    =     2.89 Bohr mag/cell

     iteration #  3     ecut=   100.00 Ry     beta= 0.30
     Davidson diagonalization with overlap
     ethr =  1.99E-11,  avg # of iterations =  1.5
     Minimization algorithm failed to find Fermi energy: reverting to bisection
     Possible cause: smearing is larger than the electronic band-gap.

     total cpu time spent up to now is      392.1 secs

     total energy              =    -589.73483172 Ry
     estimated scf accuracy    <       0.00000002 Ry

     total magnetization       =     2.00 Bohr mag/cell
     absolute magnetization    =     2.89 Bohr mag/cell

     iteration #  4     ecut=   100.00 Ry     beta= 0.30
     Davidson diagonalization with overlap
     ethr =  8.08E-12,  avg # of iterations =  1.5
     Minimization algorithm failed to find Fermi energy: reverting to bisection
     Possible cause: smearing is larger than the electronic band-gap.

     total cpu time spent up to now is      393.1 secs

     total energy              =    -589.73483173 Ry
     estimated scf accuracy    <          2.5E-09 Ry

     total magnetization       =     2.00 Bohr mag/cell
     absolute magnetization    =     2.89 Bohr mag/cell

     iteration #  5     ecut=   100.00 Ry     beta= 0.30
     Davidson diagonalization with overlap
     ethr =  1.28E-12,  avg # of iterations =  2.0
     Minimization algorithm failed to find Fermi energy: reverting to bisection
     Possible cause: smearing is larger than the electronic band-gap.

     total cpu time spent up to now is      394.0 secs

     total energy              =    -589.73483173 Ry
     estimated scf accuracy    <          5.9E-10 Ry

     total magnetization       =     2.00 Bohr mag/cell
     absolute magnetization    =     2.89 Bohr mag/cell

     iteration #  6     ecut=   100.00 Ry     beta= 0.30
     Davidson diagonalization with overlap
     ethr =  3.01E-13,  avg # of iterations =  3.0
     Minimization algorithm failed to find Fermi energy: reverting to bisection
     Possible cause: smearing is larger than the electronic band-gap.

     total cpu time spent up to now is      395.0 secs

     total energy              =    -589.73483173 Ry
     estimated scf accuracy    <          1.0E-10 Ry

     total magnetization       =     2.00 Bohr mag/cell
     absolute magnetization    =     2.89 Bohr mag/cell

     iteration #  7     ecut=   100.00 Ry     beta= 0.30
     Davidson diagonalization with overlap
     ethr =  1.00E-13,  avg # of iterations =  3.0
     Minimization algorithm failed to find Fermi energy: reverting to bisection
     Possible cause: smearing is larger than the electronic band-gap.

     total cpu time spent up to now is      396.0 secs

     total energy              =    -589.73483173 Ry
     estimated scf accuracy    <          4.3E-11 Ry

     total magnetization       =     2.00 Bohr mag/cell
     absolute magnetization    =     2.89 Bohr mag/cell

     iteration #  8     ecut=   100.00 Ry     beta= 0.30
     Davidson diagonalization with overlap
     ethr =  1.00E-13,  avg # of iterations =  2.0
     Minimization algorithm failed to find Fermi energy: reverting to bisection
     Possible cause: smearing is larger than the electronic band-gap.

     total cpu time spent up to now is      396.9 secs

     total energy              =    -589.73483173 Ry
     estimated scf accuracy    <          1.5E-11 Ry

     total magnetization       =     2.00 Bohr mag/cell
     absolute magnetization    =     2.89 Bohr mag/cell

     iteration #  9     ecut=   100.00 Ry     beta= 0.30
     Davidson diagonalization with overlap
     ethr =  1.00E-13,  avg # of iterations =  1.0
     Minimization algorithm failed to find Fermi energy: reverting to bisection
     Possible cause: smearing is larger than the electronic band-gap.

     total cpu time spent up to now is      397.9 secs

     total energy              =    -589.73483173 Ry
     estimated scf accuracy    <          5.5E-12 Ry

     total magnetization       =     2.00 Bohr mag/cell
     absolute magnetization    =     2.89 Bohr mag/cell

     iteration # 10     ecut=   100.00 Ry     beta= 0.30
     Davidson diagonalization with overlap
     ethr =  1.00E-13,  avg # of iterations =  1.0
     Minimization algorithm failed to find Fermi energy: reverting to bisection
     Possible cause: smearing is larger than the electronic band-gap.

     total cpu time spent up to now is      398.7 secs

     total energy              =    -589.73483173 Ry
     estimated scf accuracy    <          2.1E-12 Ry

     total magnetization       =     2.00 Bohr mag/cell
     absolute magnetization    =     2.89 Bohr mag/cell

     iteration # 11     ecut=   100.00 Ry     beta= 0.30
     Davidson diagonalization with overlap
     ethr =  1.00E-13,  avg # of iterations =  1.0
     Minimization algorithm failed to find Fermi energy: reverting to bisection
     Possible cause: smearing is larger than the electronic band-gap.

     Magnetic moment per site  (integrated on atomic sphere of radius R)
     atom   1 (R=0.045)  charge=  1.5181  magn= -0.0110
     atom   2 (R=0.045)  charge=  1.5167  magn=  0.0660
     atom   3 (R=0.045)  charge=  1.5250  magn= -0.0109
     atom   4 (R=0.045)  charge=  1.5272  magn=  0.0186
     atom   5 (R=0.045)  charge=  1.5258  magn= -0.0053
     atom   6 (R=0.045)  charge=  1.5213  magn=  0.0067
     atom   7 (R=0.045)  charge=  1.5229  magn= -0.0045
     atom   8 (R=0.045)  charge=  1.4911  magn=  0.0044
     atom   9 (R=0.045)  charge=  1.5029  magn= -0.0079
     atom  10 (R=0.045)  charge=  1.5195  magn=  0.0186
     atom  11 (R=0.045)  charge=  1.5250  magn= -0.0109
     atom  12 (R=0.045)  charge=  1.5272  magn=  0.0186
     atom  13 (R=0.045)  charge=  1.5379  magn= -0.0097
     atom  14 (R=0.045)  charge=  1.5431  magn=  0.0441
     atom  15 (R=0.045)  charge=  1.5361  magn= -0.0045
     atom  16 (R=0.045)  charge=  1.4098  magn=  0.0694
     atom  17 (R=0.045)  charge=  1.4767  magn= -0.0128
     atom  18 (R=0.045)  charge=  1.5158  magn=  0.0534
     atom  19 (R=0.045)  charge=  1.5162  magn= -0.0110
     atom  20 (R=0.045)  charge=  1.5201  magn=  0.0168
     atom  21 (R=0.045)  charge=  1.5258  magn= -0.0053
     atom  22 (R=0.045)  charge=  1.5213  magn=  0.0067
     atom  23 (R=0.045)  charge=  1.5361  magn= -0.0045
     atom  24 (R=0.045)  charge=  1.4098  magn=  0.0694
     atom  25 (R=0.045)  charge=  1.4930  magn=  0.3467
     atom  26 (R=0.045)  charge=  1.5430  magn= -0.0095
     atom  27 (R=0.045)  charge=  1.5310  magn=  0.0249
     atom  28 (R=0.045)  charge=  1.5291  magn= -0.0034
     atom  29 (R=0.045)  charge=  1.5256  magn=  0.0121
     atom  30 (R=0.045)  charge=  1.5229  magn= -0.0045
     atom  31 (R=0.045)  charge=  1.4911  magn=  0.0044
     atom  32 (R=0.045)  charge=  1.4767  magn= -0.0128
     atom  33 (R=0.045)  charge=  1.5158  magn=  0.0534
     atom  34 (R=0.045)  charge=  1.5430  magn= -0.0095
     atom  35 (R=0.045)  charge=  1.5310  magn=  0.0249
     atom  36 (R=0.045)  charge=  1.5302  magn= -0.0102
     atom  37 (R=0.045)  charge=  1.5270  magn=  0.0052
     atom  38 (R=0.045)  charge=  1.5255  magn= -0.0063
     atom  39 (R=0.045)  charge=  1.5194  magn=  0.0056
     atom  40 (R=0.045)  charge=  1.5029  magn= -0.0079
     atom  41 (R=0.045)  charge=  1.5195  magn=  0.0186
     atom  42 (R=0.045)  charge=  1.5162  magn= -0.0110
     atom  43 (R=0.045)  charge=  1.5201  magn=  0.0168
     atom  44 (R=0.045)  charge=  1.5291  magn= -0.0034
     atom  45 (R=0.045)  charge=  1.5256  magn=  0.0121
     atom  46 (R=0.045)  charge=  1.5255  magn= -0.0063
     atom  47 (R=0.045)  charge=  1.5194  magn=  0.0056
     atom  48 (R=0.045)  charge=  1.5222  magn= -0.0060
     atom  49 (R=0.045)  charge=  1.5032  magn=  0.0138

     total cpu time spent up to now is      399.5 secs

     End of self-consistent calculation

 ------ SPIN UP ------------


          k = 0.0000 0.0000 0.0000 (119010 PWs)   bands (ev):

   -23.7896 -22.9864 -22.9386 -22.9064 -22.8561 -22.7930 -22.4343 -21.0934
   -21.0793 -21.0453 -21.0421 -20.9338 -20.6936 -20.2282 -20.1794 -20.1269
   -20.0789 -20.0332 -19.2989 -18.0212 -18.0119 -18.0023 -17.9189 -17.8901
   -17.5060 -17.0285 -16.9944 -16.9928 -16.8408 -16.7373 -16.2042 -15.6977
   -15.6880 -15.6450 -15.3951 -15.3532 -14.3706 -13.3363 -13.2852 -13.2725
   -13.2389 -13.2251 -13.2010 -13.1820 -13.1497 -13.1442 -12.6587 -12.6517
   -12.0001 -11.8792 -11.7994 -11.7775 -11.7199 -11.4286 -11.4061 -11.2067
   -10.8847 -10.8430 -10.8354 -10.7716 -10.7357 -10.6438 -10.5689 -10.5385
   -10.5358 -10.4967 -10.4365 -10.4343 -10.3826 -10.3816 -10.3729  -9.5267
    -9.4604  -8.9454  -8.8697  -8.8676  -8.7807  -8.7151  -8.7146  -8.7009
    -8.6719  -8.6002  -8.4181  -8.3710  -7.8704  -7.8085  -7.7871  -7.7682
    -7.6954  -7.6868  -7.6867  -7.0200  -5.8511  -5.8374  -5.7950  -5.7563
    -5.7507  -4.8805  -4.8630  -3.2539  -3.0653  -3.0215  -2.9804  -2.9218
    -2.8757  -2.2164  -1.2311  -1.1699  -1.1537  -1.0259  -0.9728  -0.9693
    -0.3572  -0.1257   0.2629   0.2726   0.2774   0.3118   0.3207   0.4375
     0.4990   0.5786   0.5794   0.6915   0.7606   1.1360   1.1471   1.1622
     1.1718   1.1754

 ------ SPIN DOWN ----------


          k = 0.0000 0.0000 0.0000 (119010 PWs)   bands (ev):

   -23.7556 -22.9264 -22.9195 -22.8752 -22.8334 -22.7635 -22.3295 -21.0541
   -21.0489 -21.0150 -20.9682 -20.9120 -20.6393 -20.1655 -20.1473 -20.0933
   -20.0094 -19.9946 -19.1969 -17.9962 -17.9820 -17.9764 -17.8905 -17.7921
   -17.3770 -16.9988 -16.9706 -16.9658 -16.7572 -16.7070 -16.1417 -15.6528
   -15.6507 -15.6141 -15.3141 -15.2957 -14.2388 -13.2940 -13.2438 -13.2431
   -13.2074 -13.1917 -13.1471 -13.1369 -13.1287 -13.1190 -12.6380 -12.5680
   -11.9452 -11.8250 -11.7651 -11.7413 -11.6994 -11.4032 -11.3554 -11.0813
   -10.8135 -10.8075 -10.7716 -10.7443 -10.6831 -10.5810 -10.5537 -10.5073
   -10.4947 -10.4634 -10.4239 -10.4155 -10.3506 -10.3361 -10.2254  -9.4878
    -9.3794  -8.9122  -8.8394  -8.8333  -8.7606  -8.6583  -8.6497  -8.6348
    -8.6019  -8.5625  -8.2733  -8.0418  -7.7635  -7.7471  -7.7282  -7.7037
    -7.6532  -7.6345  -7.5423  -6.8779  -5.7992  -5.7805  -5.7761  -5.6913
    -5.6188  -4.4363  -3.0337  -2.9947  -2.9566  -2.9552  -2.7793  -2.7527
    -2.7516  -2.1062  -1.1927  -1.1283  -1.0398  -0.9565  -0.8971  -0.8749
    -0.2410  -0.1047   0.2742   0.2786   0.2859   0.3257   0.3305   0.4956
     0.5354   0.6558   0.6570   0.7855   0.9701   1.1429   1.1512   1.1735
     1.1784   1.2059

     the Fermi energy is    -4.7458 ev

!    total energy              =    -589.73483173 Ry
     estimated scf accuracy    <          5.8E-13 Ry
     smearing contrib. (-TS)   =       0.00164394 Ry
     internal energy E=F+TS    =    -589.73647567 Ry

     The total energy is F=E-TS. E is the sum of the following terms:
     one-electron contribution =   -6594.64990945 Ry
     hartree contribution      =    3315.63051173 Ry
     xc contribution           =    -209.60035199 Ry
     ewald contribution        =    2898.88327404 Ry

     total magnetization       =     2.00 Bohr mag/cell
     absolute magnetization    =     2.89 Bohr mag/cell

     convergence has been achieved in  11 iterations

     Forces acting on atoms (cartesian axes, Ry/au):

     atom    1 type  1   force =    -0.00002050    0.00000121   -0.00000001
     atom    2 type  1   force =    -0.00000420    0.00000117    0.00000000
     atom    3 type  1   force =     0.00000199    0.00002643    0.00000000
     atom    4 type  1   force =    -0.00000240    0.00000724   -0.00000000
     atom    5 type  1   force =     0.00001456    0.00001321    0.00000000
     atom    6 type  1   force =     0.00003797    0.00001063    0.00000001
     atom    7 type  1   force =    -0.00000355    0.00000197    0.00000000
     atom    8 type  1   force =     0.00001521   -0.00000103   -0.00000000
     atom    9 type  1   force =    -0.00002042   -0.00000872    0.00000000
     atom   10 type  1   force =     0.00002844    0.00000334    0.00000000
     atom   11 type  1   force =     0.00000226   -0.00002439   -0.00000001
     atom   12 type  1   force =    -0.00000241   -0.00000687    0.00000000
     atom   13 type  1   force =    -0.00000867    0.00000015    0.00000000
     atom   14 type  1   force =    -0.00001028   -0.00000079    0.00000000
     atom   15 type  1   force =    -0.00003092   -0.00000517   -0.00000000
     atom   16 type  2   force =     0.00004780    0.00003261   -0.00000001
     atom   17 type  1   force =    -0.00003516   -0.00002964    0.00000000
     atom   18 type  1   force =    -0.00002000    0.00000067   -0.00000000
     atom   19 type  1   force =    -0.00000379   -0.00004111    0.00000000
     atom   20 type  1   force =    -0.00002231    0.00003479   -0.00000000
     atom   21 type  1   force =     0.00001346   -0.00001380    0.00000000
     atom   22 type  1   force =     0.00003605   -0.00001309    0.00000000
     atom   23 type  1   force =    -0.00003340    0.00000235    0.00000000
     atom   24 type  2   force =     0.00004435   -0.00003587   -0.00000000
     atom   25 type  2   force =     0.00000128    0.00000216   -0.00000001
     atom   26 type  1   force =    -0.00002726   -0.00002253    0.00000000
     atom   27 type  1   force =    -0.00000742    0.00002901   -0.00000000
     atom   28 type  1   force =     0.00002038   -0.00001318    0.00000000
     atom   29 type  1   force =     0.00004674   -0.00000536   -0.00000000
     atom   30 type  1   force =    -0.00000506   -0.00000433   -0.00000000
     atom   31 type  1   force =     0.00001347   -0.00000060    0.00000000
     atom   32 type  1   force =    -0.00003736    0.00002850    0.00000000
     atom   33 type  1   force =    -0.00002192    0.00000144    0.00000000
     atom   34 type  1   force =    -0.00002932    0.00002548    0.00000001
     atom   35 type  1   force =    -0.00000875   -0.00002737   -0.00000000
     atom   36 type  1   force =    -0.00003327    0.00000047   -0.00000000
     atom   37 type  1   force =     0.00003901   -0.00000058   -0.00000000
     atom   38 type  1   force =    -0.00003924   -0.00002199   -0.00000000
     atom   39 type  1   force =     0.00003983   -0.00001985   -0.00000000
     atom   40 type  1   force =    -0.00002131    0.00000815   -0.00000000
     atom   41 type  1   force =     0.00002771   -0.00000154    0.00000000
     atom   42 type  1   force =    -0.00000494    0.00004344    0.00000000
     atom   43 type  1   force =    -0.00002324   -0.00003279    0.00000000
     atom   44 type  1   force =     0.00001972    0.00001476    0.00000000
     atom   45 type  1   force =     0.00004676    0.00000493    0.00000000
     atom   46 type  1   force =    -0.00003881    0.00002074    0.00000000
     atom   47 type  1   force =     0.00004044    0.00001747    0.00000000
     atom   48 type  1   force =    -0.00001515   -0.00000109    0.00000000
     atom   49 type  1   force =    -0.00000635   -0.00000064   -0.00000000

     Total force =     0.000225     Total SCF correction =     0.000001
     Energy error            =      7.9E-08 Ry
     Gradient error          =      4.8E-05 Ry/Bohr

     bfgs converged in  20 scf cycles and  19 bfgs steps
     (criteria: energy <  1.0E-05 Ry, force <  1.0E-04 Ry/Bohr)

     End of BFGS Geometry Optimization

     Final energy             =    -589.7348317270 Ry

     File /home/gregb26/links/scratch/qe_tmp/vacancy_relaxed/series/5x5/nspin2/vac_5x5_relax_nspin2.bfgs deleted, as requested
Begin final coordinates

ATOMIC_POSITIONS (crystal)
C                0.0654903421        0.0654891846        0.0000000009
C                0.1322009510        0.1321998090       -0.0000000009
C                0.0647892176        0.2662029746       -0.0000000022
C                0.1312933998        0.3324522713       -0.0000000024
C                0.0672058871        0.4656879184       -0.0000000031
C                0.1342597865        0.5318408989       -0.0000000021
C                0.0691523371        0.6647674329       -0.0000000011
C                0.1390886145        0.7276172766        0.0000000003
C                0.0690644434        0.8635819041        0.0000000010
C                0.1337347798        0.9316527446        0.0000000010
C                0.2662039461        0.0647881181        0.0000000000
C                0.3324525227        0.1312931763       -0.0000000005
C                0.2645120116        0.2645119063       -0.0000000016
C                0.3298485038        0.3298491899       -0.0000000009
C                0.2681374186        0.4626709161       -0.0000000003
C1               0.3409500814        0.5197081030       -0.0000000004
C                0.2769846439        0.6555230760        0.0000000001
C                0.3361724947        0.7306544844        0.0000000012
C                0.2678362574        0.8637179290        0.0000000010
C                0.3338416620        0.9318409191        0.0000000008
C                0.4656879167        0.0672064795        0.0000000005
C                0.5318402304        0.1342614674        0.0000000001
C                0.4626702694        0.2681394342       -0.0000000005
C1               0.5197074428        0.3409525493       -0.0000000010
C1               0.5401993688        0.5401973070        0.0000000038
C                0.4696268987        0.6683717571        0.0000000021
C                0.5355986840        0.7355686903        0.0000000015
C                0.4673117407        0.8678692406        0.0000000012
C                0.5337686202        0.9343760817        0.0000000014
C                0.6647667022        0.0691538961        0.0000000008
C                0.7276169264        0.1390898775        0.0000000005
C                0.6555231064        0.2769858197       -0.0000000001
C                0.7306560841        0.3361719607        0.0000000000
C                0.6683737288        0.4696260873        0.0000000008
C                0.7355698823        0.5355982326        0.0000000000
C                0.6685871590        0.6685867816        0.0000000011
C                0.7349749824        0.7349755148        0.0000000008
C                0.6673506339        0.8681939442        0.0000000014
C                0.7334796052        0.9349344862        0.0000000009
C                0.8635818104        0.0690650174        0.0000000012
C                0.9316538588        0.1337340848        0.0000000003
C                0.8637194513        0.2678354283       -0.0000000008
C                0.9318421820        0.3338409189       -0.0000000020
C                0.8678701612        0.4673111721       -0.0000000021
C                0.9343758225        0.5337688471       -0.0000000025
C                0.8681932105        0.6673511312       -0.0000000011
C                0.9349331056        0.7334806374       -0.0000000007
C                0.8671070144        0.8671081490        0.0000000005
C                0.9335274331        0.9335281062        0.0000000012
End final coordinates



     Writing all to output data dir /home/gregb26/links/scratch/qe_tmp/vacancy_relaxed/series/5x5/nspin2/vac_5x5_relax_nspin2.save/ :
     XML data file, charge density, pseudopotentials, collected wavefunctions

     init_run     :      1.80s CPU      1.85s WALL (       1 calls)
     electrons    :    377.60s CPU    385.01s WALL (      20 calls)
     update_pot   :      2.71s CPU      2.76s WALL (      19 calls)
     forces       :      8.07s CPU      8.32s WALL (      20 calls)

     Called by init_run:
     wfcinit      :      0.47s CPU      0.49s WALL (       1 calls)
     potinit      :      0.25s CPU      0.26s WALL (       1 calls)
     hinit0       :      0.61s CPU      0.63s WALL (       1 calls)

     Called by electrons:
     c_bands      :    301.16s CPU    305.38s WALL (     347 calls)
     sum_band     :     37.88s CPU     38.46s WALL (     347 calls)
     v_of_rho     :     32.61s CPU     33.14s WALL (     360 calls)
     mix_rho      :      6.91s CPU      6.99s WALL (     347 calls)

     Called by c_bands:
     init_us_2    :      2.37s CPU      2.41s WALL (    1430 calls)
     regterg      :    289.04s CPU    292.43s WALL (     694 calls)

     Called by *egterg:
     rdiaghg      :     32.18s CPU     32.49s WALL (    2870 calls)
     h_psi        :    199.13s CPU    201.76s WALL (    2924 calls)
     g_psi        :      0.46s CPU      0.46s WALL (    2228 calls)

     Called by h_psi:
     h_psi:calbec :     21.80s CPU     21.98s WALL (    2924 calls)
     vloc_psi     :    162.49s CPU    164.82s WALL (    2924 calls)
                                        0.00s GPU  (    2924 calls)
     add_vuspsi   :     14.37s CPU     14.48s WALL (    2924 calls)

     General routines
     calbec       :     24.18s CPU     24.38s WALL (    3084 calls)
     fft          :     29.49s CPU     30.03s WALL (    4966 calls)
     ffts         :      0.99s CPU      1.03s WALL (     347 calls)
     fftw         :    185.64s CPU    188.18s WALL (  277792 calls)

     Parallel routines

     PWSCF        :    392.62s CPU    403.28s WALL


   This run was terminated on:   9:35:40  23Sep2026            

=------------------------------------------------------------------------------=
   JOB DONE.
=------------------------------------------------------------------------------=
